c planted random 3-SAT, n=60 ratio=4.20; every variable is free, there is no driving input set
c generated by TurboCryptoSAT gen-benchmark - satisfiable by construction
p cnf 60 252
43 -34 46 0
-59 10 -24 0
24 10 -3 0
51 -29 -39 0
2 9 54 0
-45 46 31 0
11 -59 -19 0
53 -59 26 0
6 -7 40 0
-5 53 -18 0
-29 12 5 0
-17 -37 -10 0
54 20 32 0
-8 22 -40 0
-37 -56 2 0
-49 11 15 0
-44 -25 59 0
28 -51 22 0
6 -5 27 0
-54 -19 -17 0
9 57 58 0
-55 17 18 0
-19 -52 31 0
-53 12 18 0
21 -11 31 0
44 -31 -14 0
47 -26 1 0
59 53 32 0
59 -19 47 0
58 53 -48 0
-59 55 40 0
-27 -34 -29 0
-16 51 -29 0
-10 54 -29 0
-40 -44 14 0
44 -37 -12 0
-32 42 -26 0
41 -33 -51 0
4 17 53 0
11 40 33 0
54 11 25 0
-18 -59 5 0
-14 -55 13 0
-5 32 -25 0
19 -40 44 0
34 -28 30 0
-20 -38 -15 0
-38 -18 44 0
29 26 -2 0
49 8 -57 0
57 -6 -59 0
8 -52 -49 0
-2 52 41 0
56 -60 9 0
38 55 15 0
11 -45 -13 0
39 51 -15 0
31 34 -26 0
57 38 33 0
-15 -29 60 0
-30 36 28 0
-40 -1 -42 0
59 2 49 0
-17 4 -10 0
31 42 53 0
36 37 -56 0
-52 60 -1 0
-30 -31 -56 0
-11 -44 43 0
-46 16 -21 0
3 9 -45 0
58 -43 -33 0
-38 4 -31 0
-24 55 -27 0
-33 31 -39 0
43 -53 6 0
32 -40 44 0
19 -6 -45 0
50 -58 -34 0
57 31 -36 0
32 -2 31 0
56 -12 -21 0
21 38 -6 0
-40 30 8 0
47 23 8 0
55 -3 -26 0
44 47 27 0
46 13 27 0
-53 18 -12 0
26 -58 3 0
-55 18 -13 0
27 -26 46 0
10 21 15 0
21 2 26 0
46 -43 27 0
-42 46 60 0
-51 -44 57 0
34 19 16 0
-19 25 -10 0
16 59 37 0
29 47 58 0
-56 23 -45 0
32 -17 60 0
-19 -2 -26 0
-31 -29 -50 0
35 -19 27 0
-48 -50 -40 0
7 52 -34 0
23 -1 -13 0
-56 -46 29 0
-41 25 58 0
28 21 17 0
-59 12 17 0
39 36 -56 0
2 -23 -59 0
24 -2 40 0
7 34 -57 0
-56 -23 14 0
-2 26 32 0
23 -10 5 0
1 -46 -12 0
8 -53 12 0
-31 3 37 0
17 -55 -12 0
-36 -33 -9 0
31 22 -3 0
-48 -9 -49 0
-25 -6 -28 0
-47 -52 -55 0
53 16 -14 0
-40 -57 59 0
53 2 -44 0
-46 -15 37 0
-38 -48 56 0
55 33 4 0
-18 35 -42 0
-53 -48 -52 0
28 26 -49 0
52 31 -25 0
-56 5 -53 0
40 -1 46 0
-3 -53 17 0
-55 -50 -34 0
-44 47 50 0
40 -59 7 0
8 -27 -43 0
23 -41 56 0
-48 37 18 0
-19 37 14 0
35 23 22 0
58 1 -47 0
-55 -53 56 0
26 -52 -38 0
-59 44 47 0
-40 -5 -17 0
-47 5 -11 0
56 37 -20 0
5 -20 21 0
-45 33 25 0
5 -17 -14 0
40 7 41 0
-32 -23 50 0
-32 -7 21 0
14 38 -19 0
-53 -58 21 0
51 32 39 0
5 -46 -36 0
-60 50 24 0
-26 -54 7 0
-42 -35 -25 0
-54 24 -26 0
19 27 -42 0
-13 -27 25 0
51 9 -36 0
-34 -45 58 0
31 -37 14 0
28 6 21 0
-33 9 41 0
22 24 -47 0
29 39 33 0
-41 -43 -26 0
-25 11 -23 0
22 35 45 0
54 -12 -20 0
24 47 -4 0
1 53 13 0
32 -1 44 0
18 37 13 0
-24 34 43 0
-45 -20 -49 0
-27 -8 16 0
56 28 -11 0
3 -13 -19 0
54 35 -20 0
-55 52 -30 0
6 -21 -27 0
41 -9 15 0
12 -22 39 0
59 -34 24 0
-13 25 43 0
-44 24 7 0
57 25 -34 0
25 -50 34 0
22 -16 18 0
-20 -33 -56 0
-47 45 13 0
-26 47 -52 0
57 20 -11 0
18 3 7 0
-7 -56 -20 0
-9 21 -11 0
14 -25 -30 0
57 13 -5 0
8 -59 35 0
-27 -19 46 0
47 44 35 0
51 -34 -7 0
8 -41 45 0
-29 -15 -54 0
11 -17 -48 0
41 36 9 0
-51 -13 -37 0
-39 -25 29 0
-5 21 16 0
-40 46 -20 0
-35 10 23 0
-11 37 45 0
11 46 -35 0
-13 -22 -3 0
51 39 27 0
1 -45 -25 0
-22 -6 -55 0
-42 -46 18 0
6 -46 24 0
-51 11 -39 0
-56 53 -12 0
-30 29 2 0
44 19 58 0
8 26 25 0
-59 -54 17 0
17 -32 23 0
5 -37 18 0
-19 46 -53 0
-53 23 -11 0
-23 17 53 0
22 52 5 0
33 58 -56 0
56 32 -47 0
-43 9 30 0
-38 51 -25 0
31 -32 -43 0
55 15 45 0
