c planted random 3-SAT, n=100 ratio=4.20; every variable is free, there is no driving input set
c generated by TurboCryptoSAT gen-benchmark - satisfiable by construction
p cnf 100 420
24 13 66 0
-63 -40 -44 0
-76 17 -74 0
-19 -45 -60 0
-39 -29 -58 0
37 -62 61 0
-36 -74 34 0
10 66 -98 0
69 -71 -62 0
-67 -6 12 0
12 64 -19 0
77 53 96 0
55 -52 -6 0
-96 -75 29 0
19 -55 -62 0
1 72 71 0
96 91 68 0
-13 -77 -90 0
-23 -85 81 0
-24 94 -48 0
45 43 -97 0
-97 63 47 0
-22 -67 51 0
-67 53 -68 0
-48 100 24 0
-31 -39 -14 0
81 -88 100 0
20 40 26 0
69 -6 -81 0
-96 81 -46 0
-58 -77 -73 0
-64 63 69 0
-10 4 8 0
-41 78 73 0
-44 -43 81 0
27 55 38 0
-4 98 -17 0
17 -83 22 0
6 69 -17 0
-63 99 -23 0
-83 95 90 0
60 -54 25 0
66 78 17 0
-85 -24 -68 0
-12 -35 55 0
93 -65 8 0
31 57 11 0
-81 17 -78 0
62 -4 -52 0
-78 67 74 0
83 43 48 0
93 -82 -38 0
58 47 -62 0
12 -38 -82 0
-19 27 -30 0
8 74 38 0
-64 19 -53 0
100 -93 32 0
16 -41 -70 0
45 63 -62 0
7 66 -21 0
30 29 -71 0
-83 -16 50 0
79 88 16 0
-56 45 49 0
-91 75 -70 0
55 38 14 0
4 -5 22 0
-90 -13 -66 0
14 -20 76 0
94 -36 -43 0
57 21 -60 0
44 -38 -91 0
30 -20 68 0
-61 -95 -2 0
35 29 -99 0
65 -43 91 0
-62 72 39 0
-26 59 -11 0
48 -18 -9 0
67 -78 -97 0
9 -1 -80 0
-67 80 -92 0
-25 70 -49 0
-42 66 -6 0
35 74 -34 0
79 -89 34 0
23 85 47 0
-30 -18 76 0
-40 47 -66 0
-72 44 73 0
10 15 57 0
-46 -95 39 0
-83 86 67 0
50 73 -12 0
-82 45 -94 0
11 -87 -17 0
-64 -30 94 0
-40 -69 18 0
-64 -15 -45 0
-61 -91 -30 0
-23 37 -39 0
24 -6 -33 0
78 97 -81 0
-90 69 81 0
43 -37 68 0
10 83 31 0
-63 57 -28 0
-13 -91 25 0
-71 -46 18 0
-20 -7 -96 0
6 -4 -95 0
-78 69 -47 0
99 1 -27 0
94 -29 68 0
-95 -6 -7 0
66 12 -50 0
-93 72 11 0
75 26 -32 0
-6 43 77 0
28 7 97 0
89 35 96 0
46 -13 -34 0
39 56 3 0
46 -25 39 0
50 69 -59 0
-42 -35 76 0
53 -70 85 0
97 45 80 0
56 -52 17 0
29 -52 64 0
-54 -18 -4 0
48 -78 10 0
94 77 82 0
-21 -73 51 0
-1 -74 31 0
-49 -79 52 0
-48 -21 -83 0
-78 40 -81 0
-16 47 -21 0
52 45 -83 0
-87 86 -23 0
-77 36 14 0
42 -44 84 0
96 -30 66 0
24 52 -89 0
57 80 -93 0
-96 -7 -48 0
-52 -14 -95 0
-96 83 64 0
90 84 -64 0
90 45 -26 0
-82 -74 40 0
31 -73 -17 0
59 -78 35 0
30 -53 -89 0
32 -67 96 0
-78 38 -33 0
-87 -41 97 0
14 -64 82 0
-95 49 -4 0
-83 49 58 0
28 13 -54 0
-42 -32 100 0
60 -69 43 0
5 -32 76 0
-35 -46 29 0
53 -79 -42 0
70 -71 -31 0
14 -15 -10 0
-61 47 -87 0
-24 -17 -13 0
-98 68 -61 0
64 -7 60 0
-13 10 -84 0
-25 -38 -50 0
5 20 -89 0
-87 24 -70 0
-34 -41 -97 0
15 -20 -82 0
100 -59 -3 0
-24 54 75 0
-97 26 -61 0
41 89 1 0
-26 61 8 0
21 25 -76 0
-89 -17 -86 0
17 -92 -41 0
-3 45 -15 0
88 -47 -100 0
20 46 68 0
-36 -38 -40 0
-37 -95 43 0
-66 -69 -83 0
60 90 83 0
-74 -10 94 0
-42 3 -20 0
-33 -85 7 0
-98 -79 27 0
-91 86 -21 0
-82 78 -46 0
-80 -24 -51 0
-71 88 -44 0
-99 23 54 0
98 95 49 0
-18 -32 -78 0
-78 -82 -86 0
43 56 -13 0
-30 22 -66 0
28 -94 -13 0
-98 42 57 0
-27 -71 -30 0
14 -86 54 0
-29 30 -28 0
58 27 -11 0
12 -52 62 0
-23 50 -18 0
-90 89 54 0
9 61 -12 0
-78 74 12 0
-36 -30 -28 0
-50 3 -30 0
-84 75 -36 0
-84 22 -34 0
-60 51 -11 0
93 -58 16 0
2 89 -7 0
56 70 -24 0
65 90 -2 0
28 -32 -20 0
68 -11 48 0
-66 40 4 0
19 -30 -32 0
68 -44 75 0
-32 66 4 0
83 65 -97 0
-99 -58 56 0
-42 -79 60 0
83 -49 -100 0
-38 -11 37 0
37 -42 54 0
73 74 -96 0
-65 79 -67 0
-61 -71 2 0
76 99 2 0
-61 3 12 0
53 22 98 0
-64 -12 7 0
52 -74 3 0
1 26 -86 0
28 84 32 0
-80 23 68 0
-63 -87 -73 0
-49 44 -34 0
94 5 77 0
30 33 41 0
16 -55 -19 0
10 -19 -58 0
-48 -8 85 0
-40 -90 -37 0
-12 65 98 0
13 -30 24 0
100 17 -57 0
21 8 1 0
60 65 -56 0
-65 98 26 0
-62 -93 -4 0
19 65 -42 0
-10 18 81 0
-7 -43 -24 0
48 -52 -86 0
-80 77 25 0
-43 -48 -80 0
-21 -68 92 0
48 82 20 0
-79 -71 -76 0
49 53 70 0
-76 94 30 0
81 66 24 0
12 72 56 0
-67 -19 -20 0
43 -24 12 0
-16 35 84 0
9 38 45 0
82 -36 -58 0
-34 64 94 0
-17 -29 5 0
-66 8 23 0
-87 11 -15 0
22 4 -98 0
-29 74 -92 0
-52 46 85 0
95 -82 11 0
82 5 -48 0
-94 -20 34 0
-93 -13 -48 0
90 68 -33 0
-44 -93 80 0
50 -70 -46 0
-5 -91 -25 0
60 90 81 0
24 45 -25 0
-78 11 -50 0
45 -50 -36 0
-2 33 -47 0
71 90 -86 0
69 -90 -71 0
96 -6 27 0
99 37 84 0
-36 -3 -43 0
-3 99 -96 0
92 53 88 0
-49 59 76 0
-56 -16 -82 0
57 -25 -28 0
47 -29 -84 0
34 14 73 0
39 73 -23 0
-38 -49 -80 0
-57 34 46 0
-12 49 -97 0
89 -49 28 0
-68 27 21 0
-36 98 31 0
60 -87 36 0
-34 -23 -33 0
-66 -30 37 0
39 -62 24 0
21 -90 -6 0
47 -76 27 0
68 -80 -6 0
20 -3 5 0
-4 30 64 0
-29 -46 3 0
-62 -24 -8 0
34 60 24 0
54 -67 70 0
-36 -58 35 0
-14 -90 -44 0
7 18 73 0
-58 -5 -39 0
-62 -57 33 0
3 81 57 0
27 -26 -97 0
-8 -72 -92 0
8 85 -33 0
-98 -15 99 0
5 77 -37 0
35 -26 -76 0
-67 -15 58 0
60 -26 -78 0
-3 -39 -97 0
-58 38 -61 0
40 -24 -80 0
-53 15 65 0
-48 15 85 0
-4 -30 77 0
41 -80 35 0
-36 -22 81 0
22 43 -12 0
-2 -41 61 0
-79 10 -15 0
-71 -10 47 0
96 -49 83 0
-60 -15 -27 0
-70 88 9 0
47 48 32 0
57 58 -61 0
12 67 11 0
-67 17 -85 0
-4 78 48 0
76 1 -17 0
100 97 91 0
96 -90 38 0
54 85 -18 0
66 -48 60 0
46 27 85 0
11 51 76 0
-39 80 43 0
-33 22 -47 0
-97 -36 100 0
-29 72 42 0
63 -82 9 0
-34 97 -53 0
44 97 79 0
3 26 -65 0
18 54 -5 0
3 -71 77 0
-43 5 4 0
31 -21 -80 0
-34 -63 -44 0
41 -50 75 0
62 -41 -59 0
3 -68 -42 0
38 -90 92 0
34 -6 40 0
-14 -89 28 0
54 -12 60 0
-88 37 10 0
-30 19 7 0
-83 -60 33 0
-75 40 14 0
-63 -93 34 0
35 67 49 0
-39 33 -14 0
-72 7 24 0
-44 64 18 0
-67 41 24 0
-82 -92 88 0
57 -73 41 0
22 58 -94 0
-69 -50 27 0
-9 -19 22 0
-53 46 99 0
100 95 -88 0
12 -74 -27 0
12 39 68 0
66 -78 -84 0
-15 -37 8 0
91 -46 -3 0
