c planted random 3-SAT, n=150 ratio=4.20; every variable is free, there is no driving input set
c generated by TurboCryptoSAT gen-benchmark - satisfiable by construction
p cnf 150 630
-100 -42 -129 0
20 -27 5 0
39 -5 -144 0
-111 -119 -57 0
70 -40 95 0
13 67 125 0
-144 -101 -44 0
111 -20 -75 0
129 -2 121 0
133 -28 106 0
-147 37 -57 0
-73 46 136 0
-60 142 50 0
98 -149 50 0
119 97 -112 0
126 -35 2 0
-146 18 -79 0
-134 -37 -102 0
-47 130 -94 0
117 -89 60 0
-27 -39 -125 0
-47 -60 -147 0
-144 62 -37 0
-144 59 -34 0
66 -17 140 0
150 -94 -59 0
-72 -106 97 0
57 -36 141 0
-134 -137 100 0
-94 29 134 0
-125 83 104 0
134 -36 -129 0
140 137 111 0
77 143 140 0
-97 69 -119 0
85 -72 -37 0
-85 99 114 0
125 -13 -99 0
45 -56 -126 0
42 -128 -39 0
-111 6 90 0
-149 46 -91 0
-128 -62 -50 0
29 -54 -8 0
149 5 -18 0
61 -36 -66 0
-68 -144 2 0
90 -66 -72 0
17 125 -150 0
132 -100 -86 0
145 -36 112 0
15 8 9 0
5 -126 35 0
-67 -4 39 0
15 -126 -104 0
-109 -28 -61 0
-120 2 -80 0
-119 -134 -125 0
-2 -142 94 0
72 -95 104 0
-50 -26 -138 0
83 -125 114 0
-115 -102 105 0
113 87 72 0
88 -15 -7 0
122 -136 38 0
-125 90 45 0
46 -15 -140 0
123 107 -125 0
76 85 33 0
-112 13 -54 0
130 134 -7 0
-121 1 131 0
63 23 41 0
113 -62 -125 0
-110 83 -64 0
90 59 -56 0
-136 -84 122 0
88 -67 -109 0
-24 101 107 0
36 12 -128 0
90 -125 25 0
-139 64 -38 0
-128 2 131 0
-4 73 -51 0
-46 -75 36 0
-71 61 -117 0
-74 92 130 0
-127 -76 -45 0
-60 -94 -87 0
94 96 67 0
132 -10 30 0
-98 7 53 0
-103 -98 87 0
-100 -144 -4 0
-43 -91 -21 0
95 -76 -96 0
6 33 -17 0
-31 -133 -77 0
112 103 1 0
-37 130 -12 0
106 66 -15 0
-115 -136 7 0
-141 64 -55 0
82 -48 44 0
115 -67 -116 0
137 129 83 0
-85 73 45 0
121 -92 142 0
-64 -3 34 0
47 -120 -76 0
-45 -21 145 0
-33 -91 -86 0
-150 95 110 0
69 11 5 0
-15 143 -35 0
111 98 107 0
100 8 132 0
-141 -140 127 0
88 30 -115 0
-60 108 -43 0
94 31 63 0
76 -60 -144 0
-129 -145 -73 0
-70 -21 58 0
66 -101 -145 0
135 -52 -13 0
-131 -50 84 0
4 95 77 0
-79 -59 29 0
-38 140 104 0
67 -149 -146 0
-91 33 -65 0
-93 117 103 0
-104 45 -93 0
16 -33 -20 0
-57 133 -95 0
73 -19 -56 0
45 9 -32 0
13 116 -98 0
107 49 102 0
-116 82 39 0
52 -36 102 0
-58 32 -115 0
58 63 102 0
132 -99 -71 0
19 145 17 0
-110 -73 102 0
96 -23 -91 0
-67 101 -117 0
67 -104 -97 0
-33 -138 -36 0
-36 -79 -65 0
-54 76 78 0
-55 132 -139 0
143 -29 148 0
58 123 50 0
-137 -28 -5 0
-12 56 -54 0
-88 28 14 0
-10 -6 -127 0
-48 -107 143 0
34 -51 -23 0
70 -9 59 0
-1 29 58 0
5 -17 -130 0
-110 -127 -38 0
139 38 25 0
20 -26 10 0
-97 -129 -96 0
-106 -95 -77 0
-101 -113 13 0
-30 62 -84 0
-4 109 147 0
-116 -59 -143 0
143 146 136 0
29 -38 15 0
-35 115 -121 0
-14 -93 -127 0
134 78 -58 0
143 -128 -48 0
-31 -66 -44 0
-16 106 -43 0
-44 -150 99 0
145 8 -11 0
95 -139 96 0
12 55 -74 0
118 -23 44 0
46 18 19 0
10 112 -38 0
-125 -134 -38 0
110 -27 143 0
48 -77 -37 0
-12 57 -102 0
120 -29 -8 0
54 -144 -123 0
138 -92 -43 0
-114 -130 -61 0
-43 -55 33 0
-68 136 -115 0
-36 -118 106 0
-24 -143 -79 0
113 -97 55 0
-82 98 -107 0
83 11 -91 0
-102 80 -130 0
-139 -50 -66 0
38 -105 150 0
17 22 -71 0
85 65 68 0
60 89 133 0
-19 116 121 0
-51 70 -129 0
-125 5 -110 0
14 17 -150 0
43 -19 -134 0
-30 139 14 0
43 -75 33 0
-129 112 -5 0
-45 -126 -146 0
-120 -115 56 0
136 90 -111 0
13 110 -72 0
-132 -143 48 0
-86 119 39 0
-115 103 7 0
147 56 -89 0
-60 -5 58 0
-34 -134 25 0
37 -34 -41 0
132 131 126 0
-105 140 -25 0
-2 -126 93 0
86 -105 42 0
28 -115 -70 0
86 -22 89 0
-111 -65 -50 0
23 -34 -79 0
-70 119 -80 0
117 -127 -20 0
85 114 148 0
135 -24 131 0
34 -14 -141 0
79 93 -125 0
40 138 67 0
-131 96 -146 0
-87 -137 -55 0
-26 -122 -7 0
-107 28 99 0
-8 -106 -105 0
-101 -104 -142 0
146 61 -33 0
-111 35 131 0
83 -9 25 0
49 64 -141 0
-110 -15 60 0
61 57 -47 0
116 60 -13 0
139 36 -34 0
11 38 -134 0
95 -107 15 0
45 9 -11 0
-7 11 135 0
-12 -91 58 0
58 109 83 0
-47 90 -20 0
-54 -61 -63 0
-18 48 117 0
-21 114 139 0
-114 -22 -43 0
-69 79 34 0
-63 129 -46 0
-77 30 82 0
86 129 -136 0
51 113 -112 0
72 101 -132 0
-145 -137 -79 0
24 -85 -141 0
135 54 62 0
-57 -109 34 0
-43 -79 -69 0
-28 -128 -149 0
88 -69 -62 0
27 49 -82 0
111 73 -48 0
-131 84 126 0
38 27 -35 0
44 92 -109 0
-4 143 44 0
-54 81 57 0
141 -50 -146 0
64 55 -35 0
77 -131 -70 0
-84 -33 7 0
-141 -5 -73 0
-97 60 141 0
62 -139 -97 0
57 -16 -69 0
44 124 -62 0
-11 115 142 0
-14 -23 88 0
-61 1 9 0
41 136 29 0
-115 -36 -72 0
90 -136 -104 0
-59 -40 138 0
-41 27 -107 0
114 48 -99 0
63 29 45 0
-5 110 -150 0
94 86 -26 0
-50 133 -100 0
-124 31 11 0
-75 -46 86 0
-73 53 42 0
-41 109 79 0
-119 47 67 0
34 -137 -130 0
-101 -78 121 0
15 -47 59 0
38 -148 -34 0
117 6 81 0
-50 -130 -47 0
-90 35 -147 0
-114 -13 149 0
33 -69 126 0
-136 -122 -31 0
56 17 -147 0
76 -101 112 0
39 131 -9 0
40 -22 -123 0
-125 -15 105 0
-16 145 65 0
2 -23 20 0
145 -68 1 0
17 131 -132 0
-77 -120 -2 0
92 -65 -142 0
-62 8 68 0
71 118 -42 0
41 -19 137 0
93 -102 -37 0
-45 99 94 0
-144 45 5 0
-148 -5 60 0
-112 81 31 0
-51 119 -9 0
-12 -150 -89 0
47 -33 58 0
123 97 137 0
-142 59 -105 0
-104 46 -39 0
-26 -49 -54 0
123 -12 -45 0
120 54 -91 0
27 -72 -64 0
-114 49 137 0
-62 9 23 0
114 -146 -77 0
-16 -40 39 0
-103 54 114 0
36 98 -73 0
12 -122 -20 0
90 52 41 0
65 -92 72 0
-15 140 -18 0
129 54 121 0
-90 -7 -67 0
-12 78 -16 0
-39 -60 93 0
50 -35 -29 0
-58 -109 102 0
-4 9 123 0
143 54 -67 0
-30 -135 4 0
90 11 139 0
-25 26 -3 0
98 88 133 0
-16 -124 -56 0
78 -85 136 0
41 8 53 0
-43 30 19 0
36 40 1 0
-46 -86 -136 0
131 25 37 0
23 -54 -69 0
29 15 -75 0
129 49 23 0
-33 -74 14 0
66 -114 -63 0
-144 130 -138 0
79 87 102 0
114 -66 62 0
73 -49 66 0
148 142 17 0
86 -9 -3 0
26 -83 124 0
11 94 4 0
-28 -79 59 0
-114 88 -55 0
-37 -39 -61 0
118 136 -81 0
-75 110 105 0
105 -68 -40 0
139 25 -19 0
-122 56 -76 0
-3 -81 77 0
-93 -51 146 0
-39 -12 -141 0
63 54 89 0
-63 53 -117 0
-45 -99 -10 0
-95 -113 121 0
-69 137 -17 0
-46 -62 -147 0
123 62 115 0
150 29 79 0
11 -38 -42 0
-24 -106 114 0
-23 -114 -24 0
-142 3 94 0
20 -75 -77 0
25 4 -68 0
-6 33 129 0
-104 133 73 0
115 29 -142 0
-74 78 150 0
-38 -111 -82 0
67 -14 -100 0
125 13 -120 0
-116 -47 -89 0
-68 -24 -130 0
81 -106 -56 0
-26 49 147 0
9 123 -134 0
-103 -38 72 0
-13 97 77 0
-130 -63 51 0
96 -17 144 0
93 -126 121 0
51 79 5 0
32 -125 -102 0
-71 45 99 0
140 -42 51 0
148 108 -56 0
-25 122 2 0
-93 17 -141 0
-141 34 132 0
147 37 -46 0
132 -52 -84 0
-136 27 -34 0
-20 121 55 0
-22 -48 -124 0
-144 148 56 0
119 -98 -137 0
-39 101 -83 0
5 125 73 0
-108 -86 -150 0
-12 133 -18 0
65 -53 -83 0
109 93 65 0
-96 -4 -44 0
-87 -75 -76 0
62 -51 -139 0
8 112 132 0
-41 7 28 0
-33 -8 52 0
68 35 -142 0
49 -119 122 0
-146 32 -66 0
34 -68 117 0
17 -83 -101 0
48 -49 -69 0
-120 112 -5 0
33 32 22 0
10 -138 115 0
8 46 -127 0
-23 71 -12 0
-13 -98 -147 0
-103 -94 118 0
135 -113 95 0
38 143 -95 0
-75 -91 -48 0
-26 -51 -83 0
101 -70 41 0
71 141 -58 0
-34 116 67 0
-74 63 -113 0
-55 146 -134 0
-131 146 134 0
82 63 -54 0
5 -81 -137 0
67 4 52 0
148 -41 -87 0
98 139 83 0
-36 -126 -81 0
-14 -30 18 0
75 147 62 0
-57 -38 114 0
17 16 62 0
-97 -47 -21 0
-136 -24 -120 0
58 113 -107 0
148 98 -40 0
-99 20 -108 0
-21 25 82 0
19 -111 -135 0
82 142 23 0
102 -58 119 0
54 3 91 0
35 -32 60 0
89 -113 98 0
-118 -114 -63 0
121 70 -82 0
-75 7 41 0
146 29 -138 0
-30 -79 49 0
-95 139 86 0
-149 11 60 0
-54 -125 -60 0
47 147 49 0
-47 -51 -11 0
-50 -43 -139 0
-94 -127 -140 0
64 52 126 0
-17 143 97 0
80 -6 -40 0
-64 35 -25 0
-36 -8 -92 0
89 68 60 0
-11 -41 -35 0
118 107 18 0
121 -138 -24 0
-69 45 114 0
130 -20 -62 0
-16 -134 -66 0
92 -97 -113 0
49 -4 42 0
-109 128 -47 0
-93 -83 130 0
-29 25 -42 0
-66 49 -102 0
-88 85 -100 0
-31 -44 -67 0
-40 -108 36 0
-31 -102 25 0
10 -39 -76 0
80 116 -122 0
81 60 -34 0
-71 150 145 0
149 74 33 0
-134 -124 15 0
108 67 4 0
-47 74 142 0
72 21 57 0
-9 12 4 0
109 49 -86 0
4 148 71 0
74 44 76 0
-17 29 59 0
-72 -81 -106 0
-29 -102 -9 0
144 117 -4 0
-49 111 119 0
-99 101 -41 0
-122 -31 48 0
-74 -31 102 0
-17 13 34 0
70 -150 10 0
-120 -96 -54 0
-79 -136 -54 0
128 98 -90 0
-37 -9 18 0
-32 67 105 0
-108 -88 -55 0
-115 -119 -17 0
57 -98 114 0
-137 -19 62 0
-20 117 89 0
-29 11 -63 0
-17 31 14 0
-109 -87 90 0
-150 -78 60 0
55 29 94 0
-1 14 135 0
5 83 51 0
-134 124 115 0
-141 38 -89 0
89 13 -36 0
-82 -15 -120 0
-70 -73 118 0
112 134 86 0
-136 -39 37 0
15 7 134 0
-48 -89 -148 0
91 -68 -65 0
-31 88 -87 0
24 -62 -104 0
13 96 -127 0
-11 -50 7 0
103 -51 -30 0
3 -123 -101 0
78 -22 -144 0
-74 -125 -51 0
61 53 -84 0
-24 122 -128 0
7 4 -134 0
25 -136 112 0
124 75 -65 0
80 143 123 0
-62 -111 -36 0
-37 -106 -110 0
68 13 113 0
-6 79 104 0
-103 -30 -115 0
-38 16 -72 0
-60 50 -140 0
71 34 -75 0
-17 -7 106 0
-111 53 132 0
-132 -87 -107 0
95 22 -49 0
-52 101 62 0
3 -77 67 0
-112 -76 -88 0
22 87 -31 0
-21 120 -138 0
-9 143 -21 0
-139 71 -68 0
15 -97 16 0
