c planted random 3-SAT, n=220 ratio=4.20; every variable is free, there is no driving input set
c generated by TurboCryptoSAT gen-benchmark - satisfiable by construction
p cnf 220 924
-150 202 -109 0
-170 -12 -101 0
137 -219 71 0
7 -102 81 0
-27 60 -184 0
-176 199 90 0
44 31 149 0
139 -124 -210 0
-150 187 141 0
118 -72 147 0
163 104 50 0
25 -207 118 0
75 193 137 0
-60 -141 22 0
-183 169 -106 0
-129 114 194 0
-32 -37 98 0
114 135 -183 0
29 96 121 0
-12 -132 -206 0
93 -94 -70 0
213 181 204 0
-68 99 -149 0
135 192 29 0
-101 45 98 0
190 -211 -157 0
50 -97 68 0
34 -7 218 0
154 12 219 0
-218 53 -19 0
166 -7 -98 0
-15 -145 90 0
-72 -212 140 0
166 -64 15 0
192 -171 219 0
-146 25 204 0
170 -131 -218 0
202 21 -217 0
164 -56 36 0
-66 80 154 0
58 -14 32 0
168 110 145 0
-99 -128 149 0
93 -22 -167 0
207 155 -200 0
153 187 115 0
208 -187 94 0
195 -151 27 0
206 -1 186 0
-191 -101 19 0
-145 52 -49 0
61 100 201 0
109 125 192 0
208 120 -148 0
-21 -26 90 0
111 -30 -90 0
31 -96 -176 0
-101 -57 37 0
145 149 -33 0
-15 70 154 0
172 -49 195 0
-204 -18 -8 0
-40 -66 -130 0
-129 19 -168 0
148 -98 -121 0
143 187 -114 0
-53 -95 164 0
197 123 -83 0
170 72 -193 0
-57 -116 78 0
-150 103 34 0
111 84 26 0
-75 -144 101 0
-218 197 -112 0
-176 -27 -55 0
121 -10 172 0
10 39 -24 0
128 104 149 0
203 -125 10 0
136 63 104 0
-214 219 94 0
7 26 -21 0
55 66 158 0
-17 54 -173 0
215 -38 -136 0
-75 -161 -13 0
-157 90 3 0
-189 -173 9 0
39 -76 -146 0
-64 40 -11 0
179 117 -188 0
-163 209 77 0
112 180 213 0
114 -53 142 0
-36 83 210 0
-147 -80 -184 0
-100 -18 136 0
36 69 -29 0
158 -28 -219 0
183 -158 -96 0
-179 46 162 0
34 47 86 0
112 84 -100 0
-104 -141 -49 0
-12 -81 1 0
-195 55 149 0
174 180 188 0
140 183 -63 0
-55 185 -85 0
-156 -52 84 0
121 148 50 0
72 149 -209 0
34 76 17 0
-122 136 -58 0
165 -153 -65 0
97 -183 128 0
-17 20 160 0
-52 -134 55 0
-67 131 109 0
-177 -160 18 0
21 -18 91 0
-208 -1 -71 0
136 -20 9 0
-108 -173 160 0
-133 211 14 0
87 108 -129 0
217 -156 124 0
-88 -46 -48 0
-200 -91 -140 0
168 139 -112 0
182 -9 201 0
-119 -86 -65 0
26 -24 -140 0
-20 -181 -94 0
216 33 212 0
117 126 -184 0
180 52 -78 0
-34 89 191 0
-213 34 -147 0
62 3 -31 0
-138 127 -57 0
-182 31 -48 0
-110 -80 -160 0
3 -51 -34 0
-178 -85 80 0
217 154 -194 0
-31 -27 -179 0
-135 68 -24 0
157 155 -197 0
-135 175 -34 0
-76 -43 -93 0
153 74 -136 0
-95 113 133 0
-90 45 -50 0
-207 160 -51 0
-171 -106 -210 0
187 174 98 0
159 59 -25 0
-218 -45 -83 0
-202 -210 47 0
163 31 -42 0
46 150 -88 0
185 17 15 0
15 58 81 0
53 -22 -151 0
90 -57 110 0
33 186 145 0
-31 -92 -208 0
79 -167 97 0
135 -130 81 0
207 204 -1 0
185 -189 -56 0
-83 -19 -102 0
158 121 -58 0
-51 61 165 0
33 -212 -10 0
161 -148 -13 0
217 -10 118 0
92 -142 157 0
124 -210 220 0
99 117 47 0
74 38 206 0
51 40 -108 0
-101 -118 212 0
-202 173 167 0
35 -51 -119 0
-107 86 -122 0
76 -159 158 0
203 -123 -95 0
196 -137 158 0
-39 -67 -143 0
-214 -165 -206 0
138 -117 187 0
144 220 44 0
1 -187 77 0
-113 -11 131 0
-183 -72 155 0
-39 22 110 0
-192 -34 168 0
-72 187 -26 0
49 -82 -190 0
54 -34 -206 0
-32 -173 125 0
-154 -61 20 0
5 125 -198 0
59 -3 -24 0
-110 -78 172 0
-65 -95 90 0
55 107 219 0
-72 96 83 0
111 -56 -52 0
-92 -93 -47 0
110 -129 147 0
48 -75 -109 0
97 83 -24 0
-9 120 85 0
209 7 102 0
-97 -42 -160 0
-219 46 -148 0
207 -32 123 0
-27 48 220 0
157 -187 -58 0
-157 2 170 0
48 47 -161 0
-89 -75 84 0
178 205 174 0
116 134 -44 0
-3 196 170 0
-193 -97 -58 0
23 156 -212 0
-37 86 42 0
35 184 -23 0
-197 86 120 0
-160 -195 -177 0
109 41 120 0
188 -89 7 0
-109 -116 -195 0
46 219 4 0
212 3 147 0
-83 -77 186 0
-122 -170 -113 0
-6 -190 99 0
6 -183 -25 0
-18 -219 -48 0
206 93 198 0
131 151 -213 0
-115 -139 30 0
36 -103 194 0
116 131 178 0
216 82 21 0
44 154 211 0
48 213 148 0
97 125 120 0
-215 91 38 0
95 92 -179 0
-104 -3 147 0
89 -55 196 0
-214 -36 -24 0
5 -7 9 0
-46 30 -148 0
157 -129 73 0
-35 -15 -40 0
-105 14 -90 0
15 117 -199 0
-98 33 -45 0
-83 -80 220 0
153 80 -209 0
205 191 107 0
-113 -47 -191 0
-143 187 105 0
20 -138 -42 0
172 -51 96 0
213 -76 134 0
5 93 -81 0
99 -65 166 0
87 -202 -113 0
218 -147 -157 0
-199 -190 -25 0
210 15 -151 0
-52 -217 132 0
137 172 204 0
60 126 50 0
-116 172 -167 0
-150 -218 97 0
158 25 52 0
146 -126 212 0
213 96 -48 0
167 194 -146 0
131 78 215 0
210 17 -95 0
-206 55 -110 0
-78 -41 151 0
218 -108 -106 0
-170 -32 208 0
-43 133 -27 0
83 -106 54 0
-211 60 16 0
-155 103 -209 0
-55 169 176 0
35 154 -58 0
-50 68 -148 0
140 12 46 0
-192 -6 166 0
173 181 97 0
117 -211 149 0
27 -129 62 0
-184 -136 206 0
-158 195 -39 0
195 -38 -211 0
-107 177 127 0
-10 -22 -101 0
-95 215 77 0
-83 -198 -189 0
186 207 157 0
-9 -44 131 0
212 -182 184 0
-44 -218 -158 0
-31 -139 -196 0
105 -195 -125 0
-92 13 206 0
-24 114 -85 0
26 91 143 0
39 -31 77 0
-219 -215 47 0
67 108 -49 0
169 -9 205 0
-58 -54 -108 0
-186 12 103 0
107 -52 191 0
-91 -47 193 0
-17 139 48 0
1 190 -133 0
156 -72 98 0
-7 150 28 0
-66 -209 -31 0
45 27 -71 0
208 178 -177 0
207 -13 200 0
215 -81 163 0
-191 197 -163 0
-17 -200 36 0
81 78 -82 0
-179 75 27 0
-75 -108 -110 0
-158 -94 173 0
193 -134 152 0
154 -31 101 0
-83 -194 46 0
126 119 -67 0
-207 82 -116 0
191 42 -139 0
178 16 184 0
-197 143 129 0
-215 -151 -137 0
-121 76 -209 0
-175 163 193 0
24 -218 161 0
144 -58 196 0
-76 -61 127 0
213 -167 149 0
-136 -76 193 0
-95 -167 -77 0
127 -94 49 0
-155 26 180 0
146 -144 195 0
-108 -79 -50 0
205 -124 156 0
-209 117 -29 0
139 -104 -13 0
196 -159 -21 0
63 -62 174 0
161 -26 189 0
71 -95 -143 0
140 39 -59 0
180 -5 149 0
112 139 200 0
-23 -162 -140 0
2 -150 -72 0
-44 -55 -73 0
-78 -70 2 0
-117 -177 24 0
95 -125 145 0
-23 180 20 0
-168 69 68 0
-190 194 49 0
-33 -20 -108 0
-20 15 36 0
18 -25 90 0
-81 10 -117 0
182 -49 179 0
-211 -116 -25 0
132 -103 -130 0
-143 -192 144 0
-108 101 -72 0
92 -137 158 0
42 -160 -31 0
-8 -22 89 0
149 129 -217 0
-95 -28 69 0
-116 -171 -205 0
-32 178 -133 0
-38 -113 130 0
-212 -197 182 0
-174 -62 -210 0
121 60 -35 0
49 131 100 0
56 -184 94 0
19 -148 87 0
-108 62 78 0
161 205 -147 0
-217 -140 -134 0
-46 130 -43 0
134 74 -98 0
-59 164 -102 0
129 -32 -148 0
-116 5 77 0
-154 -158 97 0
-128 127 174 0
11 77 -63 0
-156 -95 198 0
-181 153 -200 0
-168 -42 149 0
-19 162 213 0
123 -206 99 0
-9 -48 191 0
-212 -55 70 0
-209 175 -135 0
21 -181 140 0
117 129 -67 0
76 92 -7 0
25 -19 213 0
44 90 61 0
102 -75 193 0
92 172 151 0
-13 149 175 0
84 89 -59 0
110 -151 -38 0
-23 216 -112 0
48 -65 -126 0
-106 177 82 0
-146 -24 158 0
-125 164 -92 0
-1 149 -116 0
96 -85 22 0
36 43 73 0
21 155 -130 0
173 -33 -134 0
171 168 116 0
147 -178 -215 0
151 -76 -25 0
86 -177 -143 0
13 98 6 0
-65 21 -10 0
67 89 -54 0
-102 -135 -149 0
-189 -86 56 0
116 75 -119 0
85 55 198 0
-116 -9 -25 0
-15 112 147 0
31 157 115 0
-79 141 220 0
-51 -219 2 0
86 181 -84 0
161 -82 -78 0
-70 -200 101 0
215 124 -134 0
-189 205 21 0
115 -144 95 0
-186 -164 196 0
33 86 57 0
-193 -151 -172 0
-25 28 -105 0
-67 -160 -106 0
-140 -31 -152 0
-137 64 168 0
-107 136 -82 0
105 143 168 0
124 187 -125 0
-86 -40 -184 0
159 -47 54 0
191 -152 -144 0
9 -62 26 0
-98 210 34 0
41 -141 -146 0
1 -113 191 0
-171 38 69 0
-5 85 -103 0
-113 -110 180 0
-67 -110 -171 0
-70 -112 -15 0
73 27 -66 0
-85 -116 89 0
138 126 -49 0
156 109 -23 0
-203 -75 201 0
-77 -36 84 0
81 36 -182 0
1 -214 198 0
52 -168 -45 0
-35 -100 180 0
-89 120 125 0
107 176 -33 0
-71 97 195 0
-68 116 158 0
125 -106 116 0
-77 105 -171 0
-83 -75 -180 0
104 -215 -170 0
103 -17 -91 0
183 171 -53 0
29 172 -17 0
-157 -20 -102 0
180 211 126 0
-146 -26 17 0
-102 220 137 0
37 -187 -216 0
-160 -26 209 0
-138 -93 177 0
-91 -56 126 0
-200 -38 -146 0
-124 -74 -198 0
1 -53 -104 0
-106 180 87 0
114 -205 192 0
78 -102 38 0
-29 82 -49 0
-6 90 47 0
-153 35 -59 0
19 214 -76 0
-208 114 -178 0
-55 -119 -191 0
9 149 112 0
172 25 101 0
-25 -185 -9 0
-207 -148 -202 0
-127 -29 -200 0
-104 45 57 0
217 -24 -208 0
-54 -122 207 0
-31 188 -45 0
210 146 -7 0
196 64 -15 0
-187 197 -106 0
163 41 -73 0
-74 42 -38 0
-17 -124 -88 0
-45 -163 171 0
185 42 -133 0
-103 9 29 0
146 -110 83 0
104 -125 -147 0
-80 -18 75 0
138 -115 46 0
-197 22 -1 0
158 -108 138 0
-106 158 198 0
-211 106 21 0
-146 202 129 0
-181 75 -125 0
-202 -89 212 0
-128 100 9 0
-1 160 188 0
3 75 -130 0
93 -8 -188 0
-111 -215 3 0
-134 147 -35 0
-190 2 -166 0
74 -45 -211 0
-35 74 194 0
87 82 -38 0
144 126 -104 0
-187 -198 -82 0
206 169 -14 0
-7 -182 -156 0
-51 -214 -178 0
-40 -11 -90 0
158 32 -195 0
111 117 -85 0
-45 -129 -181 0
-172 33 113 0
173 -31 98 0
-168 156 -114 0
-115 -7 136 0
13 -143 89 0
217 97 -131 0
-145 -77 97 0
132 -182 -163 0
-16 -13 -181 0
-158 19 -55 0
-205 -31 -152 0
-23 -125 -9 0
188 205 -68 0
-107 -46 -183 0
-182 -133 -186 0
195 -75 -164 0
5 180 1 0
-3 21 42 0
-121 62 141 0
-97 99 29 0
-135 -167 85 0
145 54 -163 0
-51 94 -31 0
-82 -25 136 0
179 -182 191 0
92 -104 -212 0
56 -24 -22 0
112 -36 6 0
-48 -186 220 0
98 -192 170 0
-219 6 -59 0
180 137 209 0
-11 207 149 0
30 14 41 0
-139 168 29 0
5 1 -164 0
214 -9 132 0
-193 -157 -18 0
38 193 -194 0
-173 204 196 0
9 -110 58 0
168 -3 -220 0
-46 -41 -128 0
-66 163 -204 0
130 52 -175 0
130 155 69 0
199 -24 -114 0
-102 186 88 0
-2 -87 46 0
162 65 33 0
132 177 -12 0
159 -134 97 0
98 113 62 0
89 68 -55 0
191 106 -51 0
-164 -172 -157 0
-177 -99 156 0
-77 -17 -190 0
-147 -84 -179 0
31 131 36 0
153 70 -162 0
-203 -129 89 0
25 -197 36 0
53 127 115 0
-9 -111 -57 0
-53 -96 213 0
52 50 -132 0
213 -129 160 0
209 -159 176 0
-220 78 -212 0
79 -128 72 0
-7 45 113 0
-30 15 -68 0
-33 19 173 0
114 86 192 0
73 179 86 0
169 -9 67 0
-91 44 18 0
166 -144 -115 0
-93 130 37 0
-125 -185 153 0
-157 100 -118 0
-116 -62 -136 0
140 109 176 0
-142 -16 -183 0
-144 88 -72 0
190 99 193 0
152 -117 15 0
216 -53 79 0
-136 -82 66 0
41 199 -187 0
-171 50 -6 0
188 11 -55 0
146 131 133 0
-198 58 -159 0
110 119 118 0
170 -179 138 0
21 23 162 0
-111 116 -148 0
-103 216 133 0
-29 96 2 0
6 92 161 0
-153 -36 62 0
44 -204 -199 0
-185 -199 91 0
-62 -12 207 0
-40 -148 102 0
-181 103 -16 0
-24 210 40 0
79 -115 -210 0
-198 13 -46 0
178 184 -177 0
-84 108 -189 0
-155 -94 140 0
-110 117 156 0
-135 -124 -205 0
145 102 -66 0
180 -116 -158 0
-119 -205 -58 0
-200 -169 179 0
18 -68 -81 0
214 -199 10 0
-182 91 -145 0
149 66 191 0
-217 -74 166 0
19 50 -135 0
-180 -215 -217 0
123 -217 159 0
-36 -10 111 0
56 -144 -29 0
22 -198 -82 0
3 -213 88 0
143 -94 61 0
50 106 67 0
-191 -180 -164 0
27 59 196 0
-170 66 -54 0
156 -85 140 0
-102 -67 96 0
-33 -10 149 0
-106 16 -197 0
-188 146 -108 0
44 -173 8 0
117 22 211 0
52 -170 93 0
-124 -183 -173 0
174 -175 -215 0
-183 -88 166 0
-10 -77 -47 0
212 -91 -131 0
-152 137 -192 0
71 -143 -68 0
-151 78 123 0
216 96 -59 0
164 192 -61 0
118 -109 88 0
152 150 37 0
-169 -214 116 0
211 100 -165 0
-3 52 167 0
-125 -96 -43 0
140 219 166 0
-159 98 -113 0
42 -59 98 0
-185 12 168 0
119 -142 18 0
197 200 -126 0
-10 156 57 0
136 -78 -12 0
171 39 -150 0
-190 141 133 0
68 -154 195 0
-15 -20 -96 0
-201 178 52 0
-159 28 214 0
23 212 -95 0
121 -174 79 0
-120 216 175 0
-1 63 -135 0
188 -174 211 0
205 -202 -146 0
-194 40 183 0
24 -72 163 0
162 205 182 0
162 207 -2 0
166 -33 -12 0
159 -63 -173 0
-219 -207 -48 0
-150 24 184 0
-215 -147 -6 0
122 -105 -181 0
66 103 41 0
-193 -129 -210 0
-130 -198 -109 0
-100 150 -163 0
-215 66 138 0
189 -14 98 0
-19 -8 96 0
129 135 124 0
173 -163 -57 0
-4 192 -166 0
209 -185 139 0
-53 -206 59 0
-45 -214 -179 0
215 48 -128 0
86 102 -158 0
120 88 -209 0
192 -146 209 0
36 -20 -182 0
93 -24 152 0
-31 174 184 0
-178 100 -87 0
174 -37 -162 0
202 199 84 0
-72 -5 37 0
-200 110 -182 0
210 110 178 0
99 -131 36 0
69 180 -194 0
-220 -88 133 0
41 -22 183 0
193 12 -203 0
174 8 -197 0
-9 -119 -136 0
-165 1 197 0
194 -199 218 0
3 80 81 0
-89 34 126 0
20 201 -94 0
-1 -133 206 0
6 -31 183 0
29 -95 201 0
4 17 -92 0
70 75 -136 0
-54 -98 -171 0
201 -98 -95 0
138 -125 -197 0
-219 40 -38 0
64 -82 75 0
-131 -10 -96 0
149 -144 17 0
-96 196 28 0
200 24 -133 0
129 -167 -160 0
-207 85 199 0
186 -15 44 0
-159 -14 -5 0
65 -106 -125 0
210 199 -196 0
9 -93 -10 0
-73 194 22 0
119 -141 -91 0
78 -38 146 0
-24 197 196 0
16 -137 -138 0
47 74 -143 0
-50 167 -108 0
-159 211 88 0
-22 89 149 0
134 -15 -25 0
-161 -144 108 0
-189 124 182 0
-17 87 202 0
-39 -169 -10 0
149 -57 -118 0
57 40 -71 0
61 -118 -201 0
147 186 -56 0
-148 -204 -94 0
-47 219 217 0
-82 169 -5 0
-176 45 29 0
4 143 73 0
16 -100 178 0
181 206 -135 0
183 -145 -16 0
-118 -108 206 0
215 -135 3 0
28 96 -187 0
32 148 37 0
65 -53 -135 0
-127 -102 3 0
-16 60 206 0
-104 213 41 0
-44 -24 -48 0
-150 97 -38 0
58 -159 -96 0
172 55 7 0
171 -91 -214 0
-50 25 189 0
-42 164 -177 0
-170 33 -63 0
-4 47 -116 0
196 185 12 0
-99 -132 -135 0
78 -121 -207 0
-203 -199 212 0
-48 35 60 0
162 86 190 0
211 -208 -7 0
-17 -147 112 0
-53 152 -78 0
213 63 119 0
48 208 -116 0
114 164 -133 0
-56 101 50 0
213 27 -5 0
-214 -47 203 0
-99 -52 43 0
176 -190 27 0
-157 -94 98 0
183 80 -66 0
-145 -85 116 0
-75 86 -39 0
152 -148 -167 0
186 -98 -4 0
191 154 20 0
-4 -196 153 0
69 67 150 0
128 -77 143 0
-34 220 -101 0
-45 -196 -166 0
-49 87 116 0
217 208 93 0
89 -168 -30 0
135 -202 70 0
211 -185 -49 0
206 45 90 0
114 -204 -96 0
39 -84 57 0
6 198 -119 0
128 18 -116 0
-53 -74 -23 0
-135 7 150 0
165 -99 18 0
135 -121 94 0
118 39 58 0
-44 -96 -20 0
-119 8 36 0
-161 11 -205 0
-88 198 -58 0
205 -122 76 0
-46 -16 -27 0
89 -139 -14 0
