c planted random 3-SAT, n=320 ratio=4.25; every variable is free, there is no driving input set
c generated by TurboCryptoSAT gen-benchmark - satisfiable by construction
p cnf 320 1360
-22 199 71 0
-48 143 -257 0
-319 -236 -251 0
-25 181 278 0
-72 -33 -135 0
-159 -91 -150 0
-83 258 -96 0
71 -78 -279 0
-72 167 121 0
214 -316 167 0
79 53 101 0
-230 200 -39 0
56 -213 114 0
-315 -74 186 0
153 217 -85 0
253 277 28 0
-130 216 28 0
125 90 -197 0
-109 -17 -226 0
-263 -248 -312 0
298 190 60 0
179 -296 152 0
56 -243 152 0
59 -246 258 0
272 -124 -116 0
296 98 -29 0
18 -194 279 0
-257 -307 -70 0
-178 -9 225 0
83 263 -294 0
-33 184 47 0
-242 -237 187 0
-261 -97 95 0
6 105 -55 0
-58 -65 -268 0
-285 44 -86 0
76 -106 293 0
-176 295 -210 0
-243 -309 -131 0
226 178 -21 0
-172 59 -57 0
276 109 -213 0
35 250 -225 0
-161 312 -288 0
-13 -141 91 0
163 19 302 0
-68 -158 -192 0
27 32 317 0
-25 -43 -208 0
-227 -292 209 0
-152 -6 -104 0
130 -306 -45 0
-179 113 -198 0
212 150 -26 0
-192 -62 56 0
257 170 88 0
-9 -281 192 0
-192 -60 48 0
-43 201 -314 0
-280 -233 -262 0
-298 -183 -315 0
38 75 233 0
-124 63 182 0
128 183 -153 0
75 -287 270 0
49 -124 -150 0
230 -256 -109 0
265 171 208 0
-294 -86 -77 0
242 -62 211 0
275 -35 174 0
169 34 -195 0
-142 144 -154 0
45 231 -281 0
177 316 70 0
-189 -111 -15 0
-139 132 -191 0
-192 -290 4 0
-115 63 147 0
68 -74 136 0
243 38 291 0
-192 -39 -98 0
-65 258 46 0
52 -119 -160 0
-241 -103 -210 0
-233 138 63 0
181 -185 -300 0
-206 -95 222 0
-189 -207 112 0
226 -311 101 0
191 -104 86 0
-249 105 70 0
126 289 -194 0
-121 -142 170 0
50 -7 -310 0
67 80 89 0
-230 -156 -19 0
-289 294 -269 0
206 71 196 0
-149 -77 -55 0
66 -112 -82 0
39 206 5 0
177 -59 72 0
-18 56 -17 0
-178 -289 18 0
42 -118 -121 0
-175 85 -235 0
2 -257 152 0
-60 196 -75 0
-119 -221 256 0
-201 209 -93 0
151 -260 -227 0
158 -194 151 0
227 -137 -226 0
27 101 -206 0
-270 -221 7 0
-144 -67 -194 0
-117 -107 2 0
163 164 -276 0
197 -44 -276 0
-32 -10 -142 0
203 -79 -221 0
-3 216 -109 0
-185 -314 -75 0
38 277 265 0
193 -132 11 0
98 -56 -16 0
45 207 309 0
100 238 186 0
121 238 -297 0
-287 231 172 0
261 6 304 0
174 -171 15 0
-45 -146 -91 0
199 286 -140 0
-126 -279 -252 0
-114 227 59 0
280 5 43 0
-277 175 313 0
9 227 -117 0
-52 239 250 0
69 117 208 0
-280 53 -1 0
174 155 -256 0
314 -205 -303 0
-223 -30 181 0
249 11 -56 0
-4 188 -68 0
-49 271 228 0
-146 -202 200 0
-129 -176 294 0
-148 153 20 0
-58 -42 -74 0
-185 -255 -124 0
-282 -4 -154 0
-123 -276 153 0
-246 -276 -174 0
-146 266 -136 0
-192 -212 -18 0
66 -297 314 0
186 110 -210 0
106 -164 -22 0
-12 278 300 0
-8 -95 76 0
284 -112 -143 0
-128 -68 -227 0
-85 -79 259 0
-8 -311 158 0
186 21 -202 0
-74 -121 119 0
110 -193 294 0
281 -210 -11 0
17 308 -270 0
-262 -117 -124 0
-118 50 -220 0
-220 -31 184 0
-76 -126 -168 0
-204 1 -174 0
-63 -239 14 0
-140 -240 45 0
147 -51 298 0
249 79 -183 0
-127 -144 257 0
-190 248 283 0
220 242 -231 0
221 -51 178 0
-118 -173 33 0
-102 -159 225 0
308 35 208 0
-149 -210 311 0
-44 -24 293 0
68 62 10 0
44 148 -149 0
-82 228 -125 0
306 190 149 0
28 298 -263 0
308 -92 -85 0
28 45 209 0
-76 -54 283 0
35 -156 -108 0
159 53 -100 0
14 -304 6 0
137 -24 264 0
-221 -191 187 0
210 -170 7 0
87 -267 -42 0
103 -278 269 0
-90 197 -180 0
-245 160 217 0
-189 -295 -114 0
298 -187 -6 0
179 127 -200 0
-168 121 255 0
277 137 2 0
141 283 10 0
-92 139 257 0
-203 -77 288 0
-72 -293 229 0
-111 -49 18 0
-188 86 -239 0
-301 165 -17 0
-281 310 96 0
13 69 -262 0
75 262 21 0
-115 -282 65 0
-175 -103 178 0
203 118 81 0
238 300 269 0
267 244 -227 0
-150 -142 -34 0
239 -95 87 0
-1 54 27 0
-265 243 153 0
-314 -143 -256 0
169 26 -308 0
25 164 -269 0
5 -298 -310 0
168 -175 145 0
-282 97 -202 0
220 9 -136 0
171 -217 202 0
-314 179 -317 0
-251 62 74 0
102 -20 -36 0
137 -284 -88 0
123 182 232 0
-85 -159 8 0
262 300 -47 0
27 -167 -74 0
225 99 -69 0
-35 294 -143 0
175 -192 231 0
-255 -57 -69 0
155 72 -86 0
-159 273 -87 0
-25 -22 -55 0
-100 280 135 0
-156 199 105 0
-253 267 10 0
-6 -184 -31 0
247 -164 -292 0
30 299 -201 0
-27 -11 -119 0
-110 158 59 0
-17 -35 -81 0
82 -75 258 0
-154 -316 -44 0
-119 -204 -180 0
-195 -163 209 0
-308 60 225 0
-41 161 -294 0
57 -292 246 0
-3 12 -167 0
87 258 132 0
244 -37 -71 0
309 -192 109 0
-133 -294 -90 0
-233 -165 -140 0
-51 147 53 0
217 -313 -160 0
-289 -54 210 0
261 128 184 0
-247 -62 33 0
200 -47 118 0
207 -93 -293 0
120 -20 135 0
303 13 -229 0
-150 202 32 0
-131 -16 -22 0
293 177 -165 0
317 198 -18 0
-145 15 230 0
-110 87 228 0
143 78 47 0
217 141 108 0
24 314 -213 0
-144 -128 320 0
-192 270 -174 0
-278 -289 306 0
-121 280 114 0
-66 259 -319 0
-240 -198 275 0
-259 -2 122 0
73 -256 -1 0
-2 215 132 0
-136 -51 26 0
117 120 -6 0
256 229 -319 0
211 91 -126 0
61 -24 -75 0
273 208 -149 0
270 125 165 0
272 -70 -110 0
-232 58 298 0
166 60 -155 0
50 269 -315 0
-175 -5 -182 0
-249 -70 58 0
82 -100 129 0
-269 295 136 0
-153 299 -237 0
-8 -157 -112 0
-201 -215 -149 0
-62 -108 -10 0
303 -291 -245 0
30 -22 229 0
-177 62 -72 0
-205 -192 222 0
248 81 281 0
-304 -226 99 0
75 238 -222 0
181 -255 210 0
320 154 -144 0
-109 -208 -216 0
163 48 233 0
-251 -245 48 0
167 -294 94 0
133 -198 -173 0
-173 -21 -51 0
-22 -315 -30 0
192 -164 41 0
-35 -223 -292 0
199 -213 268 0
-25 160 265 0
-185 -275 -56 0
-258 -73 127 0
-242 -42 -115 0
-162 268 -72 0
-169 215 246 0
187 -115 -65 0
153 -6 197 0
215 -139 165 0
-231 -81 -5 0
-318 -132 -148 0
152 40 197 0
-202 48 -132 0
-5 291 87 0
-280 -135 172 0
-314 156 279 0
4 -78 176 0
172 181 -125 0
138 -260 -42 0
246 -44 -281 0
-226 211 258 0
-80 144 25 0
142 -297 195 0
-306 141 -316 0
-295 202 -313 0
182 234 218 0
-98 -8 128 0
-146 -298 292 0
-126 184 -125 0
106 -132 -201 0
47 -252 -149 0
76 54 -163 0
-271 -93 184 0
-45 172 -15 0
165 -186 -125 0
35 -52 310 0
209 -249 -117 0
-26 -153 270 0
129 -161 147 0
-158 302 225 0
290 36 118 0
-91 -25 -319 0
-75 266 111 0
254 -278 94 0
-202 137 -240 0
-114 180 67 0
-70 118 -275 0
-94 10 -208 0
27 108 -275 0
220 -36 105 0
-90 -307 26 0
-82 -66 65 0
235 -74 153 0
314 -260 272 0
265 171 -235 0
-128 -320 74 0
-155 -83 312 0
-275 249 -134 0
-46 -213 57 0
-194 193 97 0
210 100 -298 0
-109 -163 220 0
-173 84 -61 0
-131 -261 15 0
71 126 205 0
-77 189 -211 0
94 -133 314 0
-59 64 -50 0
172 54 -64 0
-178 248 -221 0
-234 -241 56 0
245 -56 196 0
218 -225 271 0
243 229 -44 0
300 -214 -233 0
210 21 -196 0
44 -286 300 0
-210 -307 283 0
-52 256 200 0
-57 124 -34 0
96 -226 221 0
-205 221 -303 0
-305 -260 -64 0
-67 -114 96 0
-319 254 104 0
-45 308 283 0
-237 258 -90 0
-162 293 -172 0
-302 -251 260 0
-113 99 203 0
-239 -205 -183 0
138 254 149 0
-57 51 258 0
-157 103 -138 0
209 -117 -204 0
-165 120 37 0
297 -171 281 0
164 -129 -277 0
-172 57 256 0
69 -21 298 0
284 18 74 0
116 253 -295 0
-3 173 -291 0
76 224 190 0
-319 -126 -230 0
15 174 1 0
-252 269 -148 0
189 -123 -109 0
171 240 -150 0
281 43 -312 0
53 -290 224 0
81 -73 143 0
216 -158 -82 0
-52 -9 -280 0
-292 -263 -70 0
-21 153 217 0
-222 153 205 0
191 123 -92 0
119 -73 249 0
-247 209 67 0
-174 165 -298 0
105 -310 -208 0
30 -125 72 0
244 68 112 0
295 95 116 0
27 -233 91 0
-215 -316 15 0
316 74 6 0
140 291 -129 0
-241 80 -279 0
-130 171 314 0
131 151 135 0
163 -134 -133 0
53 122 -109 0
-42 -21 -65 0
-193 318 275 0
258 -33 -264 0
-168 -174 189 0
-34 -127 -61 0
316 -161 -167 0
-304 244 147 0
-127 98 226 0
313 -66 146 0
237 -219 -139 0
-265 298 -314 0
43 251 -282 0
-216 -105 -227 0
-134 55 93 0
-168 -74 289 0
-34 -162 79 0
139 -97 107 0
171 162 122 0
-282 134 -69 0
183 -98 -73 0
-175 -284 123 0
295 128 84 0
10 141 3 0
-60 -185 -122 0
73 195 -82 0
124 230 129 0
-235 94 52 0
107 -44 15 0
198 222 -40 0
31 -281 320 0
-54 -112 -177 0
-260 206 -233 0
-118 -88 -84 0
200 -153 -119 0
-179 -296 52 0
-212 113 280 0
75 144 -160 0
58 60 -280 0
131 56 136 0
-189 162 169 0
-155 87 -219 0
-169 212 223 0
58 -224 -312 0
-223 -300 -71 0
227 211 -159 0
-233 -180 -114 0
-92 -217 228 0
-200 61 -90 0
199 -174 205 0
143 15 -191 0
316 52 -14 0
-189 22 -128 0
-165 -115 174 0
37 -131 -136 0
178 104 216 0
-153 -225 -74 0
294 227 127 0
182 -30 225 0
-258 316 -91 0
-88 117 -316 0
270 -179 32 0
201 220 292 0
292 -123 147 0
-16 21 248 0
302 202 208 0
-90 -284 -131 0
-121 130 -249 0
-91 228 128 0
-13 170 312 0
-127 269 -52 0
252 -77 39 0
22 48 -207 0
227 300 73 0
40 -145 46 0
-129 32 53 0
-158 -149 19 0
200 14 -59 0
230 -28 -137 0
-68 6 -194 0
-85 -24 -14 0
179 301 31 0
-54 170 -37 0
-111 312 -52 0
7 -232 -98 0
-30 237 -51 0
-289 -301 -207 0
156 -56 -93 0
32 118 63 0
-311 -128 17 0
214 257 278 0
-80 -104 -283 0
296 -79 -212 0
37 -89 208 0
-294 217 -141 0
39 -64 272 0
-153 252 45 0
46 47 -36 0
311 -24 -318 0
45 266 77 0
142 44 -13 0
63 234 -197 0
218 273 73 0
204 -248 -144 0
164 115 157 0
272 175 -207 0
143 -5 30 0
-207 272 -159 0
301 -83 209 0
-199 -185 137 0
30 -36 10 0
-68 73 309 0
22 243 -152 0
271 -118 186 0
184 95 -161 0
-217 21 252 0
172 62 55 0
-83 -130 -304 0
36 -214 -299 0
-109 69 299 0
-35 -202 58 0
43 126 -117 0
276 279 162 0
202 -146 126 0
133 141 -189 0
191 -73 122 0
36 -134 -204 0
-134 202 176 0
-152 11 243 0
252 -188 117 0
-46 -219 76 0
67 -25 -40 0
-108 7 -256 0
-30 -79 -270 0
-115 314 -90 0
-112 -175 47 0
291 -144 311 0
-124 -110 197 0
133 -189 -193 0
295 -115 -24 0
129 48 278 0
212 -314 16 0
285 -62 231 0
-260 85 -134 0
299 -76 -320 0
-117 -62 -116 0
282 -134 213 0
-18 217 -160 0
-115 94 211 0
67 -87 138 0
-219 319 150 0
-135 -74 -178 0
213 -305 -37 0
297 75 95 0
-238 133 228 0
270 216 246 0
302 42 215 0
48 312 -92 0
-101 -93 -280 0
22 -152 -116 0
-130 -284 -12 0
154 132 90 0
27 180 -236 0
-164 -173 177 0
62 -59 40 0
-304 -318 153 0
60 240 -271 0
-174 320 -316 0
-294 -205 216 0
-142 60 -64 0
301 162 17 0
77 -59 33 0
29 -123 -17 0
244 9 51 0
82 15 -31 0
10 222 123 0
-300 -6 -84 0
91 236 133 0
-35 -258 254 0
-185 -78 55 0
-48 107 -74 0
-314 234 93 0
-147 -208 67 0
266 -258 -317 0
-40 -136 113 0
58 -263 -166 0
317 183 18 0
50 166 -86 0
-114 -169 -238 0
-128 -113 -308 0
39 187 141 0
62 -7 -171 0
151 170 211 0
-31 -287 -117 0
-183 -163 171 0
246 -255 -91 0
-260 137 -278 0
-61 -139 70 0
180 238 17 0
-200 -49 36 0
-144 319 160 0
90 -36 59 0
209 63 -248 0
-37 87 153 0
-100 238 291 0
-9 -203 -317 0
193 117 -64 0
75 -176 -278 0
23 -92 -293 0
18 82 -218 0
-27 263 208 0
-113 -270 135 0
-260 -38 -53 0
56 -164 -201 0
-187 -38 261 0
194 274 -266 0
-48 86 234 0
194 316 251 0
108 -42 -224 0
262 -244 265 0
-64 -224 265 0
-285 133 -64 0
-8 154 111 0
-204 -210 50 0
207 29 69 0
-287 -148 -191 0
-161 93 168 0
-37 -10 52 0
-272 -293 121 0
-43 109 -70 0
-178 -241 22 0
-210 -52 -269 0
127 -115 287 0
-140 167 -222 0
-93 155 3 0
-170 -9 154 0
-59 284 -125 0
23 252 156 0
99 -245 102 0
-120 89 -74 0
60 142 77 0
271 -159 94 0
-316 193 96 0
76 -222 110 0
-238 -51 166 0
-51 107 -62 0
208 93 131 0
-63 -304 -258 0
225 -207 -26 0
-4 -93 6 0
-138 217 87 0
-293 220 -165 0
282 36 109 0
106 211 1 0
-303 -308 48 0
-34 -92 -80 0
-311 171 198 0
305 223 220 0
-319 -43 -138 0
96 -264 306 0
-17 -318 -56 0
-303 -307 270 0
-320 239 -46 0
-314 109 308 0
232 -11 211 0
-240 100 -143 0
200 149 181 0
141 -7 -58 0
-288 -245 204 0
242 -95 187 0
43 -58 -54 0
4 158 105 0
-276 15 130 0
274 -58 268 0
75 -87 76 0
224 -222 256 0
-158 230 265 0
178 286 -115 0
-28 -139 -274 0
123 250 -108 0
-41 -302 -159 0
-242 311 83 0
175 63 -72 0
-205 229 277 0
177 219 263 0
88 -306 -58 0
97 214 316 0
-74 159 207 0
-133 -221 -232 0
64 -54 -187 0
10 256 262 0
-143 -308 178 0
-228 34 247 0
148 -139 -199 0
-287 -127 -132 0
-155 -181 -109 0
192 -189 300 0
83 80 -154 0
49 126 48 0
-153 -168 -104 0
-226 -234 -50 0
-200 -51 -139 0
-251 202 -151 0
158 21 -116 0
173 37 52 0
113 84 288 0
278 65 -40 0
306 11 45 0
-238 56 253 0
125 195 2 0
-63 197 15 0
256 -34 61 0
-319 240 -220 0
-314 162 49 0
176 -282 316 0
-252 171 -65 0
124 238 291 0
320 80 240 0
-183 -40 -167 0
-73 -134 -307 0
276 -248 -199 0
-111 -77 138 0
-78 148 320 0
1 115 -131 0
248 -93 -41 0
247 311 -20 0
295 -303 -201 0
-75 174 35 0
-306 299 49 0
-87 41 -83 0
-132 -80 74 0
-154 5 277 0
220 -156 -38 0
244 308 192 0
51 -235 -5 0
161 312 26 0
26 -255 -6 0
-68 120 -52 0
-194 -315 149 0
-189 74 315 0
-125 -205 -237 0
206 -69 -309 0
33 -22 49 0
-45 116 -107 0
-307 61 117 0
-5 -97 304 0
99 -38 272 0
-225 71 -39 0
47 228 120 0
-34 149 -133 0
66 -164 -314 0
-286 -202 -151 0
175 -230 -303 0
-168 284 146 0
49 15 75 0
95 137 232 0
180 189 255 0
-261 185 -131 0
163 159 302 0
108 -206 -76 0
-305 205 207 0
68 -279 -63 0
-79 -263 -35 0
-189 278 -55 0
-48 -266 -55 0
-158 -135 -4 0
152 -29 61 0
312 99 -298 0
16 184 8 0
251 306 81 0
-269 131 119 0
166 -129 33 0
128 -150 65 0
-147 67 182 0
-174 -233 -190 0
-8 34 -2 0
-301 306 -235 0
300 176 -231 0
173 263 221 0
-248 -61 36 0
206 130 -71 0
-144 132 -183 0
-305 -183 -247 0
-247 317 -71 0
-293 286 -38 0
160 -56 258 0
141 198 157 0
-69 7 264 0
3 -93 59 0
-171 103 -80 0
157 -104 -117 0
-145 4 -297 0
-68 169 227 0
-203 211 -235 0
-199 -189 290 0
-268 125 -123 0
-56 293 -107 0
102 -241 165 0
275 -165 -180 0
-143 7 -110 0
155 -211 -192 0
296 -100 227 0
72 -17 -145 0
307 280 136 0
118 216 -70 0
-215 190 -225 0
68 -156 -246 0
47 -136 -295 0
174 241 205 0
-71 -8 -180 0
115 -35 -6 0
-123 -6 -88 0
-84 -169 -185 0
160 -20 -300 0
238 -128 188 0
-120 305 -260 0
88 316 -108 0
222 38 204 0
-292 -11 158 0
180 -158 68 0
250 111 12 0
-53 -147 111 0
140 -110 188 0
127 57 221 0
246 -53 38 0
256 17 -264 0
21 182 311 0
314 205 175 0
-168 -15 -4 0
172 284 136 0
-74 -4 191 0
32 -298 -303 0
-231 -126 -317 0
-267 -99 -86 0
-173 -134 72 0
-11 318 64 0
32 -60 73 0
-320 141 -134 0
103 143 135 0
81 173 198 0
-100 -303 -152 0
308 -134 21 0
243 -315 -197 0
-242 1 11 0
220 -233 -70 0
-317 -276 -81 0
41 -150 -37 0
-92 -205 -260 0
-320 281 -122 0
-121 -198 -93 0
98 -279 -317 0
268 -5 309 0
265 112 273 0
-307 -294 310 0
-134 -240 -13 0
-8 176 194 0
117 198 -144 0
18 -62 -174 0
154 -9 53 0
247 35 -235 0
154 159 -207 0
-295 -52 -278 0
-109 -138 -202 0
182 33 -184 0
-218 259 -162 0
163 210 -139 0
-255 -305 151 0
45 154 85 0
166 -133 -172 0
-275 -201 318 0
242 130 249 0
-70 177 161 0
37 -176 -219 0
-23 310 -132 0
-26 226 15 0
14 -101 -199 0
299 309 -270 0
-74 -181 -129 0
-179 -189 -154 0
279 -249 162 0
-242 142 -211 0
154 81 -249 0
178 99 -276 0
41 152 -218 0
-270 -24 304 0
47 -146 -225 0
-47 -274 203 0
256 -6 -62 0
239 -313 -6 0
-49 259 1 0
296 -119 -277 0
74 -104 15 0
112 -296 -57 0
288 -91 199 0
264 94 -315 0
247 54 296 0
-44 209 40 0
-242 270 -257 0
-213 -216 -229 0
-249 63 -154 0
147 252 -250 0
234 167 -58 0
305 247 -241 0
162 -287 100 0
-36 -58 -104 0
-275 -295 -80 0
-169 -30 39 0
102 22 -4 0
-13 -156 -301 0
-252 -186 227 0
312 208 129 0
59 -139 -248 0
153 198 275 0
-27 150 116 0
-231 -55 -163 0
147 140 304 0
249 -45 -164 0
-234 175 -114 0
-79 145 -246 0
-50 204 -12 0
-26 -221 -198 0
281 284 102 0
-21 -316 -96 0
-115 -176 -93 0
86 -70 163 0
190 111 202 0
-182 149 145 0
85 23 -182 0
190 -169 257 0
316 -287 133 0
296 -184 -214 0
270 138 209 0
-190 313 248 0
196 -237 86 0
271 -285 18 0
-194 -199 -311 0
-216 -121 -116 0
192 -23 195 0
89 -70 184 0
66 -151 296 0
-31 -265 273 0
255 285 -316 0
315 301 -7 0
154 43 -119 0
-207 -176 -149 0
295 -195 -216 0
133 140 82 0
1 -98 159 0
311 -150 148 0
78 -303 -16 0
-295 -276 20 0
-98 -152 -288 0
-12 165 164 0
-179 67 104 0
296 291 -274 0
3 223 95 0
-23 -51 -104 0
-230 280 -197 0
98 156 201 0
114 -179 -139 0
104 190 172 0
70 -306 52 0
-87 -253 -243 0
210 172 155 0
165 83 176 0
123 121 -313 0
-189 296 169 0
6 67 -303 0
-120 24 -162 0
129 -285 127 0
-318 -73 -292 0
55 319 -286 0
-37 -258 -206 0
293 280 213 0
26 254 -221 0
-5 141 275 0
47 94 144 0
164 -173 251 0
243 7 175 0
-235 174 -273 0
180 -174 40 0
186 12 -126 0
-226 -86 -302 0
-313 216 224 0
210 -294 -315 0
-220 141 -281 0
-166 97 -47 0
290 96 224 0
-147 -202 -134 0
186 -156 -61 0
160 30 60 0
7 -271 -69 0
281 311 -7 0
-208 294 -318 0
269 214 283 0
286 -258 -106 0
-309 297 61 0
-301 271 -188 0
-192 -289 211 0
154 -263 107 0
240 -236 159 0
-15 -201 152 0
89 296 210 0
171 -4 -124 0
170 -55 -57 0
-91 -214 -112 0
-141 -8 -277 0
-127 169 -65 0
28 -223 -60 0
-29 -6 -298 0
177 285 57 0
183 262 -215 0
-268 7 89 0
116 194 -49 0
239 -37 41 0
181 61 217 0
261 22 159 0
137 -207 -158 0
-315 -24 -254 0
143 -102 264 0
205 -215 -266 0
204 273 -153 0
-176 -3 -72 0
3 -70 130 0
28 -141 202 0
-27 -280 180 0
217 220 58 0
-211 153 275 0
-26 -213 -316 0
-46 -233 -132 0
-146 -10 -58 0
-312 300 118 0
-273 120 275 0
-229 -187 35 0
274 -183 174 0
-210 280 -231 0
209 36 -218 0
-198 -139 -305 0
-100 -176 -18 0
241 282 98 0
-290 268 -233 0
125 24 -298 0
174 36 202 0
183 51 49 0
11 306 202 0
-244 319 162 0
114 -121 -288 0
27 237 -197 0
106 -277 295 0
-308 123 4 0
-310 90 -84 0
99 15 144 0
290 -128 226 0
-69 38 8 0
280 293 263 0
-99 -287 -187 0
261 184 -49 0
204 -235 48 0
-97 70 318 0
114 -223 36 0
87 -58 -40 0
-10 298 247 0
186 172 -269 0
-5 -86 69 0
-74 313 133 0
-60 -234 -28 0
179 159 69 0
-83 238 -73 0
-175 -3 -221 0
-60 -150 105 0
-202 -51 -130 0
81 -302 -20 0
1 233 35 0
-24 -303 262 0
119 -121 -68 0
149 -10 -13 0
290 -92 12 0
-50 -66 311 0
205 70 71 0
-35 -108 -22 0
303 9 -306 0
-25 -28 -247 0
182 60 204 0
-117 132 -16 0
202 168 174 0
211 140 -208 0
222 294 -152 0
-116 -268 -167 0
60 84 67 0
303 143 147 0
80 -305 -311 0
295 -159 18 0
47 206 239 0
244 15 -13 0
198 -124 11 0
23 -285 28 0
-117 270 43 0
-213 124 -11 0
-273 -232 -93 0
211 247 -97 0
-11 -280 36 0
-208 290 -55 0
120 64 184 0
71 -225 -5 0
-196 47 149 0
177 -138 -70 0
181 -229 227 0
183 -316 117 0
-14 265 -230 0
-1 -288 -159 0
206 -304 198 0
189 -246 150 0
215 272 -26 0
151 -61 62 0
-249 -25 -107 0
-45 -4 57 0
-35 81 -292 0
296 266 -132 0
-91 -318 251 0
-312 167 228 0
-78 -274 200 0
-177 -154 -287 0
-126 -57 47 0
45 132 221 0
-107 -116 48 0
317 -147 265 0
164 59 2 0
5 14 106 0
-182 237 -292 0
246 178 -299 0
-281 -153 30 0
-240 210 107 0
115 -22 101 0
115 -126 212 0
43 124 308 0
152 302 174 0
218 -7 215 0
234 -67 -122 0
-5 -281 -95 0
179 -9 -38 0
-267 -167 -248 0
133 -217 274 0
-170 148 -82 0
-291 -229 226 0
-155 194 -267 0
-113 186 -99 0
15 -138 -269 0
-207 -273 249 0
-96 -80 -117 0
108 308 -32 0
290 -51 -37 0
149 -25 -225 0
319 -105 -245 0
-106 -38 -217 0
316 -122 228 0
-273 -271 15 0
209 93 -175 0
176 205 -137 0
301 -243 -154 0
91 -5 233 0
-289 259 -158 0
116 33 -229 0
180 272 314 0
263 202 265 0
54 62 -100 0
69 251 -28 0
-91 270 67 0
228 146 -236 0
-39 -311 -285 0
-78 -50 -62 0
-38 65 27 0
176 -98 203 0
-49 -65 -134 0
221 -69 27 0
275 -141 -104 0
-17 -211 -110 0
-209 -252 319 0
47 -199 -103 0
109 117 175 0
-158 -125 -120 0
154 254 281 0
166 -191 183 0
-9 -304 177 0
-44 -101 -128 0
-260 -102 -15 0
317 110 -131 0
-32 -138 137 0
272 -299 -208 0
316 212 11 0
180 -16 -204 0
78 -34 -140 0
284 119 -226 0
127 35 28 0
-234 159 146 0
-256 -246 141 0
-40 -26 28 0
310 14 231 0
167 40 146 0
111 -303 72 0
78 -202 -191 0
50 44 249 0
198 -281 249 0
-312 -5 -250 0
1 -11 108 0
-71 87 -130 0
93 -40 -271 0
-276 176 -3 0
136 191 -107 0
123 65 -175 0
201 250 169 0
-93 -97 200 0
-309 136 123 0
-59 -46 -4 0
104 318 193 0
-243 -146 -306 0
-226 -10 173 0
94 -205 -287 0
207 -161 210 0
-214 90 141 0
96 101 -270 0
173 213 -292 0
-191 158 57 0
-239 38 -225 0
-298 -32 -261 0
256 105 156 0
151 58 -308 0
-23 156 212 0
-205 273 72 0
62 3 170 0
226 -42 -59 0
-195 244 286 0
-138 111 101 0
86 -288 71 0
-52 134 -79 0
100 -35 -156 0
127 -58 140 0
-138 312 88 0
311 -109 258 0
87 -176 -132 0
46 292 154 0
-153 -244 -314 0
167 182 186 0
-193 -87 103 0
308 133 -11 0
2 43 41 0
-215 -302 -130 0
210 -177 -152 0
199 -73 275 0
62 11 -1 0
-83 -308 260 0
-77 54 -308 0
156 -41 -138 0
125 261 -268 0
-147 -172 -162 0
-79 284 57 0
255 -72 195 0
90 102 -193 0
-227 -211 205 0
-99 281 -256 0
298 -272 -181 0
-168 110 -195 0
-174 47 236 0
-320 -206 -21 0
295 -273 146 0
63 -80 233 0
-213 125 -149 0
-210 -34 -68 0
-252 230 -79 0
158 104 -298 0
212 -45 238 0
90 -73 185 0
-171 -185 -143 0
-97 246 -111 0
-109 -10 230 0
245 -253 -218 0
218 288 163 0
-16 -68 43 0
319 66 150 0
192 -97 23 0
135 -20 246 0
306 -131 38 0
-191 28 39 0
260 -272 -151 0
-202 -156 -126 0
