c planted random 3-SAT, n=450 ratio=4.25; every variable is free, there is no driving input set
c generated by TurboCryptoSAT gen-benchmark - satisfiable by construction
p cnf 450 1912
83 430 409 0
-412 -386 381 0
-365 -154 127 0
315 -447 -209 0
-177 -74 -377 0
111 182 -234 0
-170 -26 -298 0
-2 -129 384 0
240 -440 -122 0
69 -117 -280 0
-70 -294 131 0
194 273 -41 0
-262 142 -348 0
-318 128 -284 0
368 363 -142 0
-7 417 235 0
-224 -148 345 0
120 219 335 0
-234 -412 -357 0
-443 284 2 0
182 -329 177 0
-12 -215 -36 0
-262 406 -110 0
176 422 295 0
417 -116 -381 0
-91 283 -112 0
-84 -278 -338 0
373 312 -108 0
-121 -203 369 0
310 208 357 0
31 179 366 0
74 348 129 0
-180 -159 19 0
-445 -197 -359 0
-261 -374 422 0
-89 -306 307 0
-283 439 78 0
241 -356 -216 0
-287 262 -35 0
157 427 -401 0
213 -423 -175 0
-198 -20 346 0
367 41 51 0
368 322 392 0
346 130 -153 0
-92 -46 -301 0
245 448 -21 0
-153 -282 206 0
-67 -145 -129 0
-386 -16 215 0
-273 -68 187 0
394 -147 -116 0
-165 75 169 0
276 84 256 0
264 -315 -442 0
356 337 -300 0
108 -36 -269 0
-419 107 450 0
-251 -141 -124 0
92 -380 -60 0
-100 -7 -277 0
-98 -312 -211 0
235 -7 224 0
384 143 -391 0
303 417 323 0
100 -21 402 0
-148 -313 413 0
62 414 38 0
-279 -220 301 0
111 57 119 0
-111 184 416 0
-31 -142 26 0
167 448 -125 0
378 186 257 0
-163 353 355 0
-303 -418 132 0
111 129 -431 0
138 439 26 0
202 -272 -123 0
286 -398 76 0
175 -202 55 0
295 -11 -409 0
-300 -412 166 0
333 138 331 0
-4 -316 418 0
-154 188 111 0
-139 213 -31 0
-281 325 179 0
222 -409 -106 0
382 -118 -181 0
-261 113 291 0
399 -11 257 0
-58 155 -255 0
370 -132 -53 0
416 322 -294 0
378 -191 -127 0
339 79 -343 0
438 426 205 0
204 -306 -338 0
86 95 -18 0
-102 -61 -385 0
-285 308 -219 0
300 -420 -172 0
8 219 353 0
-338 -205 256 0
296 301 -140 0
146 -20 220 0
418 403 -137 0
-344 405 263 0
-98 340 -46 0
-59 -81 127 0
-67 154 -51 0
-164 -402 172 0
-413 -275 -193 0
-287 -291 238 0
-148 -344 -288 0
12 426 -254 0
-127 420 355 0
336 -42 15 0
401 65 95 0
-221 68 -423 0
-14 -407 -426 0
-298 -35 67 0
-43 -353 -91 0
408 -237 -267 0
299 402 444 0
-402 -254 -318 0
-238 173 129 0
-388 -62 -342 0
156 22 332 0
-246 -301 -413 0
34 -242 285 0
402 364 -104 0
-240 363 -421 0
-442 80 126 0
140 184 -252 0
-174 202 -24 0
233 114 122 0
-410 164 91 0
-329 54 -402 0
383 -360 426 0
-101 -322 -226 0
273 288 -137 0
181 428 -194 0
-227 255 -307 0
-326 -397 -99 0
363 397 -231 0
298 172 13 0
218 -291 27 0
-169 -232 -328 0
420 397 -172 0
-177 -335 400 0
147 333 220 0
-363 -162 406 0
-238 151 -318 0
62 303 -431 0
-258 135 34 0
242 367 -221 0
-271 -369 166 0
437 -168 115 0
-190 -159 17 0
-338 -323 -185 0
346 128 -181 0
346 -291 -125 0
178 -11 265 0
102 -319 23 0
-251 -85 -152 0
-97 32 83 0
-221 -422 333 0
32 206 438 0
-450 -67 388 0
-192 329 174 0
-236 -433 -377 0
-258 125 -200 0
-394 446 11 0
-234 -253 204 0
114 -107 -141 0
182 355 232 0
345 -279 364 0
-441 -77 232 0
-430 -163 -71 0
35 145 113 0
-333 45 288 0
223 447 402 0
40 409 413 0
-267 78 214 0
2 -225 77 0
-101 149 143 0
213 -70 -155 0
143 -202 257 0
306 -434 222 0
175 -313 -106 0
185 263 435 0
-311 -394 -6 0
379 -190 145 0
165 -160 -188 0
295 280 -45 0
-174 -160 368 0
123 30 343 0
269 -65 30 0
-355 -213 351 0
-192 108 274 0
386 -258 -188 0
-382 439 288 0
-362 -301 211 0
68 36 46 0
215 -244 -371 0
105 -432 232 0
-244 -434 -351 0
-27 344 -381 0
-137 17 75 0
-4 110 263 0
-95 -10 219 0
216 -379 -35 0
332 -251 -102 0
91 -81 -186 0
-5 -26 -337 0
-193 48 3 0
-82 -13 140 0
-159 115 -87 0
-134 228 -281 0
160 -389 96 0
-295 -126 254 0
-301 418 -37 0
302 -311 222 0
327 198 -447 0
-253 405 -352 0
299 188 232 0
-276 203 245 0
59 -304 -362 0
203 55 315 0
-429 -271 380 0
315 -421 225 0
-415 420 421 0
365 399 87 0
338 -9 -393 0
-386 -166 413 0
-18 410 -219 0
190 -320 -117 0
-244 -394 -266 0
258 -341 -207 0
-369 -119 -136 0
-91 184 -178 0
-229 156 285 0
-367 365 -35 0
-182 282 300 0
-107 90 219 0
370 -417 -139 0
191 -13 158 0
179 16 -349 0
195 -92 126 0
54 222 354 0
-180 -284 91 0
361 -112 -400 0
-413 -221 -288 0
-192 47 -204 0
-338 -49 -353 0
-185 360 -222 0
244 -153 -109 0
45 -64 -142 0
243 -395 204 0
25 -317 88 0
206 -390 -97 0
-140 411 -318 0
32 282 201 0
-15 150 230 0
-347 343 375 0
194 -137 -319 0
-417 90 -217 0
-320 141 -51 0
-158 32 -136 0
-151 -320 292 0
25 63 15 0
-233 -172 -59 0
-124 -99 93 0
153 -137 76 0
212 17 208 0
-399 359 156 0
-333 311 289 0
-440 -83 -93 0
30 -349 143 0
-210 -318 -179 0
-154 432 66 0
365 -219 -21 0
324 326 144 0
344 -71 -333 0
50 108 390 0
-161 -288 -6 0
193 216 282 0
216 305 29 0
-450 -228 -275 0
-36 -193 76 0
-401 232 -378 0
-396 185 428 0
41 -195 -267 0
-217 17 -225 0
340 335 134 0
-223 357 -56 0
399 18 265 0
-203 -186 -220 0
-20 -141 -76 0
-394 24 -49 0
143 -156 69 0
-257 219 273 0
310 314 -302 0
378 276 247 0
203 335 -11 0
-72 181 449 0
44 -278 -427 0
201 -30 64 0
-27 275 140 0
-167 -286 -240 0
-245 -304 -215 0
-263 -236 445 0
417 -72 -197 0
-334 434 -190 0
13 22 -32 0
347 -88 -369 0
-253 -341 432 0
-133 -373 -141 0
253 -3 -141 0
373 5 247 0
67 -75 296 0
-22 251 -429 0
-240 -35 216 0
349 -419 39 0
-193 46 -69 0
-338 -251 299 0
199 128 224 0
20 383 -9 0
-307 404 135 0
343 313 243 0
295 191 178 0
225 393 84 0
-96 -66 191 0
41 202 -242 0
-77 -52 45 0
-151 -212 76 0
-142 40 -23 0
-382 -104 -7 0
195 309 -73 0
44 -122 -66 0
438 -435 152 0
-83 -126 205 0
-438 23 -344 0
12 96 -212 0
-8 448 110 0
46 84 303 0
-185 174 -432 0
319 -124 -365 0
-256 173 -14 0
399 -223 -181 0
443 -444 -421 0
-226 208 -223 0
-176 361 129 0
-283 2 413 0
185 -313 -423 0
181 -298 229 0
-429 -352 -149 0
-94 -424 -38 0
325 -48 -301 0
-251 171 -215 0
-399 -279 -35 0
182 -249 -394 0
-278 87 229 0
157 414 -361 0
223 -280 -373 0
-323 -298 -196 0
-146 241 -121 0
-85 426 -132 0
-28 182 204 0
-289 124 -72 0
7 53 227 0
9 437 323 0
-193 228 -367 0
-187 263 201 0
376 369 -51 0
262 -268 21 0
-445 -321 -84 0
-260 -147 444 0
148 -156 -228 0
98 -385 30 0
-341 -182 -190 0
281 364 198 0
-102 91 379 0
-186 -415 -33 0
57 317 -72 0
250 -223 -140 0
336 325 -126 0
-57 -20 -85 0
197 -429 -365 0
-396 -214 -152 0
59 -161 -430 0
-129 -338 183 0
-59 250 -23 0
175 93 -281 0
-173 -187 326 0
74 -200 -99 0
-220 23 -437 0
-87 200 69 0
353 -99 -7 0
-194 445 104 0
-337 -48 273 0
-358 103 200 0
44 -123 345 0
239 -91 119 0
327 398 246 0
164 -156 -172 0
-133 -175 -182 0
449 158 -248 0
433 355 223 0
-354 304 -380 0
374 -142 237 0
279 -47 15 0
-408 42 -146 0
159 97 20 0
-449 -78 -424 0
370 -405 333 0
-217 -88 172 0
-10 143 102 0
-371 426 230 0
-407 159 352 0
325 157 257 0
-181 -126 -217 0
-244 -145 -110 0
-62 436 -269 0
-114 -118 -446 0
-224 257 120 0
-349 -384 -79 0
-128 -111 -220 0
441 400 52 0
-28 419 -188 0
-328 408 195 0
200 -315 264 0
-27 -256 175 0
-340 -299 -423 0
-143 -105 356 0
-16 -41 146 0
-109 -67 362 0
376 -445 297 0
-358 -127 -274 0
57 327 -27 0
371 45 184 0
175 -349 -331 0
179 339 88 0
108 -302 174 0
162 -333 215 0
401 -86 -58 0
-47 400 88 0
-292 -369 -303 0
-343 -191 335 0
-366 -393 216 0
263 54 -242 0
92 -241 139 0
-70 -290 -216 0
-302 -384 52 0
42 -277 -25 0
-344 -329 347 0
-94 85 -139 0
248 413 -306 0
-272 370 447 0
131 -325 -69 0
-237 340 446 0
-287 -319 -291 0
400 -397 276 0
247 215 13 0
-301 178 134 0
-174 324 -111 0
-161 419 -239 0
155 429 177 0
-72 -297 -335 0
-128 374 -346 0
-258 244 318 0
-73 -404 -97 0
174 -117 -319 0
-219 208 -324 0
-268 361 -238 0
-111 -402 -164 0
370 -365 -251 0
-396 -8 -194 0
92 224 291 0
400 193 262 0
398 387 154 0
444 -143 285 0
-330 368 -32 0
24 338 68 0
-296 311 -314 0
59 -387 -375 0
103 253 239 0
-167 399 -298 0
142 -88 -252 0
-153 -168 -22 0
-378 -380 -221 0
-446 -93 -111 0
-344 -56 -389 0
-444 432 285 0
-341 404 -262 0
409 -333 117 0
282 -358 -73 0
-135 169 26 0
97 310 313 0
94 -344 -384 0
373 -110 -120 0
-277 112 67 0
85 240 348 0
-81 331 4 0
105 -233 -256 0
430 -291 91 0
-33 -90 390 0
184 -97 135 0
179 269 112 0
413 165 -210 0
-206 250 -168 0
-87 -190 -428 0
244 -89 -197 0
-357 -319 363 0
-295 212 -315 0
224 232 424 0
-162 -425 -385 0
92 120 -140 0
60 7 339 0
-297 62 135 0
-237 305 -339 0
293 -217 -54 0
-264 -339 27 0
-262 -27 179 0
32 215 73 0
254 -331 40 0
-342 -418 114 0
255 318 31 0
269 145 -369 0
358 -99 171 0
-379 -45 8 0
-380 -200 178 0
-380 -224 432 0
303 388 -357 0
254 102 428 0
350 -93 -29 0
408 -215 42 0
333 -360 -231 0
-383 -159 31 0
-77 -351 249 0
341 327 24 0
-78 345 11 0
-56 388 396 0
17 310 -51 0
-439 262 -430 0
257 230 131 0
-80 -10 -192 0
279 -238 257 0
272 155 256 0
302 101 -343 0
199 -22 -365 0
-57 349 -327 0
210 95 111 0
-282 449 -238 0
-280 -405 -80 0
424 166 124 0
-135 -137 397 0
64 -444 32 0
-93 349 86 0
-449 -292 -257 0
-260 -178 404 0
229 185 440 0
123 135 384 0
44 157 310 0
156 138 -142 0
-86 306 -380 0
269 -387 -63 0
-206 -89 390 0
-279 285 -17 0
55 -191 402 0
23 86 -312 0
162 430 -131 0
-272 -317 -415 0
-229 -121 -331 0
-361 428 -293 0
-415 375 318 0
141 -295 -354 0
-371 381 75 0
253 -206 147 0
225 -388 49 0
-32 -225 406 0
182 323 -52 0
440 91 -389 0
2 -132 -428 0
-323 -408 117 0
-439 -30 43 0
85 -153 31 0
-75 40 74 0
-104 395 34 0
22 -130 -290 0
-27 -346 -380 0
-387 -57 432 0
115 29 -21 0
163 240 433 0
372 -180 -234 0
410 -259 -405 0
394 364 313 0
-148 -238 164 0
88 151 321 0
312 254 -260 0
-167 -53 160 0
141 -408 112 0
1 -386 -443 0
72 62 -101 0
252 251 53 0
-145 -57 -286 0
390 19 38 0
-363 -145 156 0
304 -326 -107 0
-106 -326 43 0
300 -255 -360 0
142 184 190 0
330 -441 -449 0
-318 -33 -384 0
-65 -236 159 0
94 -408 173 0
-296 -37 -66 0
202 -11 446 0
-239 302 18 0
-145 122 36 0
-242 -168 127 0
119 156 259 0
-306 -34 221 0
187 -109 -354 0
419 138 299 0
-180 -236 -105 0
277 241 -317 0
-291 390 6 0
-323 379 145 0
204 -21 187 0
240 390 267 0
-98 -342 64 0
-378 -301 -35 0
-115 -196 378 0
-16 -192 -243 0
162 404 213 0
418 -200 310 0
438 -323 172 0
-347 348 82 0
-176 -55 -77 0
19 334 124 0
-19 105 -276 0
288 -39 -316 0
205 262 -19 0
-179 292 158 0
-245 -138 298 0
66 -259 -212 0
-180 205 233 0
-106 362 447 0
-240 253 366 0
-94 302 -232 0
201 213 181 0
8 283 -271 0
-265 424 -237 0
228 63 42 0
-317 -272 244 0
-89 396 124 0
-225 224 -104 0
-168 163 364 0
-61 346 -357 0
-36 -84 -133 0
-9 -178 -266 0
-186 154 -308 0
-91 -220 -225 0
-173 351 -446 0
-448 -31 -13 0
339 -151 27 0
-363 111 32 0
-214 -184 108 0
115 309 211 0
187 233 -22 0
324 -178 161 0
202 154 51 0
-238 85 19 0
315 -379 269 0
103 284 -246 0
122 -90 293 0
-238 308 -266 0
-113 147 362 0
51 68 12 0
403 -397 -124 0
-146 92 87 0
299 72 371 0
45 37 -245 0
-138 -110 -248 0
-140 145 47 0
92 164 -121 0
-23 156 -7 0
125 175 -145 0
-346 -70 -309 0
-16 -339 -67 0
199 350 -304 0
235 170 -349 0
-275 -77 -306 0
-446 -410 -320 0
-175 -86 -16 0
400 385 -45 0
-3 -154 -249 0
-150 335 101 0
-224 11 386 0
185 265 -234 0
-212 -395 -20 0
-86 -343 45 0
75 -82 -99 0
407 -111 -358 0
-359 123 -197 0
-246 -177 -322 0
-116 -173 -200 0
334 -68 278 0
225 440 -372 0
348 -434 272 0
136 397 -441 0
332 -445 -80 0
-19 -392 262 0
114 428 222 0
268 19 -170 0
-40 -421 142 0
103 -239 105 0
257 364 -43 0
-197 112 -331 0
150 -5 -286 0
-179 279 422 0
-17 218 213 0
-409 -408 34 0
-418 278 -399 0
-279 -387 -168 0
-353 -185 144 0
-436 -80 -185 0
-86 143 88 0
89 -154 331 0
278 263 -17 0
214 293 -153 0
-140 354 -18 0
230 -434 242 0
47 350 -236 0
398 228 -57 0
-17 400 203 0
271 -246 -400 0
209 -14 100 0
-344 -1 169 0
134 -28 -405 0
-324 442 110 0
206 -203 -199 0
112 372 -260 0
-37 -379 -46 0
-241 47 110 0
127 -128 182 0
-365 -359 -177 0
220 136 -288 0
423 233 -426 0
-15 35 369 0
-87 -232 96 0
353 56 -408 0
353 158 -132 0
361 445 -447 0
-111 -367 230 0
-121 -217 -289 0
117 -292 -305 0
138 313 -24 0
-438 334 -190 0
-305 -427 50 0
-46 -181 -81 0
-167 -214 -332 0
316 -82 428 0
402 -299 58 0
72 -150 -94 0
-73 285 60 0
-435 -121 -291 0
-57 19 5 0
206 -428 283 0
363 234 -241 0
418 -387 359 0
-146 7 395 0
123 -286 363 0
387 -416 -320 0
103 108 317 0
-428 -142 4 0
61 -175 283 0
211 23 277 0
369 270 -214 0
128 354 -30 0
440 4 400 0
37 195 -351 0
-156 385 -431 0
21 306 -182 0
-10 -380 -193 0
133 -9 -168 0
-120 -57 390 0
-411 389 183 0
222 -390 383 0
-223 -89 95 0
242 -369 -171 0
-348 374 18 0
67 -251 -380 0
320 401 -123 0
-79 374 380 0
-9 -248 -417 0
23 -417 407 0
117 6 -318 0
157 154 308 0
-340 371 206 0
-106 347 -130 0
179 264 165 0
-393 211 344 0
369 -80 -84 0
114 -405 125 0
377 -7 -36 0
-185 -92 328 0
38 396 294 0
117 162 -173 0
-135 -224 -2 0
15 -156 -122 0
-195 -214 -332 0
132 446 -420 0
-388 261 -268 0
-407 -58 -443 0
210 24 -227 0
2 419 -447 0
21 -195 -289 0
432 -237 -76 0
360 373 -424 0
269 175 205 0
164 73 -231 0
-262 -156 -126 0
442 170 81 0
364 -171 -392 0
246 -358 156 0
-424 -98 284 0
-183 29 -374 0
394 -237 393 0
-283 364 -188 0
354 -88 -388 0
359 -99 109 0
417 115 100 0
-17 197 -34 0
60 -100 -187 0
372 112 389 0
138 112 352 0
-449 302 225 0
304 -87 12 0
-249 46 -397 0
-56 -194 -23 0
37 -239 3 0
-310 402 -138 0
-256 331 -168 0
109 62 390 0
127 -28 10 0
-449 380 249 0
366 -201 184 0
378 271 343 0
365 -135 -387 0
-119 -183 -164 0
47 -32 425 0
33 -302 -201 0
23 -142 -265 0
418 -8 -213 0
-257 428 377 0
359 404 94 0
-279 408 -414 0
128 -435 28 0
-366 -158 -421 0
138 -299 -74 0
-145 -89 -201 0
-103 357 -410 0
257 404 114 0
-368 -20 -272 0
-189 -173 61 0
138 427 -103 0
-327 446 376 0
174 309 -189 0
34 302 303 0
-32 -332 -220 0
-78 -288 -107 0
-316 224 116 0
195 328 385 0
-284 310 -342 0
-123 -192 -74 0
-292 -209 -228 0
78 374 -300 0
157 -408 -236 0
32 188 -284 0
162 -67 240 0
373 57 429 0
370 -39 147 0
197 257 -22 0
-355 53 239 0
-345 292 439 0
-360 -347 -89 0
57 259 -266 0
-371 -208 372 0
436 -190 323 0
-125 392 178 0
-189 180 -328 0
-147 288 277 0
-197 -205 249 0
-14 -270 -91 0
309 -410 -400 0
-216 -325 27 0
-357 422 68 0
-109 -213 341 0
-303 -290 105 0
-261 300 180 0
143 81 164 0
212 322 -192 0
351 -186 6 0
-333 -286 351 0
-250 -97 -416 0
-392 -399 257 0
-401 -380 -233 0
411 -142 -107 0
-354 -428 -121 0
-385 216 370 0
410 241 -345 0
92 341 322 0
277 23 182 0
411 -362 -440 0
-181 -164 266 0
-370 -262 -209 0
-215 -284 -178 0
56 194 66 0
118 66 -180 0
298 448 126 0
-444 160 71 0
313 -358 259 0
30 185 303 0
-52 -443 -31 0
-66 -377 120 0
-207 -215 111 0
401 58 420 0
-117 76 -359 0
-84 -389 79 0
-330 132 285 0
-118 167 -413 0
25 -59 -116 0
-165 -67 14 0
108 -250 11 0
-235 310 297 0
40 -379 52 0
-35 246 -325 0
317 287 -427 0
203 -124 -321 0
-18 -405 57 0
-369 -386 -10 0
293 -75 -409 0
-410 164 152 0
-387 334 190 0
-185 -101 -5 0
-7 432 -119 0
366 -430 350 0
-290 -339 391 0
-427 429 424 0
-433 169 -369 0
-437 240 444 0
220 -17 -88 0
-215 258 437 0
19 -215 386 0
386 224 -28 0
-370 -221 -252 0
-280 260 -186 0
-46 -326 -449 0
45 -24 135 0
173 -449 386 0
-213 326 34 0
205 389 33 0
-126 -24 351 0
87 -370 -317 0
198 330 297 0
29 408 -345 0
413 -334 -410 0
58 -28 264 0
282 405 70 0
-426 428 -362 0
303 172 -50 0
-325 14 250 0
-300 -415 238 0
398 332 -382 0
-245 -130 -87 0
374 176 -18 0
117 87 147 0
-441 -290 292 0
-376 -291 -37 0
-7 -225 -315 0
-289 -42 447 0
-223 195 313 0
354 257 248 0
11 419 279 0
28 -406 332 0
-378 -231 -103 0
-55 340 415 0
-424 -420 -370 0
-396 105 -202 0
-7 -347 -247 0
83 -239 -400 0
432 -269 -24 0
-418 -351 67 0
141 92 117 0
-280 -126 -409 0
450 -417 113 0
314 75 211 0
95 -293 222 0
280 -16 323 0
-231 2 -426 0
-127 246 -115 0
-40 268 43 0
172 -46 133 0
81 305 400 0
-11 -290 -139 0
-264 -350 -210 0
-41 -3 277 0
54 382 47 0
-211 314 -146 0
-411 392 215 0
-205 204 -231 0
328 -315 -222 0
52 316 437 0
45 36 103 0
-146 416 327 0
87 308 18 0
114 215 -115 0
-101 394 -231 0
268 -290 15 0
422 178 -348 0
59 -85 -436 0
311 350 191 0
337 394 343 0
-98 324 142 0
-149 -8 386 0
391 307 -340 0
-415 -234 -394 0
-236 162 -242 0
-238 -97 -55 0
302 -86 -177 0
7 36 206 0
32 310 -62 0
-157 -305 337 0
-130 -435 181 0
-307 430 -67 0
21 -133 142 0
347 -276 269 0
149 -314 -198 0
295 61 396 0
170 420 -352 0
386 29 -132 0
-8 -296 278 0
-362 -175 -38 0
-200 -343 -439 0
433 241 -229 0
289 -216 -43 0
38 -322 -383 0
252 -35 19 0
-445 -215 447 0
297 -287 426 0
355 -231 -347 0
-383 218 130 0
59 416 -128 0
83 -100 -126 0
11 -157 14 0
-213 -347 332 0
75 128 -111 0
-133 -119 372 0
210 -149 98 0
207 -89 264 0
-194 202 -85 0
-76 138 194 0
349 155 -424 0
-8 418 -301 0
-393 158 -408 0
325 -95 407 0
339 359 -27 0
157 72 -83 0
-46 -25 262 0
-28 -289 -340 0
-46 -387 126 0
109 -395 176 0
93 133 11 0
-400 -93 258 0
-240 -289 -154 0
111 326 -210 0
44 361 177 0
-316 337 46 0
116 -4 420 0
-368 198 -411 0
-422 -85 -46 0
-313 -265 -9 0
-438 164 -308 0
21 259 -290 0
150 72 139 0
-418 -118 -437 0
-366 -248 -31 0
-351 187 156 0
431 -78 -291 0
-124 404 449 0
143 122 -449 0
199 -281 217 0
218 51 -193 0
168 404 -82 0
324 -29 36 0
-85 210 49 0
167 321 -115 0
238 370 115 0
448 -209 -111 0
320 283 234 0
-260 297 221 0
-370 317 -106 0
166 -83 -150 0
363 291 127 0
305 -367 -204 0
-51 -73 -379 0
-39 -434 -311 0
413 -387 -416 0
-386 -399 103 0
221 202 -246 0
12 -165 229 0
-297 139 50 0
113 -135 154 0
437 -63 74 0
424 -292 393 0
-38 112 -399 0
163 419 -412 0
240 36 99 0
-46 224 8 0
-414 -192 -317 0
-252 -87 -331 0
-435 400 231 0
216 -417 68 0
-129 -350 132 0
29 34 203 0
-69 -160 -272 0
83 -18 -281 0
107 -113 -168 0
-223 -294 329 0
297 -33 420 0
-284 -384 -186 0
307 83 370 0
-331 -293 -429 0
10 386 60 0
412 301 307 0
-210 -251 148 0
-216 48 -397 0
-160 -188 421 0
-42 -76 232 0
426 -7 123 0
7 81 -75 0
-58 327 -153 0
287 -412 -361 0
-136 335 308 0
92 -80 -40 0
82 -224 210 0
255 -126 -152 0
-378 406 -168 0
-328 -338 297 0
-279 89 27 0
177 -170 -72 0
-409 -115 -385 0
-406 -191 314 0
177 -83 -8 0
-147 317 119 0
303 -207 -436 0
-312 -170 -412 0
37 397 -417 0
-378 100 -275 0
-277 -106 52 0
203 -160 111 0
-224 -41 -30 0
427 400 -307 0
366 -421 81 0
-6 -354 256 0
143 36 -77 0
233 -384 404 0
3 369 -235 0
149 -447 -3 0
386 287 -300 0
421 312 -251 0
404 280 -328 0
305 -204 271 0
-446 212 244 0
339 112 -382 0
-15 408 273 0
-412 99 -322 0
-276 392 -445 0
-327 -279 -130 0
-36 -327 -209 0
-296 -7 20 0
-263 -202 428 0
-438 -419 78 0
236 196 6 0
368 -384 47 0
261 274 -170 0
-284 204 151 0
-279 -116 -40 0
-115 -210 342 0
76 65 -230 0
-289 -157 -342 0
-378 332 -124 0
-211 -238 -102 0
117 -168 251 0
273 56 -26 0
-373 262 -384 0
-287 -298 369 0
438 375 223 0
-429 259 98 0
-297 217 71 0
237 437 102 0
-296 -316 -206 0
-396 5 327 0
259 -216 139 0
-403 -258 -356 0
-225 227 9 0
19 30 -298 0
402 113 378 0
140 40 427 0
-163 96 106 0
233 178 60 0
42 75 -308 0
437 -168 112 0
144 82 -236 0
-70 252 277 0
280 -198 165 0
366 368 -182 0
52 -37 48 0
-281 42 -197 0
-389 85 -413 0
-419 -402 143 0
253 -169 -5 0
-167 -379 207 0
135 46 60 0
-52 -121 214 0
-250 230 112 0
446 -36 -329 0
35 350 -88 0
-77 -55 -154 0
-86 -93 298 0
-1 88 -321 0
428 161 327 0
211 -309 139 0
280 -198 -166 0
-115 -430 -37 0
161 -168 -212 0
-1 -205 57 0
-175 410 -5 0
-436 305 -328 0
18 200 -116 0
-222 -199 -264 0
-144 -401 308 0
-156 181 233 0
-314 3 -442 0
112 427 -369 0
380 -138 297 0
120 38 447 0
-3 -408 -99 0
-141 157 409 0
212 55 -56 0
438 274 -327 0
145 344 115 0
229 -80 353 0
371 350 168 0
151 -250 -125 0
-192 -203 -164 0
-275 387 -256 0
-248 66 -33 0
-75 -231 -207 0
271 -425 5 0
-192 -18 -6 0
-444 -220 337 0
-212 74 113 0
308 404 -246 0
-32 -190 -444 0
406 305 -241 0
342 -344 188 0
145 129 416 0
-347 260 38 0
164 330 406 0
351 26 228 0
-145 311 136 0
69 -287 363 0
-211 29 -356 0
-152 274 -423 0
381 14 -269 0
108 213 349 0
-400 271 158 0
153 -358 159 0
310 120 -43 0
54 -56 335 0
171 122 85 0
-42 194 6 0
-152 -119 -291 0
-5 -312 -17 0
296 176 376 0
-279 -354 -330 0
-155 429 134 0
360 289 -67 0
-12 195 256 0
-29 269 169 0
243 25 -264 0
-26 -396 104 0
435 313 371 0
-419 141 -196 0
91 222 146 0
49 -46 132 0
7 -93 -212 0
-18 260 -111 0
284 -381 210 0
17 220 -42 0
-378 -349 -158 0
302 444 -378 0
243 332 -184 0
308 -330 100 0
-99 320 379 0
62 -337 -109 0
283 361 -316 0
-221 -27 99 0
330 -288 -358 0
181 -120 -175 0
24 227 133 0
-127 -333 340 0
28 -186 -305 0
155 -425 -278 0
31 214 -355 0
-147 -322 423 0
106 -193 -52 0
302 170 108 0
-386 43 62 0
350 352 -240 0
-120 230 -222 0
-161 -440 267 0
158 -207 -299 0
220 -177 -239 0
-32 217 350 0
-352 -178 -274 0
-381 -102 -385 0
169 437 196 0
225 -154 74 0
116 -259 445 0
315 20 -170 0
170 135 346 0
-296 -295 108 0
-346 -203 369 0
-162 -221 -79 0
-387 -100 -215 0
201 -399 -396 0
-429 361 -246 0
317 202 347 0
-18 281 -99 0
299 43 125 0
-132 232 -286 0
187 429 -144 0
-360 -347 -120 0
417 -272 -37 0
347 -158 94 0
-223 -28 -292 0
186 449 -12 0
76 6 12 0
-239 361 -104 0
117 -388 94 0
353 -291 -371 0
432 158 215 0
-403 -322 -187 0
-256 52 23 0
210 219 187 0
-118 3 -385 0
19 29 -153 0
221 -412 140 0
42 277 -156 0
389 -139 -131 0
-296 180 -234 0
20 -267 102 0
88 171 365 0
95 326 58 0
-234 -436 -35 0
-93 251 -334 0
-230 -426 53 0
220 5 92 0
139 106 195 0
112 313 -66 0
154 -354 189 0
-12 256 17 0
59 -30 172 0
-127 383 -137 0
-166 92 155 0
2 32 279 0
-64 299 287 0
-26 282 -250 0
-415 348 316 0
-74 159 -315 0
391 -47 -423 0
-436 -127 -347 0
107 3 -403 0
73 302 77 0
418 -259 149 0
25 399 -413 0
400 231 -399 0
-258 -388 331 0
-157 -29 -385 0
-44 -72 135 0
-41 32 290 0
175 -450 -52 0
-355 282 390 0
87 230 235 0
366 -302 -416 0
-371 -177 441 0
-224 -139 -419 0
302 -288 263 0
-282 449 -270 0
-94 109 -274 0
354 400 245 0
-381 -290 -328 0
76 -23 -253 0
-223 10 128 0
-422 380 -253 0
343 -355 -267 0
410 -227 182 0
-74 434 -189 0
413 -44 -307 0
-215 359 95 0
170 216 -46 0
-90 433 -290 0
323 -167 -256 0
344 438 426 0
-123 282 -11 0
122 39 -101 0
41 -389 68 0
-175 -436 -434 0
213 1 -397 0
200 421 -189 0
-395 172 -345 0
216 -345 169 0
-164 -257 -446 0
226 163 99 0
-217 -293 -393 0
-130 78 -329 0
115 -157 326 0
404 141 -96 0
388 -107 -88 0
-290 116 -194 0
81 -157 -94 0
-126 395 352 0
-119 314 -73 0
1 267 -20 0
-152 -151 -360 0
-288 -353 -259 0
-213 -359 -383 0
-116 129 -240 0
302 123 4 0
262 -327 -85 0
-388 194 -34 0
210 -291 -89 0
-26 441 229 0
437 298 -145 0
-112 -39 403 0
-198 -151 26 0
-257 70 -391 0
-154 370 153 0
-246 27 435 0
-36 -220 -62 0
417 176 79 0
-407 -202 -174 0
-104 -35 205 0
131 359 -358 0
336 160 -31 0
-333 431 -254 0
332 -286 -238 0
-83 -414 357 0
160 96 364 0
241 364 -142 0
-29 -256 60 0
-360 -298 433 0
139 -23 -84 0
-79 -240 -72 0
-270 302 308 0
191 -258 27 0
-318 320 2 0
-54 14 220 0
-105 90 4 0
-93 -47 -227 0
-59 -35 76 0
-399 69 -435 0
55 421 99 0
-384 353 231 0
42 -224 -280 0
145 -60 182 0
112 -308 178 0
-450 -129 -303 0
-286 -25 366 0
442 -433 -4 0
169 216 -331 0
-225 -443 190 0
-325 418 -133 0
335 -447 406 0
271 -438 427 0
-269 -282 44 0
-265 363 318 0
-160 368 443 0
-49 -98 -95 0
291 314 -16 0
330 -74 -370 0
-126 -366 -377 0
-262 171 -375 0
213 136 90 0
-443 140 -446 0
-3 -144 147 0
361 -207 -102 0
-393 5 -154 0
53 -341 -160 0
-32 265 -61 0
-30 307 11 0
68 191 -314 0
-324 -352 -119 0
440 -336 -154 0
-254 -380 -112 0
327 -77 180 0
-91 178 -199 0
147 -418 -321 0
285 -448 -340 0
404 -402 54 0
-343 -341 353 0
367 89 -124 0
-409 336 243 0
-121 -217 13 0
-94 118 -322 0
161 -196 367 0
275 399 -25 0
108 6 -271 0
-59 -156 -81 0
-180 -20 -271 0
-316 297 366 0
-180 172 41 0
-419 -22 -287 0
-180 404 -160 0
-37 173 215 0
-116 317 167 0
-428 -215 79 0
-117 -167 -388 0
-79 359 351 0
13 -175 167 0
-253 -184 -277 0
11 437 -235 0
-14 443 -319 0
-439 324 -330 0
116 -381 -443 0
110 226 -331 0
29 -434 22 0
-298 -19 -428 0
397 168 47 0
-80 -32 322 0
423 149 270 0
-324 -187 428 0
267 -82 43 0
114 231 182 0
-278 -242 144 0
-96 34 370 0
-327 -127 -270 0
-121 233 -396 0
-245 106 115 0
120 107 -198 0
-201 -424 41 0
-307 -267 -449 0
-160 -214 145 0
-260 -416 383 0
-314 -8 -374 0
45 -6 -416 0
-213 -320 -26 0
-433 -410 -273 0
-174 97 285 0
-419 101 -403 0
-400 -276 158 0
221 -207 6 0
-174 -215 68 0
364 260 -362 0
398 92 -220 0
-171 343 -237 0
-205 -273 -417 0
268 139 -104 0
276 65 -62 0
-248 227 260 0
173 312 -177 0
-393 399 -384 0
-256 93 -441 0
84 -50 -239 0
-49 51 -300 0
-405 -415 -177 0
-380 -114 236 0
105 19 341 0
255 283 -34 0
5 121 -306 0
-262 -352 23 0
-224 206 -297 0
-52 91 403 0
-34 -429 -447 0
151 344 -215 0
-389 -16 417 0
-214 195 -315 0
-189 -364 123 0
-246 404 177 0
-88 -343 -358 0
372 -110 282 0
-171 -115 61 0
283 -183 142 0
-35 -200 293 0
-145 377 152 0
-74 186 -185 0
-89 54 114 0
-50 -129 -340 0
334 329 214 0
447 205 -329 0
360 -53 -450 0
-35 171 249 0
34 46 -292 0
169 180 426 0
-412 65 -145 0
-351 289 179 0
-450 -414 -353 0
357 -43 306 0
-155 435 237 0
372 -100 323 0
-204 -176 76 0
79 -67 369 0
235 325 -393 0
-158 443 285 0
-423 -398 372 0
178 -315 175 0
212 -21 110 0
401 -145 -450 0
91 -284 68 0
275 -364 200 0
401 -326 -319 0
-375 7 357 0
-193 -101 -304 0
-399 -264 292 0
29 -321 -69 0
-14 216 -161 0
-267 29 -404 0
24 146 -7 0
149 355 116 0
206 -306 -283 0
314 30 -96 0
222 -282 23 0
-125 -331 446 0
-446 -164 -189 0
40 -411 7 0
416 -430 126 0
111 -2 213 0
-30 148 -344 0
185 248 -105 0
425 -6 307 0
171 -336 89 0
-157 -426 -389 0
44 261 117 0
-214 261 13 0
-112 250 -395 0
-424 294 53 0
-205 -389 186 0
33 -119 -186 0
266 -6 306 0
286 -159 297 0
-227 -183 345 0
364 41 82 0
-64 -180 -103 0
319 -179 437 0
-324 -198 272 0
-41 -314 -446 0
235 127 -237 0
-317 19 -120 0
-242 219 -168 0
-307 243 398 0
207 -8 42 0
-3 87 428 0
-125 416 -7 0
154 16 -312 0
175 165 -197 0
122 -276 -346 0
428 109 -35 0
-237 319 -449 0
75 374 203 0
-435 448 -64 0
213 194 299 0
363 337 158 0
-372 175 95 0
-211 437 91 0
-414 134 80 0
-315 -255 272 0
-144 123 140 0
-181 92 426 0
419 -133 223 0
369 -256 180 0
383 -67 -395 0
-4 280 -314 0
362 -371 315 0
83 126 -98 0
-273 98 -167 0
112 -420 5 0
266 269 259 0
218 122 297 0
223 -215 -175 0
-340 337 -259 0
-395 302 243 0
361 92 -240 0
220 232 -383 0
226 302 449 0
-65 136 386 0
394 433 -216 0
31 -373 -327 0
-166 -338 48 0
-93 335 -304 0
224 -61 12 0
-35 -212 102 0
62 -125 292 0
-129 -390 23 0
-212 185 14 0
-316 241 -428 0
204 390 222 0
-444 -58 -280 0
-207 395 -276 0
191 102 -327 0
-125 79 295 0
369 403 -11 0
3 201 68 0
-71 338 -259 0
-409 83 347 0
-367 -378 -61 0
-383 73 -87 0
324 218 121 0
183 -367 147 0
98 194 3 0
-404 222 -379 0
183 300 185 0
-236 188 -276 0
-315 207 -83 0
-20 -183 194 0
363 -410 211 0
271 176 -159 0
51 137 -124 0
-270 -295 26 0
21 340 446 0
190 -336 159 0
178 -22 148 0
-170 -261 -334 0
-21 -121 38 0
-261 -218 -165 0
103 32 -106 0
167 334 -422 0
306 -245 266 0
413 -449 337 0
85 397 103 0
-194 -218 -421 0
355 100 318 0
-390 -130 -109 0
25 304 391 0
-262 246 -51 0
-104 -396 320 0
21 145 142 0
-327 280 -23 0
-29 -256 -87 0
-28 -18 400 0
334 -269 -231 0
-185 -405 -306 0
152 11 -301 0
-406 -227 -405 0
138 -11 382 0
-340 -212 36 0
83 -228 407 0
249 355 287 0
434 -124 -224 0
304 -68 234 0
-150 335 -450 0
-379 -199 -441 0
348 -254 267 0
-272 -356 -429 0
56 -81 246 0
-223 -15 317 0
-284 -42 -399 0
69 422 -66 0
-358 -273 -387 0
383 -152 -251 0
-128 410 -156 0
225 -53 -4 0
303 -97 27 0
354 -327 251 0
326 100 -281 0
372 -234 -354 0
359 234 -260 0
-426 -434 279 0
-300 -230 353 0
-179 -321 -279 0
-186 6 166 0
-409 167 367 0
47 -205 127 0
428 -229 442 0
-236 215 404 0
-84 -107 136 0
-202 -349 130 0
-12 267 38 0
9 -75 -315 0
108 316 391 0
29 364 6 0
-383 48 -47 0
164 -277 -444 0
47 -388 63 0
386 -137 319 0
65 -141 -206 0
21 351 -5 0
445 308 -55 0
-352 55 39 0
-167 165 -356 0
205 304 317 0
112 -316 -90 0
187 -365 80 0
134 -237 -286 0
80 -238 193 0
221 -209 159 0
173 57 -87 0
-398 -441 97 0
-395 75 -129 0
-245 -360 -318 0
-101 -105 151 0
-25 118 6 0
295 -38 -118 0
56 -319 -358 0
47 -440 341 0
-391 412 -78 0
-29 -238 -164 0
-413 320 103 0
-412 -417 -428 0
-440 -107 -422 0
-276 408 -153 0
261 -273 -314 0
-143 21 -113 0
-189 -205 -174 0
372 -309 -204 0
73 226 -393 0
-113 -36 178 0
-252 104 82 0
-34 -22 -50 0
372 33 -263 0
303 -220 91 0
301 58 186 0
296 286 -175 0
53 65 353 0
75 -10 -4 0
160 -410 259 0
-93 -371 -144 0
-337 -244 201 0
-392 264 290 0
-259 93 255 0
128 42 -385 0
-342 41 123 0
403 -220 -5 0
-69 -445 -59 0
-147 408 -288 0
203 10 352 0
355 -291 23 0
165 -260 -130 0
-150 -377 -206 0
407 283 228 0
41 322 -331 0
-115 385 -424 0
233 43 -14 0
370 286 410 0
-263 222 165 0
-46 -56 202 0
-90 144 40 0
17 -249 -220 0
-95 156 -74 0
-155 380 60 0
88 13 100 0
-50 -34 -264 0
-333 150 23 0
41 -295 131 0
224 -430 385 0
-177 91 -386 0
-412 -448 -178 0
391 50 -153 0
-218 26 356 0
202 -253 221 0
-337 257 228 0
-207 -289 122 0
74 -416 81 0
-97 -181 -272 0
-403 224 433 0
378 149 -307 0
186 -387 -389 0
443 -170 44 0
-186 -43 -275 0
-200 81 15 0
334 100 -406 0
-412 395 203 0
97 370 -367 0
439 -409 -233 0
-358 -393 -369 0
345 366 122 0
407 -168 32 0
-94 145 -295 0
-105 37 -237 0
-22 -416 -419 0
297 436 198 0
-446 -349 -440 0
-245 -380 -312 0
-61 85 421 0
182 -374 -346 0
-442 -255 -364 0
408 315 114 0
70 -68 189 0
30 380 -48 0
349 32 64 0
-307 -18 52 0
211 -24 271 0
-355 -339 187 0
-416 -222 -145 0
-3 -322 288 0
-43 33 -79 0
-378 144 -153 0
