c planted random 3-SAT, n=650 ratio=4.26; every variable is free, there is no driving input set
c generated by TurboCryptoSAT gen-benchmark - satisfiable by construction
p cnf 650 2769
191 419 486 0
598 401 -597 0
80 394 -644 0
137 -114 181 0
34 98 -475 0
-340 100 263 0
-208 -140 -305 0
232 -207 444 0
417 78 71 0
-222 -501 -488 0
167 -557 52 0
-512 -364 -292 0
626 243 517 0
-573 541 82 0
-50 553 34 0
-547 118 -475 0
-19 542 150 0
188 108 -132 0
-80 413 407 0
293 -546 -460 0
558 394 409 0
-450 -633 -426 0
19 -323 -640 0
263 -564 -573 0
1 -351 495 0
-476 67 370 0
-594 237 421 0
-392 -367 469 0
-434 518 -130 0
-330 -640 596 0
-300 452 -354 0
348 12 395 0
604 -607 -309 0
137 -371 -61 0
366 -241 137 0
581 -296 -40 0
623 265 53 0
-237 478 447 0
-504 229 397 0
-416 143 429 0
-89 495 -371 0
524 -379 115 0
401 585 270 0
-564 468 368 0
-15 109 528 0
-546 -81 -265 0
-177 -155 34 0
-548 -10 58 0
-154 459 641 0
-246 -581 -89 0
-417 157 60 0
-580 67 -370 0
-25 -618 -203 0
-242 -114 506 0
-88 342 468 0
-401 147 -42 0
-126 263 -340 0
-218 -317 -22 0
-36 106 -271 0
107 -466 -417 0
-512 -520 -36 0
-268 -465 260 0
-437 -213 204 0
426 -593 -199 0
-8 97 341 0
-302 282 620 0
631 -90 602 0
-274 352 557 0
-489 -416 -27 0
385 107 -508 0
-422 410 127 0
-541 63 -97 0
239 -228 -593 0
614 468 -168 0
-116 -370 38 0
103 476 135 0
403 257 -561 0
-561 249 1 0
-100 -498 -384 0
-549 -43 188 0
-33 -144 -465 0
532 650 404 0
-417 584 -486 0
-150 157 295 0
-460 -269 214 0
422 178 441 0
-204 160 -43 0
90 527 -386 0
461 349 488 0
-624 344 -178 0
568 -648 -598 0
27 182 -375 0
-645 -345 -333 0
-529 -297 233 0
-504 -203 264 0
-518 -138 268 0
-348 594 -62 0
112 224 -431 0
233 -448 -175 0
-90 -50 606 0
-506 -58 -278 0
-358 -618 23 0
125 -44 -201 0
-648 -566 545 0
-138 -598 -249 0
552 201 -310 0
22 -268 400 0
-466 -255 276 0
250 616 161 0
641 158 -407 0
120 -348 58 0
-563 -443 -648 0
-146 114 -212 0
161 543 183 0
416 33 9 0
625 -159 -306 0
616 292 611 0
-580 -344 575 0
-236 -77 -636 0
-443 -404 622 0
337 -520 468 0
-170 -106 -195 0
-285 380 -210 0
590 -318 -569 0
-307 -196 190 0
305 153 236 0
-102 433 -356 0
600 174 -252 0
-324 10 -188 0
-649 -632 40 0
406 -114 -129 0
564 344 -324 0
379 -162 -153 0
415 -385 613 0
275 527 -278 0
558 -388 -331 0
-408 302 46 0
455 -229 -623 0
24 -345 490 0
294 -488 408 0
-44 -345 397 0
-366 -491 450 0
-233 -522 -198 0
-23 465 171 0
-97 -530 -598 0
-133 545 156 0
606 156 79 0
55 595 -347 0
-24 491 104 0
-5 -17 -608 0
-137 -293 132 0
106 197 33 0
-480 -13 639 0
-637 132 147 0
-199 96 65 0
-494 343 -375 0
563 430 -621 0
-360 -201 -46 0
-532 57 -170 0
-209 434 -423 0
-183 534 65 0
-498 151 -356 0
-360 197 389 0
84 -572 -212 0
-462 -118 -567 0
244 -612 -586 0
-350 316 55 0
-438 -417 -218 0
-171 146 323 0
-283 -188 -612 0
305 -205 -430 0
97 -408 8 0
257 228 193 0
-609 78 205 0
-592 -286 -249 0
305 -307 267 0
-395 148 -110 0
73 -112 -276 0
207 538 573 0
67 -318 -449 0
-418 138 -613 0
32 572 -79 0
-219 -377 354 0
-298 -429 24 0
631 -603 -386 0
-106 188 -430 0
-472 565 -500 0
-359 -603 203 0
-117 -415 -489 0
-41 397 352 0
30 -114 58 0
-592 -39 -451 0
36 -74 -329 0
-324 542 17 0
-376 50 98 0
397 403 -280 0
389 310 558 0
488 -192 -391 0
-88 -27 -477 0
-650 325 -127 0
292 -559 125 0
74 -446 5 0
-324 -614 210 0
510 323 342 0
635 -322 -505 0
-326 133 558 0
342 201 98 0
-306 205 468 0
147 334 478 0
407 201 641 0
391 -221 98 0
175 -177 -213 0
402 -74 443 0
-309 314 -210 0
499 611 225 0
256 181 590 0
-301 -459 139 0
-580 640 207 0
-606 -218 -234 0
294 -617 375 0
282 -48 -577 0
319 -561 61 0
-502 197 601 0
604 409 384 0
386 486 -195 0
-631 419 -397 0
343 -50 -512 0
526 642 312 0
-93 217 182 0
366 561 506 0
-235 44 159 0
-627 468 -239 0
32 495 170 0
-273 -573 -104 0
-482 405 230 0
62 -330 -395 0
-494 -119 -612 0
545 -449 -458 0
589 -623 -17 0
300 302 528 0
528 490 354 0
-342 -523 -503 0
-9 -479 631 0
-27 -415 -460 0
-93 -138 240 0
-438 220 -192 0
362 -459 -100 0
-91 -82 390 0
64 11 380 0
-363 132 -198 0
611 -138 4 0
303 -637 -346 0
-468 503 24 0
479 -221 -559 0
91 -141 166 0
-284 338 430 0
-318 317 -366 0
106 221 525 0
158 119 -306 0
380 -513 -308 0
-439 395 483 0
-36 -15 601 0
-93 569 -390 0
406 579 443 0
247 -155 185 0
-331 -341 83 0
-510 609 316 0
234 554 -573 0
-217 -461 211 0
-413 -215 232 0
-272 -39 106 0
232 -22 -99 0
163 -440 -350 0
-615 70 -499 0
532 131 -504 0
-491 462 -254 0
168 -552 252 0
241 -313 -123 0
-28 -227 574 0
-19 -379 -297 0
-121 218 567 0
34 -608 56 0
233 -556 66 0
-436 -579 131 0
-195 -504 -459 0
506 -111 595 0
-487 -571 486 0
269 304 497 0
-618 -46 82 0
-619 -236 -244 0
-307 113 269 0
551 521 -84 0
-567 -327 -492 0
42 612 265 0
131 530 266 0
-161 595 -159 0
73 362 620 0
498 -509 437 0
-442 -146 -451 0
-336 331 -250 0
-559 542 -645 0
407 191 342 0
-14 -401 233 0
-636 649 -439 0
-65 -376 95 0
464 -77 -253 0
-391 648 -519 0
637 558 -393 0
-84 162 395 0
-125 -410 -128 0
11 -249 -648 0
506 345 585 0
38 99 -257 0
-63 -247 -226 0
-195 640 519 0
123 -389 549 0
306 379 636 0
-564 -489 6 0
-556 387 -621 0
-28 136 -233 0
-123 -471 410 0
-556 -603 -46 0
72 -240 94 0
382 -624 411 0
138 648 290 0
3 -369 -199 0
-532 58 29 0
307 422 35 0
-425 -468 -272 0
156 -464 -24 0
-474 76 -432 0
570 615 518 0
-233 -277 262 0
259 305 359 0
578 -62 304 0
633 471 520 0
-342 -363 359 0
-59 477 352 0
-5 95 47 0
-560 -310 -436 0
338 -307 105 0
453 80 501 0
-484 -251 -620 0
-469 -541 583 0
-520 398 470 0
-331 -356 372 0
-45 -57 -619 0
430 325 112 0
-615 -62 -51 0
211 253 605 0
54 378 519 0
532 -176 -10 0
-171 -176 -242 0
-203 439 209 0
622 504 309 0
-377 146 -381 0
545 548 374 0
296 334 346 0
-453 150 400 0
-73 -514 104 0
-183 -428 -281 0
-77 286 470 0
-563 328 -236 0
-84 -110 -155 0
-20 -116 124 0
434 439 -628 0
-534 369 31 0
-475 544 -465 0
224 -391 334 0
-178 624 144 0
-373 415 -6 0
-461 102 -567 0
-151 -633 550 0
-501 -534 -175 0
214 -577 2 0
-274 -315 -472 0
272 -306 -80 0
-226 648 -633 0
634 -222 212 0
394 -215 441 0
-600 539 430 0
-227 -168 211 0
-55 -315 561 0
-186 -400 -304 0
-582 94 -559 0
293 -483 429 0
489 263 55 0
-105 2 479 0
-63 -183 34 0
-5 -341 302 0
157 -188 377 0
294 582 -411 0
-89 188 -83 0
-601 86 -580 0
-128 -14 -326 0
44 303 640 0
65 445 -612 0
-592 120 612 0
-513 -228 407 0
13 -365 -429 0
-305 -599 205 0
-496 451 294 0
-560 -7 578 0
372 614 -106 0
131 -475 -539 0
-277 -189 534 0
-58 -307 272 0
463 -129 -216 0
-258 -246 -121 0
457 -558 -167 0
-352 -529 531 0
427 -305 191 0
-37 69 613 0
94 -439 -268 0
-354 -623 53 0
-391 -41 154 0
559 169 606 0
-495 462 549 0
-264 -488 -461 0
-378 -359 532 0
-43 -223 532 0
-371 -242 -508 0
411 271 -531 0
-274 374 -80 0
-38 310 -281 0
-406 -172 168 0
421 293 -469 0
-356 -508 -378 0
368 197 -489 0
570 510 377 0
-314 -145 -475 0
-140 344 -353 0
162 283 -374 0
422 -141 -162 0
-167 12 24 0
220 146 327 0
-521 38 391 0
-170 -296 558 0
-422 211 514 0
580 473 147 0
-166 136 -92 0
122 -422 -275 0
4 589 186 0
-7 111 323 0
629 93 631 0
-425 358 459 0
-352 420 -68 0
-41 534 -257 0
89 -136 -59 0
-310 431 -52 0
-34 -5 473 0
-72 109 120 0
-346 -474 99 0
405 -67 160 0
310 -69 -3 0
-569 220 -612 0
514 -507 516 0
-441 648 -442 0
-66 145 465 0
587 238 -540 0
-448 476 -34 0
-543 -156 416 0
-523 -408 -59 0
-266 -204 403 0
131 -87 283 0
555 -347 -312 0
16 616 -645 0
-428 -634 569 0
121 368 105 0
-126 631 61 0
474 469 219 0
478 -193 530 0
-631 -476 144 0
-523 535 424 0
-60 135 -392 0
-139 -10 -51 0
-302 -556 -72 0
467 636 -334 0
-160 558 -96 0
645 365 281 0
-179 593 400 0
11 258 620 0
-264 -377 -259 0
-108 -424 -32 0
190 -369 547 0
64 -82 493 0
-140 -323 -195 0
-314 52 613 0
137 93 -458 0
-60 580 -298 0
-112 -92 220 0
609 -421 -539 0
-271 195 455 0
-401 587 462 0
-239 216 -46 0
210 -370 -321 0
124 546 336 0
-552 638 -580 0
198 547 257 0
-539 554 156 0
-335 -267 111 0
-194 -38 -395 0
376 -509 362 0
140 329 -10 0
626 -640 637 0
630 524 386 0
505 639 -62 0
256 50 429 0
-317 -278 -244 0
-32 -6 505 0
-289 -570 133 0
414 -484 426 0
329 -190 -149 0
-377 -540 410 0
522 295 366 0
6 -318 -311 0
-560 196 325 0
642 -467 -18 0
133 553 474 0
-43 -347 360 0
-64 -634 179 0
-565 59 -270 0
1 114 -220 0
-445 -110 -236 0
482 396 -631 0
131 -236 102 0
-401 -25 639 0
-343 385 -501 0
-368 -365 -374 0
629 522 395 0
-469 571 -637 0
90 -455 -482 0
-481 291 31 0
-222 352 -21 0
557 -100 -568 0
292 -534 -491 0
-238 -579 545 0
-568 -154 -411 0
348 -117 -580 0
-588 133 386 0
267 641 -70 0
422 -528 -175 0
629 -117 160 0
-77 -617 116 0
107 -333 195 0
-259 -572 -160 0
-42 -135 85 0
130 59 191 0
-142 440 -357 0
-272 -2 -87 0
251 40 -177 0
506 593 368 0
-276 -436 -203 0
188 -402 345 0
-446 588 624 0
-62 285 -465 0
-128 27 -541 0
190 106 -95 0
579 447 147 0
-113 443 187 0
93 -405 -353 0
302 274 -492 0
-449 -177 -120 0
-622 -93 -107 0
144 572 288 0
208 270 -193 0
566 -91 -273 0
-639 -571 165 0
300 8 -396 0
-248 429 380 0
336 -62 -218 0
-644 593 -483 0
589 496 300 0
112 -502 627 0
322 286 153 0
589 -267 -640 0
-94 379 390 0
-494 480 -107 0
639 -518 -385 0
-649 205 474 0
-175 -279 246 0
44 104 578 0
281 631 -572 0
-271 -623 129 0
476 -458 -252 0
-454 -427 -316 0
581 -601 468 0
-22 8 367 0
-207 136 249 0
-593 -46 -397 0
-423 -89 347 0
161 545 -179 0
-164 190 -4 0
523 592 -130 0
95 -322 -51 0
-559 320 300 0
-382 367 160 0
398 -281 54 0
-421 -477 -258 0
631 136 -124 0
254 430 -440 0
338 -93 540 0
-224 203 239 0
-22 -231 -348 0
377 30 -521 0
216 -518 -88 0
188 335 -549 0
-416 443 113 0
-420 -78 -144 0
635 -83 319 0
-521 591 -597 0
447 -306 47 0
461 -527 -285 0
214 -107 -427 0
266 83 565 0
98 373 596 0
-489 503 547 0
-366 95 -15 0
-386 -495 114 0
-614 -431 -587 0
105 415 195 0
-230 647 -621 0
440 -627 90 0
194 -359 -108 0
247 -195 -131 0
643 589 374 0
239 -349 -463 0
-332 563 424 0
-460 332 -6 0
203 -313 294 0
140 -30 -356 0
169 -492 229 0
-459 -484 406 0
-519 -452 616 0
-548 -232 -90 0
305 556 600 0
-10 156 -80 0
250 -625 245 0
-512 -80 434 0
123 -504 -364 0
-97 -70 -436 0
385 -494 615 0
264 -468 294 0
360 -233 568 0
-560 42 -68 0
202 377 -248 0
285 210 229 0
-265 -400 -179 0
569 587 -243 0
626 -649 -270 0
-561 206 249 0
-600 -276 -23 0
344 -386 -51 0
458 207 -300 0
-163 -448 279 0
-105 -197 -608 0
204 477 153 0
-32 -284 -470 0
476 -359 -532 0
-319 397 251 0
596 76 -324 0
-501 -494 542 0
93 -343 -205 0
-224 -291 57 0
145 117 -511 0
85 -184 478 0
-251 -599 -479 0
-299 -560 -157 0
-231 -233 -129 0
270 598 -401 0
391 -56 -137 0
-643 -197 454 0
479 404 -267 0
497 -363 -508 0
302 -594 176 0
223 -28 -420 0
-35 554 256 0
409 460 23 0
167 17 396 0
-565 -293 160 0
-18 -352 -140 0
480 -326 189 0
-77 525 338 0
525 191 -614 0
151 542 21 0
108 -411 638 0
-199 609 -180 0
-190 411 583 0
-405 505 -126 0
41 399 -620 0
-634 255 -302 0
293 228 581 0
480 -180 289 0
-312 -99 -470 0
452 581 146 0
424 -300 -204 0
527 97 249 0
155 570 480 0
12 -3 -204 0
-100 396 -298 0
557 214 393 0
-276 3 531 0
593 503 139 0
187 275 -95 0
205 -610 -535 0
203 -25 -270 0
398 256 -242 0
351 188 -328 0
312 403 -175 0
471 510 -619 0
-326 484 -134 0
298 601 115 0
330 -96 181 0
-140 -175 -249 0
163 184 -107 0
68 282 357 0
390 330 -350 0
481 -393 109 0
-67 -260 -277 0
-634 621 -370 0
-96 359 335 0
414 395 613 0
-204 356 629 0
-251 635 52 0
-341 -107 -606 0
-430 -505 73 0
403 309 32 0
65 427 -608 0
-90 -600 -336 0
232 368 -74 0
605 -203 609 0
-435 -130 279 0
-324 441 507 0
561 -376 365 0
-10 357 211 0
-252 -435 -418 0
104 587 4 0
67 282 283 0
-378 225 590 0
-507 551 537 0
298 634 -122 0
450 -51 555 0
-247 603 438 0
-142 515 -149 0
479 35 -215 0
556 407 -176 0
410 11 352 0
-364 -367 203 0
271 -100 -223 0
-537 -8 -407 0
474 -101 189 0
279 -274 325 0
-521 -475 -373 0
-501 -176 -41 0
49 -22 366 0
-70 -77 189 0
349 -226 157 0
441 -69 -409 0
412 593 542 0
271 -355 -522 0
540 385 543 0
-402 -67 -56 0
388 -250 375 0
-275 207 -476 0
-621 -205 -383 0
562 -629 59 0
-339 -141 -100 0
571 317 139 0
413 -325 -568 0
-40 -430 -648 0
294 281 333 0
-502 -517 349 0
203 540 -341 0
606 -493 602 0
570 -628 515 0
121 504 292 0
445 431 265 0
41 -538 -60 0
543 -548 -435 0
-55 158 -561 0
-100 -153 -47 0
-426 333 -339 0
611 440 211 0
156 -371 12 0
377 -309 420 0
-85 -617 -283 0
-363 423 426 0
-204 -260 -301 0
-103 269 546 0
-529 -192 -167 0
-79 -492 -615 0
-36 -23 -366 0
588 -395 -105 0
-362 269 254 0
-555 71 -338 0
-430 311 576 0
-621 -161 -45 0
-393 579 195 0
200 282 320 0
-495 415 124 0
394 613 187 0
368 -336 -592 0
-618 274 -422 0
464 -432 -378 0
336 215 546 0
-97 -416 312 0
191 -196 -20 0
-380 48 89 0
-606 -345 -258 0
-352 541 30 0
611 534 -544 0
-622 51 -530 0
532 -451 -576 0
-422 -511 -517 0
-604 -459 241 0
-488 -519 -188 0
-140 -645 48 0
362 -205 286 0
-371 403 -7 0
-161 -162 352 0
-513 -620 -448 0
618 428 408 0
-246 -294 512 0
-171 468 578 0
-352 -30 -529 0
504 -311 260 0
-324 -348 -356 0
-18 -139 250 0
520 487 -404 0
552 -147 472 0
-523 49 160 0
-552 -372 636 0
379 316 -65 0
361 -225 -262 0
576 -429 628 0
342 -504 -390 0
-611 -120 -415 0
641 205 -74 0
-148 452 336 0
54 -511 -542 0
-589 611 645 0
-561 -60 -509 0
293 18 619 0
-168 24 255 0
-257 270 648 0
-217 -97 133 0
-18 -227 -38 0
-326 -197 -585 0
135 411 136 0
-460 342 -636 0
-217 -138 -466 0
-14 641 -622 0
-11 239 503 0
64 -541 391 0
-78 35 95 0
-427 189 87 0
174 285 307 0
466 147 489 0
-540 -495 -21 0
632 526 -105 0
460 -421 455 0
-441 -211 632 0
-230 -298 621 0
435 106 406 0
292 -229 157 0
542 11 -488 0
515 646 -518 0
-642 619 -600 0
274 -13 388 0
567 351 -16 0
-245 26 -217 0
-285 286 -198 0
-167 321 5 0
523 451 388 0
380 276 497 0
-46 -547 469 0
-111 -556 -198 0
-549 -15 -8 0
-494 558 649 0
307 -59 -246 0
-188 525 -359 0
370 -580 -645 0
-328 -262 71 0
-580 220 -36 0
90 155 243 0
225 -234 523 0
95 637 203 0
-140 196 -180 0
405 -325 -78 0
-85 199 -317 0
374 236 -438 0
-337 53 151 0
433 144 181 0
-503 -310 -217 0
-606 26 461 0
-417 570 383 0
202 190 281 0
311 -358 -531 0
47 -376 -54 0
-106 -515 332 0
636 -318 294 0
-216 590 189 0
-369 75 -149 0
20 -13 189 0
556 -516 32 0
-95 -60 -273 0
419 215 388 0
-46 -81 -210 0
326 472 405 0
22 -81 481 0
-287 -528 599 0
-523 -535 412 0
462 254 -239 0
282 475 -579 0
269 -156 40 0
-193 295 294 0
-567 -80 -580 0
105 114 -279 0
-72 286 -570 0
-281 -188 327 0
-62 419 541 0
-170 488 427 0
-299 -195 -309 0
-118 -500 194 0
-197 -373 -174 0
639 -515 -545 0
-418 -274 632 0
-541 -156 -496 0
593 380 -108 0
-401 628 288 0
-459 -505 -197 0
-179 638 41 0
-586 39 564 0
192 -174 144 0
36 18 -110 0
473 -549 372 0
645 -328 159 0
275 -645 -434 0
332 418 -433 0
593 502 -37 0
-644 63 616 0
400 357 -14 0
457 -290 475 0
-104 55 -570 0
203 288 645 0
508 588 79 0
-489 -418 -292 0
-248 -634 368 0
-284 -170 -357 0
425 -230 -457 0
-186 -282 -41 0
368 581 -627 0
339 410 -546 0
484 -439 43 0
-619 281 -647 0
-77 63 237 0
-272 -342 -293 0
-124 31 366 0
43 -382 486 0
392 -250 -389 0
257 -413 486 0
278 -363 -473 0
-548 -568 524 0
-103 -558 310 0
83 615 -418 0
148 -51 428 0
335 -373 328 0
-2 232 9 0
-102 317 -20 0
-4 -309 325 0
-225 -35 624 0
137 468 -43 0
-24 -508 -577 0
-82 494 -288 0
71 30 -413 0
-650 648 37 0
334 301 -377 0
-461 386 -371 0
-169 477 188 0
199 -442 71 0
-455 -617 -329 0
-423 -50 61 0
191 -578 512 0
236 368 -26 0
-265 334 -235 0
219 -459 -641 0
-8 377 -242 0
108 135 -7 0
243 249 632 0
-371 468 -220 0
618 -203 160 0
620 168 -372 0
-580 586 103 0
112 -235 85 0
-634 385 -262 0
632 -381 75 0
-490 -159 649 0
348 -210 -427 0
188 -627 -456 0
-241 -306 -469 0
333 -645 507 0
521 -644 -170 0
225 -81 -317 0
68 -4 129 0
49 286 609 0
-181 509 -479 0
399 109 -102 0
-398 -112 200 0
-580 72 499 0
-360 94 -595 0
471 417 -479 0
-640 65 -528 0
-27 -57 -560 0
-534 -269 -479 0
477 -434 162 0
308 -17 -137 0
499 -416 570 0
-297 -144 533 0
-339 -444 643 0
339 -61 -636 0
-194 -439 -75 0
272 -54 145 0
224 308 -439 0
552 -82 -426 0
355 -516 442 0
-119 225 -264 0
-515 -540 -68 0
-464 -75 -385 0
-140 -101 173 0
-234 -70 -278 0
109 44 53 0
-392 490 144 0
-371 -340 -417 0
-188 -52 -329 0
305 -395 -273 0
-428 26 424 0
-92 98 109 0
-479 629 -6 0
-247 109 -46 0
-584 314 370 0
-515 325 66 0
-431 629 -69 0
136 254 -21 0
128 -256 -637 0
-248 4 -520 0
356 240 159 0
-130 369 -478 0
-225 -197 -368 0
-344 -248 -336 0
-611 153 -347 0
396 644 526 0
-48 616 -556 0
-642 -338 201 0
471 398 451 0
-269 -370 -169 0
640 544 470 0
113 384 611 0
126 166 -445 0
-589 190 395 0
410 235 -464 0
-170 -1 -266 0
410 14 632 0
-527 196 475 0
-103 79 83 0
-36 -393 40 0
440 456 103 0
55 -357 -331 0
-583 613 454 0
454 251 605 0
558 -256 281 0
-605 -330 -280 0
-192 85 -81 0
574 -279 317 0
134 354 -484 0
-338 -236 540 0
-496 -643 507 0
-184 -366 296 0
-221 315 -364 0
-12 153 -499 0
-202 -475 -645 0
286 26 536 0
109 -108 396 0
-604 538 335 0
421 170 -630 0
252 4 -379 0
-378 -53 66 0
103 -613 -373 0
-210 -288 540 0
635 472 -49 0
-297 -391 -181 0
-127 -515 365 0
33 -349 -440 0
636 -451 -5 0
606 -18 -222 0
93 -186 -333 0
165 -513 -164 0
316 203 -444 0
-364 -443 -488 0
-191 37 -372 0
-359 578 -492 0
397 -395 93 0
380 258 -328 0
483 214 -521 0
-3 -489 407 0
-475 -92 -333 0
-500 189 168 0
-431 277 -177 0
-107 557 -280 0
-167 607 558 0
386 358 -279 0
-576 -632 267 0
141 167 -9 0
429 -286 -523 0
546 441 616 0
416 522 88 0
-593 574 257 0
-417 274 44 0
-557 594 -230 0
562 -175 124 0
-334 -403 279 0
305 634 -613 0
479 579 632 0
-138 -157 -517 0
-68 9 -311 0
78 525 -626 0
477 384 439 0
-510 -336 280 0
-506 -95 -563 0
-562 -621 37 0
-235 374 -619 0
501 -306 -619 0
30 631 48 0
-296 -326 -502 0
478 -208 245 0
431 -375 -274 0
-444 386 -584 0
-490 494 -498 0
467 570 -218 0
-409 -147 233 0
233 -265 607 0
-266 646 310 0
520 227 391 0
114 -244 215 0
-248 -60 411 0
-429 -59 313 0
539 -207 -340 0
310 -422 185 0
424 -335 -6 0
435 352 -319 0
-424 59 382 0
413 424 332 0
-631 340 -564 0
-620 285 355 0
-571 121 26 0
-47 142 -596 0
148 -592 600 0
353 473 -551 0
-28 -378 147 0
627 -76 23 0
64 14 -604 0
-285 -138 -393 0
496 -118 -269 0
418 9 -447 0
320 48 -357 0
535 -21 199 0
583 -171 25 0
-310 -62 402 0
-545 -604 619 0
64 425 195 0
-518 -415 -515 0
-637 182 -605 0
-612 5 525 0
221 405 -165 0
-56 -537 73 0
250 246 -277 0
269 -525 18 0
-573 -520 90 0
-299 -108 -505 0
-508 -169 522 0
455 -461 -142 0
-40 172 -209 0
-139 -462 -126 0
-230 646 -650 0
61 158 65 0
129 -31 98 0
218 -560 93 0
214 91 36 0
434 469 -603 0
-34 -282 -364 0
604 -294 41 0
-554 289 104 0
113 289 -501 0
354 -644 -579 0
-71 -234 259 0
424 370 -371 0
-175 105 461 0
-193 -513 -364 0
246 -434 -362 0
403 -601 39 0
74 235 47 0
-466 369 -557 0
447 -579 -158 0
215 399 -323 0
-194 256 541 0
-415 247 195 0
160 -196 647 0
-144 -193 -111 0
1 -312 -35 0
197 400 -314 0
-289 -574 446 0
46 -169 255 0
-148 -315 411 0
481 160 188 0
-537 595 -200 0
-38 404 523 0
-225 -281 177 0
-161 175 -95 0
96 279 -319 0
-133 -516 -432 0
71 -204 61 0
-118 -351 -489 0
345 -420 418 0
559 -628 -326 0
-310 608 3 0
-272 11 380 0
-29 -362 222 0
241 -297 -199 0
-207 -517 -481 0
157 634 -613 0
-39 271 -87 0
-369 353 -196 0
-497 -105 -464 0
54 30 361 0
-474 -335 -172 0
576 153 264 0
181 -581 -177 0
-495 543 -84 0
-405 -250 256 0
543 -159 -418 0
132 -648 -451 0
-190 -192 513 0
-2 -322 377 0
283 229 -92 0
-339 -131 221 0
-93 31 556 0
-63 160 -41 0
123 110 -181 0
-523 -583 -316 0
-73 -126 -519 0
279 521 298 0
381 350 -164 0
296 -605 -549 0
-142 -198 -644 0
290 499 -316 0
-242 -223 248 0
80 479 338 0
-60 438 -4 0
110 33 -151 0
77 -75 526 0
25 -539 53 0
465 282 -464 0
107 301 -371 0
-453 -617 513 0
405 443 -546 0
-38 276 -423 0
310 613 -300 0
512 100 53 0
-101 231 -218 0
591 88 -518 0
-207 -599 294 0
79 587 376 0
-558 -2 -630 0
-479 508 -636 0
19 209 484 0
-433 647 616 0
-577 80 598 0
-464 197 -494 0
-527 -571 178 0
316 -275 -633 0
-242 178 70 0
585 224 68 0
9 213 193 0
-334 363 -106 0
-451 361 -576 0
-491 58 -511 0
191 440 -152 0
120 -145 238 0
410 111 474 0
-100 120 289 0
-281 520 426 0
-478 245 -317 0
8 63 282 0
-512 -237 -207 0
515 73 -100 0
41 -428 -368 0
-467 393 -382 0
-42 -445 -464 0
338 -453 -487 0
-464 -35 -318 0
381 -114 539 0
281 -149 151 0
451 110 524 0
598 192 -322 0
265 -116 -274 0
-352 447 -349 0
-588 -419 -216 0
311 -54 -193 0
598 207 -285 0
242 108 -79 0
307 3 -47 0
-5 304 -476 0
90 -317 454 0
455 -276 182 0
-342 -399 -188 0
291 156 270 0
-318 -348 603 0
-515 113 -524 0
-436 44 350 0
-56 202 -633 0
-151 -325 -259 0
85 162 212 0
295 -320 -195 0
98 -326 -339 0
-546 -636 413 0
-493 -368 -588 0
-124 614 284 0
144 548 230 0
303 -490 -603 0
556 -115 341 0
-271 216 321 0
-8 201 85 0
-474 -174 273 0
-14 221 -58 0
455 -59 363 0
-346 393 271 0
-556 -1 619 0
-266 116 -275 0
475 13 -61 0
214 304 -347 0
524 102 280 0
-51 -29 -625 0
486 -36 -480 0
373 -389 -552 0
-35 -298 289 0
-597 302 -379 0
-501 435 354 0
468 -542 284 0
338 235 210 0
144 -629 357 0
104 399 117 0
-400 -247 224 0
384 -111 -330 0
66 -538 -596 0
108 -23 -623 0
89 86 66 0
564 177 367 0
-122 465 429 0
561 -562 530 0
319 -490 -493 0
-340 278 71 0
326 488 -280 0
39 116 361 0
145 501 355 0
-92 -453 -232 0
-342 405 122 0
-155 -161 -330 0
447 -16 -613 0
286 -321 183 0
537 -376 70 0
-444 -445 508 0
517 392 83 0
-141 -400 524 0
-270 581 -3 0
86 -601 -257 0
-555 -31 -462 0
344 -321 613 0
-309 576 180 0
312 32 532 0
357 135 -625 0
-312 -126 -611 0
-602 304 -482 0
603 -131 -383 0
410 46 -442 0
-208 44 41 0
535 182 -99 0
-223 373 -151 0
-142 -129 -105 0
42 -95 419 0
491 -26 -625 0
407 43 -395 0
94 494 562 0
343 45 -299 0
104 305 -528 0
11 -219 132 0
645 455 520 0
-206 616 482 0
380 -21 -63 0
-157 -67 -503 0
109 -224 -291 0
-34 -404 -46 0
-166 -453 94 0
-187 -566 -212 0
400 -414 222 0
1 -17 -540 0
-466 493 -468 0
-464 504 -23 0
443 -508 -466 0
-410 207 382 0
-300 -160 568 0
252 -46 -25 0
180 -575 -456 0
145 -306 -488 0
-632 -410 125 0
599 353 -335 0
264 -480 460 0
278 353 307 0
-65 594 -451 0
220 136 -607 0
9 511 41 0
-595 31 310 0
295 -122 -440 0
-340 -601 619 0
-316 -99 -437 0
-386 345 196 0
-202 319 -520 0
560 -579 -515 0
597 158 -525 0
-329 393 317 0
445 -289 -448 0
84 -78 44 0
612 452 -123 0
602 416 -361 0
237 419 404 0
-430 352 -342 0
46 -18 -152 0
-574 392 464 0
620 -70 475 0
239 216 -502 0
-612 -614 414 0
90 644 557 0
-4 -407 398 0
552 -226 561 0
-581 -53 -384 0
516 327 289 0
-634 -396 285 0
563 -39 438 0
-478 428 143 0
-520 -247 235 0
279 602 -563 0
-183 550 388 0
-288 -171 -434 0
42 322 507 0
-472 84 -618 0
75 -114 307 0
236 179 -326 0
-70 -128 44 0
-196 -108 265 0
-17 -214 -218 0
-88 434 178 0
333 133 272 0
-447 201 113 0
-533 -263 -505 0
-395 430 -439 0
-459 493 346 0
201 -146 -272 0
-556 41 108 0
610 318 -460 0
-230 -307 -114 0
457 -622 -243 0
625 210 182 0
170 473 -199 0
-187 581 498 0
-59 -88 -280 0
-281 -81 -236 0
115 559 346 0
-451 -462 327 0
-448 485 490 0
-175 134 -371 0
446 -481 -435 0
-261 -267 -191 0
542 103 406 0
-537 -469 188 0
-546 -415 71 0
493 -55 412 0
243 394 -128 0
45 178 -635 0
-612 -415 593 0
108 -600 -431 0
-636 471 -336 0
-572 -458 203 0
614 -595 -134 0
-352 558 -497 0
400 59 306 0
-56 -637 15 0
321 413 387 0
290 153 -358 0
-371 -488 420 0
-380 346 260 0
327 148 92 0
190 608 -210 0
-596 -623 243 0
-222 -519 546 0
-499 615 -616 0
445 -187 -437 0
532 -523 -505 0
246 -118 43 0
-493 -45 -8 0
496 -100 158 0
-104 402 -268 0
-14 83 -503 0
-416 599 415 0
438 -106 -65 0
630 627 -203 0
-232 -519 -397 0
108 -531 470 0
156 -10 245 0
-288 18 501 0
319 429 -460 0
370 -313 -48 0
-554 -633 -112 0
378 -128 450 0
-299 -500 -548 0
-536 -452 -587 0
-195 -13 529 0
35 -193 249 0
-373 -277 -395 0
-362 -637 278 0
-423 228 -252 0
-631 115 336 0
-349 -110 493 0
-608 -301 487 0
-399 54 -254 0
-465 238 400 0
-560 -520 262 0
142 62 239 0
43 -301 -161 0
226 -549 -481 0
398 571 -179 0
631 260 -202 0
116 -385 -514 0
562 -414 -131 0
-29 -290 560 0
634 -491 -41 0
329 300 -146 0
-69 398 -12 0
547 92 405 0
-13 391 -116 0
-136 -32 -295 0
579 298 527 0
-629 -345 361 0
-128 -532 -523 0
595 600 -420 0
127 -513 324 0
-612 -520 -160 0
-611 -497 -625 0
-22 402 38 0
-50 -448 157 0
455 470 -326 0
230 -273 -367 0
-209 -551 -412 0
395 -38 -518 0
5 -630 -512 0
379 76 408 0
-264 -557 -429 0
-649 -350 499 0
547 -71 448 0
-192 608 -368 0
577 200 -557 0
-531 396 -482 0
623 -106 -121 0
377 -318 -284 0
649 -7 466 0
-363 -172 -436 0
137 -400 -344 0
22 46 -74 0
90 650 293 0
254 628 300 0
-574 -140 -173 0
-111 95 167 0
-364 -527 591 0
-634 -368 -49 0
-80 73 -252 0
-360 220 558 0
-475 106 25 0
-274 -229 76 0
85 -285 579 0
-530 -424 403 0
289 41 504 0
609 164 448 0
-132 121 416 0
473 -29 -583 0
-448 499 216 0
-69 474 493 0
-583 388 298 0
409 -437 -115 0
3 439 40 0
522 -215 183 0
-618 551 -313 0
451 -450 326 0
581 -362 -44 0
63 278 -502 0
-143 189 377 0
234 57 -263 0
-522 560 4 0
-337 -532 116 0
36 18 -453 0
229 101 -216 0
165 -552 -321 0
66 -636 -391 0
237 201 -327 0
-242 -480 -388 0
232 121 186 0
-638 -97 -80 0
102 476 -379 0
24 -587 63 0
612 -426 -552 0
-489 -600 523 0
231 263 588 0
95 519 -623 0
606 246 260 0
-536 -596 -126 0
200 -427 564 0
-162 -444 632 0
381 225 -563 0
-466 -118 -606 0
-236 178 376 0
300 92 433 0
-99 517 457 0
320 580 102 0
-110 -94 414 0
-156 -91 -454 0
511 472 436 0
-626 100 124 0
-333 -437 -30 0
-215 -523 340 0
533 -401 -448 0
-261 59 -130 0
414 -415 -263 0
601 125 -428 0
303 -84 -432 0
-94 165 149 0
637 97 -190 0
440 -154 258 0
-173 446 9 0
-152 -578 136 0
585 -302 -596 0
-463 596 185 0
69 508 -129 0
-575 -288 -6 0
229 -370 153 0
-529 -78 292 0
-84 -534 -299 0
423 -107 -385 0
319 138 -569 0
583 -309 -364 0
504 -507 -631 0
314 -503 281 0
598 -26 -509 0
158 -327 -625 0
21 385 551 0
132 -351 -299 0
-128 -496 279 0
112 602 -352 0
13 400 315 0
134 -644 507 0
612 353 -44 0
83 468 213 0
74 -297 -352 0
481 -585 269 0
-33 416 -204 0
-101 -191 233 0
-629 -64 -253 0
175 515 -349 0
54 -263 -159 0
-638 365 220 0
388 496 199 0
441 534 -445 0
-367 368 286 0
-206 -50 40 0
133 580 546 0
9 -597 -439 0
-289 55 395 0
-384 226 -600 0
451 -444 83 0
93 -578 101 0
43 -138 215 0
407 607 153 0
-192 278 564 0
-49 254 -96 0
267 210 -301 0
354 -516 -473 0
646 117 -584 0
578 -338 262 0
40 346 292 0
412 295 198 0
-440 -644 -126 0
49 396 594 0
499 -335 -439 0
-516 174 324 0
336 -485 386 0
-271 -50 451 0
-247 -142 271 0
-235 634 -548 0
-89 325 320 0
-342 581 -335 0
308 -537 395 0
368 -205 -83 0
503 -189 -591 0
-502 -600 39 0
-554 -630 495 0
474 -440 556 0
598 487 -553 0
-389 114 -436 0
-276 -253 33 0
359 -130 -534 0
562 -520 -244 0
308 596 -321 0
189 371 636 0
-326 -517 -418 0
450 601 268 0
193 -538 611 0
64 -484 -136 0
588 511 -235 0
-375 65 90 0
553 -410 -149 0
470 64 570 0
102 -589 -308 0
35 -437 275 0
590 -388 -118 0
-423 -568 190 0
-546 26 -223 0
516 462 -413 0
143 -505 351 0
120 121 154 0
437 289 592 0
-562 -78 594 0
95 -37 -366 0
-47 -104 -534 0
495 517 -297 0
-587 -177 -287 0
380 -415 293 0
-447 -463 574 0
615 -146 -154 0
-321 405 489 0
177 -189 135 0
-286 170 267 0
452 498 268 0
-295 198 134 0
541 463 -344 0
284 416 424 0
-648 -382 -146 0
-522 -469 562 0
-634 6 -354 0
485 -135 -248 0
-194 68 -370 0
-272 192 577 0
340 -230 -578 0
-619 -284 -573 0
-605 403 147 0
-24 -83 553 0
558 100 -647 0
-232 -173 -295 0
-513 -502 613 0
-585 153 -253 0
14 623 -484 0
-375 -554 -72 0
-318 -376 -177 0
-43 54 131 0
-643 642 -518 0
-144 18 -389 0
-36 628 400 0
193 492 -582 0
-84 217 -326 0
62 -397 -648 0
-242 504 296 0
247 321 589 0
179 -525 -467 0
304 611 -444 0
-542 -86 -136 0
145 -49 -199 0
575 -557 147 0
-220 447 480 0
-64 394 -343 0
-114 373 8 0
-121 -634 39 0
-143 -223 -563 0
254 32 -119 0
-413 -17 223 0
-86 -69 581 0
229 531 317 0
-326 -246 619 0
399 -349 227 0
549 455 -227 0
-211 523 396 0
-209 -130 606 0
435 124 113 0
636 390 597 0
585 466 196 0
524 -121 337 0
-556 -25 431 0
234 83 377 0
-421 22 -179 0
-311 -195 -172 0
256 -253 206 0
30 173 -115 0
470 -155 137 0
165 233 -616 0
-208 633 -321 0
446 -632 -399 0
-466 309 70 0
-547 -389 319 0
-8 317 -489 0
590 468 -453 0
-453 -61 352 0
547 -433 -60 0
-507 -416 -306 0
-554 -118 -421 0
293 -378 -46 0
-10 287 -356 0
-33 -550 -547 0
411 153 445 0
-644 -126 252 0
24 151 -376 0
331 510 63 0
633 233 -144 0
-478 -576 -635 0
-590 24 -602 0
479 414 -268 0
359 438 -418 0
551 106 -481 0
-610 76 472 0
-274 -590 458 0
583 153 -427 0
340 268 380 0
567 622 -367 0
223 564 444 0
353 85 -317 0
430 -201 210 0
-331 -378 350 0
190 260 -18 0
-376 -39 -500 0
538 583 -594 0
-377 104 -634 0
523 -415 117 0
514 -92 357 0
242 -406 -126 0
-584 -534 257 0
-418 -568 -631 0
570 -20 -223 0
-444 226 378 0
323 -347 -459 0
136 354 595 0
-290 -239 -450 0
484 531 -339 0
123 -40 194 0
577 120 133 0
66 -219 321 0
185 -570 213 0
-199 299 -617 0
-163 500 -584 0
-269 191 633 0
406 643 -354 0
391 -82 281 0
-38 312 -246 0
426 -235 419 0
184 -88 -36 0
391 171 106 0
-491 525 -207 0
24 4 -359 0
500 466 -638 0
-364 -597 92 0
-628 191 125 0
-516 345 -297 0
189 -448 362 0
547 -51 350 0
384 329 -140 0
206 -278 -500 0
239 -199 -233 0
15 14 554 0
286 -530 -461 0
222 -637 -210 0
-486 -377 -591 0
-28 190 -282 0
-28 501 581 0
-617 519 35 0
-642 -646 290 0
267 -91 260 0
478 -545 -117 0
438 -633 16 0
-144 -11 452 0
-365 -603 -560 0
593 -278 144 0
-489 350 -85 0
-447 -154 -33 0
604 -487 425 0
-395 -524 595 0
247 84 -27 0
-27 443 -213 0
-414 -230 273 0
493 594 445 0
-223 -409 -539 0
380 289 -54 0
216 212 -516 0
293 -52 -331 0
396 313 -280 0
234 547 455 0
328 -591 251 0
219 560 -89 0
397 -377 -25 0
-226 504 -238 0
-646 323 -398 0
-238 399 -509 0
58 195 421 0
-169 -460 610 0
358 206 435 0
396 -596 478 0
217 -590 -138 0
-216 -232 -209 0
613 240 103 0
120 520 229 0
-246 190 412 0
-443 59 132 0
-292 478 503 0
393 -200 -587 0
162 -390 -229 0
172 286 -386 0
199 238 165 0
-450 555 148 0
-94 -199 -8 0
179 -377 -638 0
227 501 -336 0
-327 61 236 0
-89 546 10 0
-558 -296 300 0
425 -405 -414 0
82 -264 -244 0
27 -97 623 0
129 414 47 0
80 -57 -360 0
-176 -625 -272 0
200 581 -499 0
-228 464 -315 0
268 167 -365 0
461 254 269 0
140 -344 -315 0
544 -451 -163 0
-339 585 -318 0
-294 307 -431 0
94 289 -572 0
-481 615 -473 0
-296 -558 -527 0
58 -280 -430 0
-596 85 356 0
-176 499 131 0
190 459 -4 0
-629 618 -580 0
-210 595 -575 0
-207 -634 214 0
-14 71 224 0
-286 207 -287 0
-154 -638 650 0
246 104 -312 0
593 -240 615 0
101 587 -107 0
-256 -330 -503 0
-470 -330 -506 0
307 285 -151 0
-410 337 128 0
-434 -222 -627 0
210 5 -579 0
248 -234 -392 0
199 -291 568 0
466 -467 576 0
-536 446 -382 0
-582 418 -217 0
146 -581 602 0
460 214 -560 0
527 -192 466 0
85 -588 152 0
591 -555 -202 0
218 -437 525 0
212 482 -403 0
-330 -506 -505 0
-262 247 -445 0
-330 12 -386 0
254 -9 -32 0
543 16 -542 0
591 -296 -134 0
-615 80 -259 0
448 118 499 0
566 319 -251 0
-61 -317 -649 0
-473 103 -88 0
-584 97 -600 0
-520 614 -367 0
-331 64 325 0
-48 538 -563 0
-153 18 145 0
293 -619 -644 0
-209 -316 263 0
-268 -290 -441 0
-196 -649 121 0
-74 -520 -137 0
185 -182 117 0
-588 568 -343 0
597 211 625 0
-14 360 -28 0
-522 -489 621 0
-564 -72 -625 0
-421 401 -602 0
-455 -15 -530 0
-645 -169 -338 0
-103 -550 -575 0
-17 -515 -138 0
609 -275 239 0
-459 526 -617 0
292 145 -570 0
-335 -131 174 0
-201 147 -15 0
334 294 -629 0
-347 -171 -465 0
-278 213 -128 0
-596 -418 458 0
-412 323 78 0
591 117 -306 0
649 -64 -326 0
-259 404 385 0
323 -122 72 0
124 -370 -243 0
-176 24 501 0
-582 270 527 0
-631 -338 -117 0
-377 303 572 0
52 -288 236 0
-443 -638 -153 0
614 528 432 0
124 64 -496 0
-183 120 -438 0
-204 443 219 0
-76 201 -191 0
92 -311 -23 0
-6 137 -124 0
327 244 -490 0
-525 235 -465 0
-37 -340 551 0
-96 -546 483 0
364 -616 158 0
-255 249 -477 0
461 463 -332 0
450 -596 -35 0
-68 -269 88 0
118 -538 -115 0
230 -350 -67 0
-608 -312 528 0
531 -173 -292 0
-26 -317 537 0
628 438 45 0
400 -9 401 0
-526 -318 -267 0
-233 -281 -295 0
365 524 -51 0
-458 -167 575 0
266 -637 488 0
-21 -38 -88 0
75 320 485 0
59 -506 384 0
-68 184 -623 0
436 614 -138 0
-404 -6 -179 0
-637 608 141 0
-421 -258 393 0
-509 -275 -68 0
-31 582 133 0
298 86 -281 0
512 -302 -335 0
485 -312 -102 0
55 -335 -308 0
-237 -489 -461 0
529 479 -408 0
-645 356 283 0
-384 -348 422 0
-257 66 437 0
128 543 -579 0
244 535 -273 0
-631 -637 -143 0
429 441 1 0
265 3 -195 0
-534 616 650 0
-282 -479 578 0
-335 225 -603 0
90 -457 614 0
-408 -153 250 0
492 534 298 0
-116 353 -315 0
602 569 626 0
-302 599 -577 0
457 -288 -8 0
60 172 190 0
-73 327 -561 0
242 47 -148 0
-633 -81 147 0
-79 228 83 0
-478 5 -70 0
69 -330 -543 0
88 -618 -26 0
-600 -480 456 0
583 649 56 0
56 86 -513 0
-38 -122 -625 0
-388 -59 -348 0
-522 190 -550 0
-139 -302 -67 0
32 43 88 0
-189 407 571 0
-77 -323 122 0
46 307 -221 0
405 635 -457 0
571 -78 -387 0
537 -184 363 0
351 -80 -103 0
-299 -641 139 0
-311 324 -444 0
105 -443 123 0
-409 -32 264 0
469 80 9 0
-547 482 -410 0
-80 309 611 0
310 261 -524 0
-605 189 67 0
166 526 619 0
482 341 180 0
628 -464 -572 0
-280 -263 382 0
262 155 -239 0
-606 639 -598 0
93 470 -391 0
-357 -17 46 0
-480 616 -644 0
638 -450 116 0
-586 466 552 0
539 -356 145 0
-619 195 473 0
-222 517 -26 0
-573 535 -324 0
42 -31 -420 0
127 82 598 0
-15 -17 287 0
-176 254 -171 0
-53 -180 -231 0
-343 454 -603 0
-138 -199 -222 0
374 464 -394 0
281 516 120 0
-585 181 -209 0
373 358 291 0
159 313 405 0
-213 404 647 0
-110 -90 -159 0
-224 -526 584 0
-365 -123 -220 0
-329 611 97 0
-137 488 -101 0
-283 108 584 0
440 24 586 0
-555 -572 -609 0
-332 -643 -532 0
-378 -251 353 0
406 -182 -52 0
-345 143 399 0
-43 563 499 0
120 93 237 0
-492 -297 -168 0
348 600 249 0
607 233 404 0
416 -73 156 0
-493 330 378 0
221 -625 -26 0
33 -531 -64 0
-12 281 -197 0
-34 -185 69 0
-213 -420 103 0
-55 -256 402 0
621 -616 28 0
-558 168 382 0
-351 -501 -458 0
625 -403 188 0
131 -203 -271 0
-519 -238 -166 0
287 28 357 0
307 122 248 0
417 -33 -119 0
-361 581 448 0
-588 -218 -484 0
-172 -539 507 0
430 -502 322 0
209 -621 -533 0
200 -363 24 0
-231 -378 -316 0
73 -332 -485 0
257 89 -23 0
-537 205 406 0
9 -98 187 0
-8 -120 -216 0
-40 -299 -107 0
367 -422 -19 0
96 -377 6 0
566 -165 -365 0
-333 -131 89 0
-154 -380 -397 0
-44 -321 38 0
-558 562 -8 0
-92 -566 498 0
517 12 -567 0
-89 474 106 0
579 98 123 0
-625 -552 -261 0
628 95 312 0
-8 134 -175 0
559 -365 45 0
-275 -301 284 0
246 -237 54 0
423 -413 -505 0
104 37 525 0
-74 573 -330 0
391 -406 212 0
63 -48 -251 0
205 645 -233 0
-521 -187 99 0
290 7 -208 0
-97 -529 -290 0
578 471 -282 0
-36 453 -347 0
-389 446 -256 0
422 -219 589 0
-424 -496 283 0
-232 -223 -67 0
59 -262 -2 0
-554 -68 -572 0
74 429 -336 0
356 353 -486 0
413 -522 -303 0
-238 -172 243 0
52 620 45 0
-463 -241 395 0
-51 -146 177 0
-146 71 397 0
-350 172 -80 0
-219 -441 317 0
-509 -429 636 0
-224 -463 -62 0
401 513 -18 0
-59 -497 -182 0
141 -223 -211 0
-517 -96 -604 0
-290 -128 330 0
553 -24 623 0
-386 -535 519 0
560 24 -111 0
392 -122 552 0
-254 418 -313 0
127 -458 -44 0
-192 -618 28 0
366 358 518 0
649 581 -10 0
-77 -133 -635 0
556 -530 -35 0
-395 594 -497 0
-196 -295 422 0
-578 -193 -488 0
418 81 422 0
-197 463 -38 0
-7 185 446 0
16 357 202 0
477 184 122 0
377 -332 311 0
317 299 -589 0
159 197 125 0
-360 199 17 0
240 -98 416 0
-46 516 -213 0
177 -110 294 0
572 -630 -142 0
-209 127 409 0
-32 173 597 0
-644 -595 52 0
-230 -527 -479 0
135 -335 324 0
364 -186 246 0
314 384 -548 0
-283 -492 -199 0
582 -459 -229 0
355 238 -581 0
-50 267 -597 0
274 -590 513 0
-158 400 -188 0
189 378 601 0
-291 -42 -195 0
574 78 197 0
624 -370 -97 0
-349 475 55 0
-580 -172 292 0
624 30 -426 0
-261 35 -493 0
415 -16 -468 0
-69 256 381 0
133 -401 -554 0
254 249 312 0
614 -416 -113 0
476 121 -7 0
266 104 -565 0
161 -590 -466 0
11 -493 -299 0
551 151 -276 0
-591 -399 -526 0
-145 -309 494 0
-630 -583 553 0
-578 544 -291 0
260 511 141 0
-91 -196 583 0
-238 191 -436 0
-437 363 -318 0
-578 169 -377 0
-559 476 -396 0
-641 -528 -262 0
-281 -534 -238 0
-62 81 40 0
-50 -330 -649 0
437 -316 187 0
-505 -594 -201 0
424 -450 -237 0
115 587 557 0
-356 -269 -373 0
559 -119 -111 0
-167 512 255 0
227 -12 -181 0
637 -465 550 0
-392 -318 250 0
475 72 -113 0
100 548 -231 0
392 -630 -81 0
-639 416 474 0
561 -22 45 0
-314 421 -499 0
250 509 348 0
-594 364 -519 0
-540 -590 571 0
194 172 81 0
-510 403 100 0
-329 204 -370 0
-499 75 210 0
-277 308 376 0
-158 -218 604 0
-381 377 334 0
145 -218 -524 0
562 6 268 0
360 466 493 0
-544 -433 -107 0
-314 -106 347 0
-410 473 -612 0
311 107 -276 0
-647 232 198 0
378 83 523 0
-94 -315 8 0
498 509 -524 0
108 583 -363 0
-580 -480 268 0
500 -182 -599 0
210 2 562 0
73 444 -164 0
433 545 485 0
-100 -9 -344 0
389 -1 -177 0
255 -64 -190 0
576 -334 260 0
280 408 50 0
311 220 -381 0
96 72 488 0
41 7 -29 0
-603 430 298 0
-31 446 -39 0
406 -68 -250 0
-73 -223 365 0
-639 10 -592 0
-166 -115 -113 0
570 155 548 0
373 -80 -505 0
464 33 -457 0
-336 -415 606 0
419 53 -140 0
-228 131 465 0
420 -278 401 0
-89 103 173 0
529 -306 4 0
286 398 -339 0
64 10 305 0
-583 577 -450 0
169 -17 -461 0
114 -503 -106 0
-86 -422 -399 0
-293 -579 326 0
538 -370 87 0
-431 191 125 0
-499 388 519 0
490 -168 417 0
417 463 553 0
-94 634 389 0
-489 -360 -516 0
300 370 -23 0
-3 598 373 0
-13 24 645 0
546 -616 -577 0
-573 521 -616 0
-597 69 503 0
-434 -637 -134 0
269 -69 -199 0
403 509 479 0
645 500 16 0
379 -383 -558 0
-200 499 -248 0
-19 -38 -76 0
402 -179 303 0
231 633 -306 0
427 167 -639 0
-538 -96 484 0
-236 -277 84 0
481 -549 600 0
-400 -623 -277 0
440 -403 144 0
-459 181 526 0
597 -424 325 0
131 -442 -426 0
82 -622 -358 0
-372 -261 399 0
473 -157 -172 0
457 -259 103 0
-75 59 18 0
-296 -521 -189 0
-490 -264 -316 0
473 79 -413 0
3 615 555 0
-205 230 136 0
-611 516 -374 0
226 45 -635 0
-61 -470 -271 0
273 -261 -166 0
471 -518 -650 0
-476 361 225 0
252 -138 -251 0
292 -181 403 0
236 -643 556 0
-366 255 -599 0
103 87 -117 0
541 -633 -139 0
350 -466 28 0
141 -42 269 0
-368 396 201 0
523 526 594 0
426 108 34 0
604 -645 309 0
-315 511 -286 0
304 -92 -62 0
-272 -108 509 0
-132 -128 168 0
133 553 -301 0
129 553 -209 0
191 149 -15 0
642 -193 305 0
403 394 82 0
-164 -211 -175 0
-530 -305 -354 0
427 -112 257 0
119 486 454 0
-315 59 96 0
105 -636 121 0
147 152 15 0
-130 111 -566 0
-649 -132 376 0
6 263 586 0
210 491 -117 0
211 467 147 0
163 -650 -587 0
303 -618 -633 0
-602 29 -634 0
-459 -17 287 0
-208 -466 -287 0
483 604 645 0
-614 -245 -223 0
-41 150 374 0
-609 -77 -418 0
-275 455 113 0
427 -261 -586 0
-426 -334 -519 0
-192 274 572 0
-586 174 309 0
-195 -527 510 0
360 634 -77 0
255 512 -528 0
76 266 -343 0
-603 -420 -188 0
179 472 292 0
633 17 -115 0
300 616 -119 0
150 507 442 0
-563 -384 -250 0
-568 -152 627 0
-85 -392 578 0
-502 380 362 0
25 314 -367 0
-614 -344 -261 0
-610 15 -278 0
-35 -599 -311 0
-396 -483 -525 0
270 538 152 0
405 526 391 0
-373 -420 299 0
-28 589 554 0
387 597 -369 0
-424 216 518 0
-303 227 191 0
-347 609 265 0
-532 266 -293 0
598 -21 -125 0
-310 552 -533 0
-134 -402 -259 0
-139 138 397 0
-276 -389 -108 0
533 -190 -426 0
-335 -641 -591 0
598 -370 -245 0
-481 -424 196 0
-64 336 115 0
-611 262 486 0
-343 26 446 0
-549 -31 -454 0
-200 -235 -244 0
-358 -341 518 0
-597 -323 105 0
621 578 25 0
-163 -292 78 0
294 -602 450 0
-493 -491 591 0
421 466 589 0
-6 -138 19 0
442 -117 -115 0
32 -226 -511 0
185 -148 61 0
319 -61 -416 0
-135 -300 399 0
503 55 52 0
-7 141 -319 0
203 400 -428 0
286 60 143 0
1 -335 -224 0
309 -65 -58 0
-307 313 -277 0
-42 585 223 0
72 103 204 0
260 -305 -235 0
131 561 115 0
-212 -465 9 0
-16 -88 368 0
-209 -395 259 0
10 83 460 0
563 -532 647 0
-237 124 -217 0
21 -170 493 0
-283 -436 -645 0
444 -415 573 0
207 -373 -464 0
206 631 -648 0
-577 128 -426 0
-649 -275 479 0
42 -393 -223 0
453 383 251 0
9 159 143 0
-266 515 591 0
-358 501 217 0
-348 -620 28 0
-58 181 306 0
68 60 546 0
264 -443 620 0
-442 149 104 0
553 -501 -142 0
456 -171 -560 0
-88 524 -394 0
478 -24 126 0
-549 -408 -42 0
-424 629 355 0
-505 4 -455 0
265 -21 -20 0
-99 -48 457 0
256 -301 330 0
240 -182 -510 0
226 583 -173 0
172 19 390 0
632 -582 -462 0
-259 438 -524 0
-94 582 334 0
545 419 415 0
388 37 290 0
589 -585 537 0
-377 -70 -144 0
-293 332 -376 0
-133 -466 327 0
164 -595 -374 0
200 -623 117 0
462 538 627 0
-534 -519 203 0
-253 -319 327 0
-19 469 304 0
147 -533 592 0
-636 -567 -447 0
549 -251 598 0
-441 -53 -444 0
-3 -544 438 0
132 311 -147 0
348 -587 -607 0
-173 83 257 0
390 -70 353 0
-191 -590 -211 0
-595 158 -603 0
454 141 -193 0
-414 242 330 0
610 -588 646 0
-294 -556 169 0
-222 -450 -471 0
-478 331 268 0
490 646 244 0
143 -138 293 0
-381 -416 -637 0
82 573 583 0
618 -418 540 0
490 225 -544 0
333 244 -58 0
-68 565 -323 0
47 327 217 0
53 -602 161 0
124 -233 258 0
508 -141 465 0
637 561 -472 0
488 59 -13 0
129 206 155 0
525 469 276 0
-466 641 -423 0
-541 -13 -577 0
282 17 320 0
435 -473 -557 0
-106 388 -252 0
401 129 -344 0
603 -418 481 0
392 -311 -253 0
531 -405 -413 0
174 -394 -280 0
-540 -229 134 0
-302 441 148 0
40 -69 139 0
-364 579 -637 0
629 319 217 0
159 399 111 0
96 -74 500 0
-113 -374 409 0
500 31 12 0
344 -105 -269 0
-124 -85 -591 0
-494 -485 -615 0
614 -53 444 0
632 -521 -229 0
575 -269 470 0
-23 109 504 0
463 465 232 0
-419 -142 -414 0
182 -173 323 0
224 -334 366 0
601 -228 480 0
-230 -196 88 0
169 -479 335 0
618 312 -246 0
-232 160 510 0
-402 -341 -398 0
69 -11 141 0
528 -277 263 0
-34 133 -572 0
-318 -191 -428 0
427 -536 118 0
584 329 -179 0
-159 279 -253 0
-235 -282 -273 0
583 403 -339 0
216 109 117 0
-275 350 546 0
91 -501 -557 0
319 368 -230 0
78 569 -93 0
-219 -603 50 0
73 188 469 0
-61 -626 226 0
48 194 426 0
-497 -246 -197 0
-189 -261 565 0
-426 -323 147 0
-298 -626 -616 0
-174 48 -387 0
84 362 -357 0
-377 -174 -428 0
-188 -609 70 0
602 -477 160 0
82 320 563 0
-559 -610 -16 0
-561 628 388 0
391 105 343 0
-366 -261 471 0
-480 226 -468 0
-105 -173 -541 0
-440 306 398 0
57 -628 487 0
-632 -539 -427 0
173 -92 463 0
111 567 64 0
304 58 -626 0
-195 452 -338 0
527 -257 -567 0
-4 31 -583 0
461 -499 225 0
127 268 -5 0
270 -184 -614 0
-439 -515 -331 0
-198 360 -475 0
-537 -71 -592 0
415 -55 632 0
-621 410 644 0
6 256 -498 0
-413 -270 59 0
-13 62 383 0
611 169 -136 0
645 507 -642 0
-261 184 334 0
-495 14 -152 0
481 222 308 0
155 -639 290 0
275 -281 617 0
-21 -37 -88 0
637 388 68 0
153 -446 -413 0
-114 -422 610 0
-238 216 613 0
410 298 -327 0
-187 -276 115 0
537 -512 303 0
-350 -301 -304 0
164 289 -83 0
378 -515 -449 0
171 637 109 0
-505 598 -67 0
138 -85 647 0
-100 229 -318 0
-426 -15 334 0
-233 -348 -525 0
-520 544 -569 0
-555 589 -432 0
505 302 -616 0
-386 -5 -307 0
627 376 243 0
272 561 -73 0
-311 -459 561 0
-475 515 -40 0
-155 -428 -552 0
-44 -13 -337 0
367 -477 -327 0
235 -640 -331 0
