c planted random 3-SAT, n=900 ratio=4.26; every variable is free, there is no driving input set
c generated by TurboCryptoSAT gen-benchmark - satisfiable by construction
p cnf 900 3834
-95 -419 -237 0
-683 176 -449 0
-875 -625 358 0
633 -825 465 0
727 89 513 0
388 85 -223 0
397 -316 402 0
-899 260 693 0
815 129 -325 0
478 -198 -502 0
287 -616 -227 0
308 -550 -860 0
324 395 432 0
-717 -256 700 0
-299 -486 407 0
-10 -401 -173 0
715 747 -522 0
-360 -463 499 0
106 560 -508 0
-802 308 -214 0
249 -792 -640 0
203 -565 -687 0
-460 -316 631 0
150 -752 243 0
627 284 -703 0
844 -599 -166 0
318 557 -150 0
5 -240 -658 0
-296 9 245 0
-637 -562 840 0
-851 164 -879 0
-728 -626 12 0
545 749 -870 0
29 116 377 0
74 -607 20 0
780 356 681 0
-606 -173 434 0
52 -807 -171 0
-782 659 47 0
-517 -10 82 0
784 660 -644 0
-489 -695 -736 0
-237 -537 -357 0
176 -399 6 0
-245 16 -617 0
-278 417 -421 0
70 -833 189 0
144 -587 -406 0
723 -304 133 0
48 -335 328 0
871 -224 -606 0
-275 -829 -721 0
304 444 -818 0
-222 523 11 0
-448 336 669 0
-896 -781 876 0
-271 170 -460 0
364 -198 318 0
-702 -434 -269 0
-563 519 -649 0
851 821 -235 0
851 759 768 0
888 820 522 0
-552 635 -707 0
308 -842 219 0
776 177 -243 0
777 804 56 0
694 12 -318 0
366 -382 -242 0
-834 -207 25 0
836 -296 440 0
214 -667 -858 0
81 376 894 0
71 198 633 0
5 -103 4 0
-867 -639 211 0
280 -49 -579 0
-753 705 586 0
735 -377 -7 0
-298 -642 -721 0
-491 -728 -65 0
-636 -463 -75 0
-229 164 -714 0
404 -367 -538 0
171 -397 -767 0
486 165 633 0
-808 -669 -387 0
-367 -42 -612 0
640 -249 -274 0
842 -835 -536 0
-181 67 89 0
351 847 769 0
-137 -213 -854 0
-521 -36 -179 0
758 -587 650 0
844 541 -556 0
563 105 -9 0
145 -203 -842 0
-38 719 670 0
-454 450 690 0
428 -481 -634 0
99 -258 586 0
104 844 -217 0
-779 -141 391 0
-729 -285 -466 0
624 -499 -293 0
311 377 -632 0
760 -599 607 0
479 785 545 0
576 814 -408 0
-492 -211 -761 0
-792 -329 -402 0
871 -627 -644 0
-125 -508 -333 0
728 115 134 0
616 -716 -127 0
-238 15 -545 0
-537 -313 -480 0
604 744 899 0
-572 227 -475 0
-611 309 -171 0
864 -294 -222 0
-24 -651 70 0
-655 432 142 0
373 645 -511 0
820 453 -223 0
-728 42 -289 0
691 408 -183 0
-835 -657 770 0
431 170 -457 0
606 -840 -679 0
530 -454 -240 0
-67 646 782 0
109 606 -691 0
191 -306 -147 0
-323 -492 10 0
384 816 -768 0
112 397 -543 0
738 -333 -838 0
709 19 -626 0
411 -71 278 0
44 676 -194 0
-227 64 535 0
103 824 693 0
-386 778 754 0
-552 -787 -368 0
-696 633 725 0
143 233 519 0
277 -750 -843 0
-798 438 854 0
250 -513 -353 0
306 438 378 0
688 -385 -357 0
840 -848 -890 0
748 205 681 0
190 -691 113 0
146 -150 -590 0
528 29 -171 0
38 -211 739 0
-422 459 3 0
-100 -48 628 0
-251 -576 -256 0
-275 -282 -190 0
243 450 448 0
-564 -517 597 0
231 -158 -809 0
-719 669 -267 0
-380 -582 -819 0
-711 759 -787 0
667 -787 242 0
620 -746 619 0
327 203 761 0
346 -238 34 0
153 441 467 0
123 42 -455 0
-597 11 699 0
89 627 56 0
-329 -285 -429 0
-550 384 -534 0
490 754 -483 0
125 390 690 0
315 660 -784 0
602 -524 -130 0
-139 -458 754 0
-362 -210 370 0
208 747 -282 0
-489 34 285 0
-495 -121 16 0
235 -391 258 0
669 -503 362 0
438 8 402 0
-623 376 353 0
726 546 -746 0
767 -663 -392 0
-812 -314 266 0
800 681 424 0
154 -612 -60 0
-19 488 -614 0
-443 -503 -252 0
-237 339 -63 0
-658 -293 125 0
187 -158 207 0
-584 541 -672 0
-484 -463 190 0
-77 189 -271 0
336 -307 -497 0
60 792 799 0
633 254 514 0
192 -289 -675 0
187 -100 691 0
94 -476 -607 0
-221 101 260 0
865 -109 -145 0
-4 121 627 0
-471 -672 667 0
196 210 356 0
746 -27 -337 0
393 812 733 0
-407 -309 -448 0
-149 -473 -760 0
-129 649 553 0
-308 473 -551 0
-837 500 512 0
197 -281 -125 0
-115 -252 -33 0
269 -81 -535 0
319 -228 88 0
-485 192 70 0
-642 -81 -844 0
-142 -841 -593 0
306 94 -871 0
359 450 -204 0
778 250 238 0
426 -177 146 0
-392 -712 -723 0
-307 853 -416 0
748 573 -835 0
-383 241 -219 0
776 364 -893 0
653 820 695 0
-48 321 -65 0
-199 215 -789 0
-361 142 197 0
-587 -759 -435 0
-138 462 -405 0
-366 331 -269 0
-868 -718 -145 0
692 540 -278 0
864 -840 -660 0
412 -140 -541 0
166 537 -495 0
273 -291 140 0
507 286 -225 0
-733 480 304 0
-722 -654 285 0
791 -349 410 0
849 -108 303 0
-882 -729 13 0
540 -666 605 0
-325 151 -70 0
648 -794 679 0
553 -611 -138 0
-771 -826 -883 0
887 -120 337 0
-1 272 -256 0
-752 474 546 0
-44 -457 511 0
462 -368 531 0
-374 -879 131 0
27 592 362 0
-865 794 645 0
-490 -789 -396 0
-572 -396 -155 0
-458 -679 728 0
-358 530 883 0
861 -660 -605 0
818 704 93 0
564 -420 532 0
449 -241 513 0
364 -696 463 0
-546 -811 372 0
767 808 -618 0
-420 -548 -603 0
-464 21 -692 0
-577 -558 -390 0
450 -452 198 0
-574 -68 -796 0
-114 -731 -703 0
674 136 -512 0
423 255 85 0
-331 -256 432 0
61 -660 764 0
654 -467 661 0
-836 235 -608 0
530 -155 -385 0
-368 -254 -842 0
-398 114 -817 0
855 772 -110 0
-710 -628 -828 0
7 135 776 0
173 -793 -140 0
-390 183 514 0
-103 107 -25 0
-378 768 182 0
150 203 -836 0
-325 -124 890 0
-57 -219 79 0
520 -160 75 0
-575 -295 244 0
643 -354 248 0
543 97 -238 0
624 332 161 0
705 -565 468 0
611 361 -529 0
-836 700 -275 0
-459 246 388 0
406 546 667 0
-726 686 155 0
-802 -791 279 0
690 -310 -216 0
-471 354 483 0
-222 261 -764 0
482 601 -188 0
278 -289 -587 0
841 444 402 0
-170 -293 -649 0
701 896 -551 0
-121 -323 822 0
-855 131 67 0
696 -228 589 0
-117 -527 -8 0
851 -393 -250 0
-344 263 -634 0
-817 -441 212 0
-10 273 -546 0
452 566 107 0
765 -483 -846 0
200 -90 167 0
-868 585 -749 0
-342 -577 249 0
799 -620 286 0
588 -818 112 0
-748 590 524 0
-390 -71 -773 0
185 314 134 0
578 -817 -559 0
180 -444 322 0
786 -655 -448 0
365 -738 727 0
864 -375 560 0
-680 -264 9 0
-581 732 404 0
544 -262 -583 0
-457 537 747 0
869 -707 -313 0
-585 34 702 0
595 -672 284 0
587 -535 -752 0
-215 322 134 0
269 706 299 0
323 -224 -215 0
74 -800 334 0
627 664 -406 0
534 364 -335 0
169 739 -30 0
-865 -125 100 0
-263 -693 -84 0
-708 -302 826 0
-575 -216 -355 0
461 631 -16 0
116 -67 409 0
190 841 -565 0
-142 134 660 0
900 770 410 0
687 723 -839 0
-335 -170 -339 0
-522 -20 -13 0
464 -445 755 0
758 38 277 0
-422 -85 -623 0
210 -888 -526 0
531 837 -217 0
815 -752 607 0
-802 -193 307 0
412 148 889 0
-474 49 362 0
-403 811 733 0
352 808 -853 0
676 201 -621 0
853 -739 -268 0
419 410 -580 0
535 -320 754 0
-248 224 855 0
-836 -227 261 0
216 468 157 0
374 237 -536 0
-806 -860 255 0
-397 -295 220 0
-872 456 896 0
-642 -689 114 0
-392 794 641 0
-711 211 730 0
-870 -163 -87 0
11 388 602 0
540 -362 574 0
759 504 325 0
-211 -43 819 0
893 874 -883 0
-317 -267 858 0
640 231 827 0
-533 -564 -52 0
415 -302 -338 0
-10 205 717 0
-442 612 -104 0
655 -657 -412 0
154 460 488 0
835 734 262 0
-892 855 -60 0
-274 -875 -110 0
-214 225 -879 0
82 -896 -865 0
-704 -866 -594 0
191 -894 297 0
886 -748 57 0
-160 -360 815 0
-565 -611 -524 0
737 462 -772 0
-202 628 -314 0
-874 -456 -46 0
-394 -646 629 0
-339 -260 -282 0
483 -153 -130 0
-457 512 -301 0
-353 -280 591 0
-790 640 556 0
24 323 741 0
186 -321 98 0
-365 -132 721 0
-781 479 -690 0
-874 172 48 0
-413 -69 511 0
-278 668 -698 0
754 -131 440 0
-527 -858 554 0
-832 634 -359 0
-515 -494 899 0
662 18 893 0
-646 479 -22 0
879 -493 580 0
-864 189 -132 0
898 181 -425 0
137 491 -211 0
-156 759 -321 0
617 -814 199 0
626 -259 6 0
102 153 -204 0
346 -602 734 0
-459 -760 499 0
-434 -604 -713 0
802 876 385 0
768 -430 540 0
279 -223 -41 0
534 -35 -106 0
-312 113 -414 0
-697 189 -502 0
-652 336 516 0
764 636 -133 0
-544 324 735 0
-623 572 19 0
-248 -698 431 0
-632 -891 497 0
2 -553 673 0
747 -642 446 0
483 513 470 0
-435 -83 -569 0
-798 -802 -607 0
-375 -583 -709 0
614 -519 -102 0
602 535 581 0
613 -769 855 0
-117 -672 -870 0
111 -423 551 0
286 845 487 0
-389 -67 677 0
-733 -630 719 0
433 -566 -387 0
113 43 635 0
-635 -865 -73 0
-727 -47 698 0
-556 320 296 0
-797 211 153 0
-867 -282 -606 0
282 -448 612 0
-604 -688 -619 0
-114 -71 -464 0
-110 137 886 0
5 -821 710 0
-110 74 126 0
550 684 315 0
-869 -36 132 0
252 571 -473 0
228 207 431 0
204 -750 -720 0
-107 185 894 0
-758 388 171 0
-135 376 -77 0
252 127 323 0
-268 356 -81 0
-518 93 -490 0
-724 328 -287 0
650 -393 -745 0
346 311 249 0
491 -758 573 0
-665 -105 -36 0
-840 -180 -426 0
855 -326 -219 0
-805 15 860 0
810 221 -325 0
547 817 -554 0
114 -617 766 0
772 -769 -139 0
-121 413 -356 0
263 -402 655 0
-284 -502 -507 0
-386 -26 -384 0
248 -437 -704 0
-859 373 -690 0
-790 326 -789 0
-388 58 -249 0
206 -213 167 0
750 515 -211 0
851 436 -147 0
-95 -487 -319 0
893 -858 -476 0
-289 -879 -127 0
-760 656 -295 0
164 748 111 0
620 -238 538 0
858 488 386 0
-593 -658 -201 0
-18 -391 870 0
-731 -23 19 0
-356 -696 -668 0
587 -165 -297 0
-35 329 624 0
390 -813 332 0
-135 111 28 0
896 778 440 0
-644 -720 808 0
-386 383 36 0
-296 -823 382 0
-241 240 -597 0
598 389 339 0
800 -263 598 0
426 94 -881 0
654 309 -833 0
-375 328 -788 0
-86 557 -576 0
-403 184 685 0
-132 60 181 0
482 -136 460 0
-350 -266 -272 0
150 808 -153 0
431 -317 851 0
-218 312 -313 0
-88 -574 341 0
510 324 119 0
661 58 458 0
-581 610 671 0
-724 812 -714 0
-825 -54 19 0
880 -814 745 0
222 292 118 0
-330 79 553 0
530 9 88 0
350 469 503 0
-539 240 -807 0
-329 -770 -415 0
465 538 -780 0
829 -770 226 0
-542 -309 873 0
-808 462 753 0
-280 870 -174 0
559 614 -748 0
343 446 -335 0
-45 -466 -824 0
-354 774 860 0
730 537 -209 0
-322 -740 -291 0
-269 426 -473 0
894 -401 724 0
358 -72 -862 0
699 -425 310 0
-279 568 785 0
147 713 -746 0
-731 -442 512 0
774 -212 -493 0
-144 -374 -147 0
508 -423 -171 0
-385 792 51 0
-420 -678 334 0
-690 -95 -846 0
526 206 297 0
-214 887 -678 0
-197 -855 -772 0
566 425 -235 0
-607 644 -711 0
-688 765 -230 0
-887 -29 257 0
-524 -201 -376 0
474 -793 -567 0
-497 -69 -687 0
-714 -601 608 0
-377 -169 -800 0
-490 325 626 0
-402 -723 250 0
-384 538 -666 0
792 240 -160 0
798 753 -9 0
-30 -107 847 0
-715 -833 -178 0
-660 572 611 0
636 604 -678 0
-835 -141 604 0
768 -631 283 0
279 -346 402 0
-866 631 379 0
498 432 -283 0
-181 260 139 0
513 -637 863 0
779 564 72 0
754 -777 -776 0
-84 -691 -267 0
481 -848 742 0
-621 104 818 0
176 313 -362 0
388 -113 -664 0
-717 218 418 0
505 669 -291 0
622 -177 -365 0
648 -625 694 0
-436 -359 615 0
-465 118 -821 0
404 579 262 0
-62 370 -750 0
-823 235 533 0
480 -866 -173 0
399 -782 568 0
-572 -41 691 0
-182 103 -240 0
-471 398 430 0
474 854 -737 0
90 616 -341 0
64 -214 675 0
-275 -552 26 0
173 625 -619 0
-421 629 850 0
478 -680 -187 0
-656 457 358 0
-706 845 205 0
754 -219 825 0
-493 -438 757 0
-166 811 -667 0
-704 627 125 0
-764 -641 208 0
527 -40 292 0
481 -717 680 0
383 325 -70 0
453 -72 -610 0
673 -232 691 0
-19 -107 893 0
-877 292 -218 0
877 841 574 0
-572 723 424 0
-684 -412 -391 0
-171 799 -638 0
745 -554 -125 0
762 -283 -168 0
-571 226 -562 0
-227 825 515 0
738 -19 318 0
-777 42 -875 0
897 707 -528 0
434 -677 84 0
-881 138 811 0
-858 -355 482 0
-107 294 -255 0
187 -579 143 0
-4 -758 177 0
-684 206 -177 0
690 407 -53 0
-144 346 -270 0
-576 -794 340 0
690 -257 -415 0
47 410 -866 0
567 -313 -212 0
42 -784 -672 0
707 -410 50 0
-477 -242 366 0
-747 -515 440 0
-433 810 -804 0
-724 -178 -304 0
-149 -96 -722 0
762 -494 749 0
-26 136 -224 0
268 28 738 0
-106 400 354 0
-883 252 -97 0
-738 -688 -831 0
-861 -885 131 0
585 658 -522 0
887 -174 -593 0
-375 420 720 0
-283 439 639 0
-81 166 -215 0
-199 267 -378 0
330 -169 -48 0
781 681 649 0
427 784 571 0
543 -522 -793 0
869 847 743 0
52 130 -66 0
596 -135 489 0
-801 384 624 0
689 -686 20 0
474 381 324 0
77 -681 16 0
-829 341 876 0
-443 578 440 0
9 587 193 0
-559 643 -372 0
668 -826 451 0
-706 -598 -172 0
307 -820 -697 0
6 323 -837 0
497 -243 455 0
675 -126 45 0
829 -175 -230 0
-732 897 629 0
-127 -338 87 0
32 43 739 0
-50 -255 -795 0
235 -547 353 0
373 -246 442 0
-271 55 -92 0
689 -734 873 0
550 -335 595 0
-3 801 437 0
-845 215 669 0
120 -162 -708 0
-62 -309 -102 0
-168 -643 277 0
9 -519 -721 0
62 729 803 0
864 13 -529 0
-115 -273 -617 0
-583 159 642 0
-141 -850 76 0
3 -326 679 0
-775 42 -508 0
281 -123 401 0
-622 -394 142 0
344 444 -341 0
-102 -470 509 0
-218 660 -301 0
-241 453 -223 0
633 876 -46 0
-141 -244 -454 0
324 29 195 0
42 -328 -593 0
694 -391 604 0
-495 287 765 0
209 331 -467 0
-870 867 619 0
-461 -108 743 0
680 583 -458 0
-336 -395 61 0
389 545 -673 0
-864 302 802 0
-618 877 552 0
-708 117 900 0
47 739 -628 0
-756 818 -708 0
490 -70 -540 0
487 698 188 0
701 25 -315 0
802 186 143 0
582 -371 229 0
652 -447 -252 0
-450 26 228 0
517 668 263 0
-324 -817 290 0
-266 -801 636 0
574 222 300 0
-448 -877 -345 0
-302 156 -107 0
44 12 204 0
-161 299 -366 0
593 657 237 0
-765 -128 178 0
412 10 -112 0
-422 -837 512 0
-743 381 333 0
-750 101 -677 0
-245 -546 491 0
-19 -74 352 0
415 -856 -754 0
-710 -812 696 0
564 563 -516 0
-191 758 -205 0
-863 11 435 0
71 -78 -653 0
769 -619 -188 0
479 -464 2 0
32 -480 350 0
-38 -862 809 0
-862 -310 -412 0
-232 62 526 0
-426 792 -612 0
-231 -57 549 0
704 -743 -77 0
17 522 -415 0
-693 672 -353 0
527 513 815 0
834 -734 -642 0
292 434 749 0
53 107 -399 0
-415 157 -562 0
149 600 321 0
-311 294 -416 0
228 -692 -60 0
6 -539 -609 0
495 9 536 0
524 -706 -383 0
289 676 -433 0
-503 112 -226 0
294 -81 833 0
864 345 180 0
181 -480 633 0
-128 -428 791 0
-821 494 -655 0
85 -737 -109 0
-771 475 -178 0
652 80 708 0
-847 452 -432 0
-409 839 -576 0
-106 -794 -272 0
-654 -352 718 0
145 895 133 0
119 -135 -388 0
-500 -826 -846 0
50 521 -780 0
187 137 -349 0
512 -226 -372 0
-812 -830 -522 0
-339 341 -93 0
-849 617 -362 0
385 -743 877 0
-663 728 -446 0
898 -270 136 0
-439 -397 268 0
582 85 550 0
-607 873 863 0
-635 -259 -183 0
-5 -899 -449 0
308 -876 -505 0
441 714 -817 0
-774 500 -27 0
714 -759 183 0
375 532 -564 0
244 537 -392 0
-530 189 101 0
893 215 -367 0
-877 670 667 0
81 257 -603 0
453 863 -67 0
638 743 -224 0
91 -723 795 0
525 -357 737 0
774 611 -13 0
463 582 109 0
798 125 206 0
-452 707 -128 0
-757 -612 -291 0
-623 505 792 0
-516 872 -675 0
359 -843 -538 0
2 379 -845 0
-596 -223 187 0
-407 353 550 0
800 -831 83 0
838 -170 -604 0
-196 344 303 0
183 -226 -769 0
-458 -607 -468 0
-302 -49 524 0
486 440 341 0
391 448 94 0
10 303 -420 0
-404 -234 -95 0
-35 -538 865 0
705 491 385 0
-254 512 -190 0
858 14 598 0
701 -715 129 0
-56 601 -226 0
427 686 678 0
804 -316 484 0
-125 868 849 0
-628 879 544 0
328 22 -497 0
-257 765 -536 0
201 24 -757 0
197 417 515 0
-781 414 -88 0
12 -195 716 0
-495 -224 241 0
533 399 626 0
-321 209 -856 0
-367 391 801 0
102 322 -841 0
281 -179 493 0
495 4 278 0
-420 766 306 0
808 360 98 0
-145 -215 -290 0
-208 -91 -422 0
-464 890 -532 0
428 -296 -280 0
742 551 -52 0
-400 360 -200 0
24 -278 307 0
-616 536 776 0
831 -374 -285 0
-811 -631 -729 0
-352 -235 88 0
-669 727 -155 0
784 -332 897 0
-44 -459 505 0
431 -560 450 0
234 537 -17 0
776 410 369 0
-249 -283 -555 0
403 266 398 0
730 -866 -787 0
705 -634 -507 0
-253 -372 -415 0
-206 140 -676 0
-753 -824 49 0
-690 -816 159 0
109 279 -628 0
-672 736 -281 0
317 50 272 0
-97 -50 611 0
389 -597 691 0
6 -70 154 0
-467 251 -846 0
271 -48 -259 0
722 459 -230 0
-487 -115 8 0
294 -522 32 0
-317 -287 689 0
-488 -723 -266 0
-173 -145 130 0
-782 -659 843 0
-310 -670 -769 0
49 -45 -831 0
418 548 666 0
-820 -10 -503 0
473 748 256 0
291 330 407 0
-770 789 -289 0
625 54 704 0
-172 248 -540 0
882 531 -218 0
758 362 -89 0
-350 758 807 0
-607 -706 240 0
847 282 627 0
-17 -619 -505 0
-213 897 -613 0
-862 -512 -692 0
-592 76 -280 0
561 871 -699 0
-783 256 -440 0
-736 -458 16 0
-256 186 -334 0
-502 451 -866 0
114 -172 608 0
-248 -185 -100 0
289 -469 649 0
-335 527 -663 0
84 -524 -508 0
-338 632 329 0
485 -275 760 0
41 -282 -867 0
268 -865 -895 0
236 797 -668 0
-865 -525 93 0
-68 536 586 0
320 -616 641 0
-890 837 652 0
801 496 889 0
537 -18 -874 0
559 205 -185 0
-876 -532 672 0
-866 -147 60 0
69 391 -700 0
-890 -803 -504 0
645 739 382 0
-735 -349 -278 0
77 268 -493 0
-810 673 -714 0
475 836 124 0
-585 -148 582 0
178 -710 452 0
-38 155 -792 0
362 -758 120 0
151 514 392 0
-880 -412 745 0
695 896 724 0
661 555 -423 0
102 -797 -864 0
701 -705 349 0
302 525 106 0
-663 286 635 0
833 -492 445 0
520 -703 764 0
167 812 613 0
627 803 -482 0
-563 742 -296 0
-264 588 162 0
111 -491 146 0
-778 530 -606 0
153 731 790 0
851 368 -218 0
-183 647 895 0
372 -78 -392 0
852 84 -558 0
-752 510 674 0
-515 -781 -620 0
-394 177 -433 0
425 -710 -72 0
-18 -65 256 0
115 123 -17 0
-670 -121 204 0
343 329 726 0
-187 83 -780 0
-255 287 197 0
278 762 -663 0
-763 686 698 0
-282 501 497 0
367 413 842 0
211 -817 83 0
442 400 -160 0
-247 -272 -258 0
-586 -823 293 0
151 373 466 0
636 -745 -245 0
-216 -512 -603 0
324 720 836 0
4 501 -743 0
380 142 -665 0
8 -498 143 0
168 382 131 0
92 849 109 0
58 -323 341 0
-636 538 -543 0
-341 379 -693 0
651 -799 -825 0
-432 -725 -515 0
666 206 846 0
-544 -414 393 0
108 695 239 0
434 -39 671 0
113 -686 -716 0
4 -743 -326 0
390 147 -442 0
279 -336 -341 0
-396 -639 -379 0
753 -286 877 0
869 36 -846 0
-143 456 -75 0
-578 -428 -540 0
814 -21 -616 0
62 -193 -791 0
830 287 178 0
-15 677 447 0
-140 435 -765 0
-541 237 163 0
668 352 208 0
-365 727 26 0
-514 -842 -574 0
812 97 770 0
204 854 -103 0
-98 -501 -64 0
-867 -559 890 0
-65 -248 -562 0
-890 -217 120 0
85 -97 326 0
-348 859 98 0
-771 526 -865 0
-293 -669 -257 0
14 843 -554 0
-451 816 -604 0
559 -706 463 0
-392 -544 188 0
-587 714 261 0
-154 -668 120 0
410 529 -439 0
139 -497 312 0
14 -691 804 0
-158 677 72 0
-280 434 -447 0
695 -11 -876 0
374 -280 469 0
-828 -675 234 0
-600 -3 218 0
615 748 -629 0
-210 -620 -760 0
-251 -503 -346 0
389 -687 833 0
-517 -195 474 0
-796 96 45 0
-558 -244 504 0
-743 -33 206 0
-838 -804 -620 0
211 420 728 0
-106 103 291 0
-467 676 494 0
39 -1 288 0
-600 60 -659 0
-265 801 54 0
-77 823 721 0
190 417 346 0
512 678 269 0
354 446 106 0
-667 345 -502 0
-773 -886 728 0
-182 740 -240 0
-690 -358 343 0
-65 421 788 0
97 -390 -807 0
652 880 372 0
-526 -665 -478 0
106 846 -464 0
141 -355 -403 0
124 -346 432 0
-806 -131 708 0
-659 -339 373 0
21 -250 -351 0
-367 41 317 0
326 -435 363 0
14 -642 890 0
39 595 20 0
-695 -769 -542 0
-605 -531 -173 0
280 -223 -516 0
31 -609 701 0
-624 -388 -721 0
-452 -617 146 0
43 -130 -745 0
593 -623 101 0
661 -338 -284 0
784 835 851 0
815 -284 235 0
-848 284 878 0
190 -718 643 0
411 -94 635 0
899 -767 -888 0
-552 447 -117 0
402 -153 -215 0
-645 661 -169 0
37 -83 -714 0
-675 215 -133 0
859 818 229 0
-528 62 -205 0
168 339 -277 0
676 305 528 0
237 -272 880 0
-222 -696 817 0
-630 120 -665 0
-373 -856 -104 0
234 425 -222 0
730 408 -306 0
-511 34 665 0
-409 578 -815 0
-216 -612 250 0
-465 -272 -416 0
-565 -150 -790 0
-760 -77 -655 0
162 607 -469 0
-306 11 -65 0
218 117 34 0
243 -784 681 0
-18 839 274 0
791 180 266 0
-721 677 478 0
536 818 -716 0
-762 -660 -412 0
297 -534 570 0
565 -158 223 0
487 284 -443 0
668 -582 598 0
114 320 -36 0
528 -6 484 0
97 290 -164 0
-848 -572 445 0
-342 -659 -750 0
-352 -475 8 0
682 538 -100 0
-171 -779 123 0
226 608 -114 0
-870 836 622 0
-113 -588 -221 0
426 -881 396 0
659 -169 -462 0
-386 -827 207 0
-463 -701 585 0
-412 -816 -848 0
855 664 -597 0
-38 -678 775 0
195 258 -462 0
462 -354 318 0
2 15 347 0
-503 297 -496 0
659 793 -111 0
-891 -750 282 0
822 232 -254 0
-139 -891 602 0
82 142 -828 0
601 -604 819 0
579 877 711 0
-205 804 -172 0
39 -276 737 0
-217 705 685 0
-726 -295 -507 0
506 107 -399 0
749 -797 283 0
-574 -145 900 0
-767 -598 280 0
-287 -420 -74 0
42 -817 186 0
329 -359 -425 0
-190 -52 -538 0
124 790 362 0
-895 -178 -421 0
170 -314 -825 0
808 -669 -365 0
-557 -672 -784 0
767 788 -125 0
333 247 -493 0
-555 512 35 0
409 452 259 0
715 246 -814 0
446 -302 -396 0
839 -253 510 0
285 -335 -2 0
-445 -230 188 0
582 441 328 0
-791 -261 -746 0
-718 -460 -477 0
-126 -442 -558 0
-460 730 580 0
241 -794 523 0
8 -509 24 0
457 406 556 0
48 -111 716 0
220 -824 221 0
-216 -342 -696 0
-611 -551 140 0
-349 652 764 0
-897 -212 -862 0
-604 -305 -577 0
-605 -326 140 0
-431 -277 -122 0
44 -233 -710 0
174 -835 814 0
-510 -591 -433 0
-420 589 -201 0
190 -840 -204 0
-154 -4 333 0
-784 -359 -840 0
741 791 398 0
551 783 345 0
695 -422 670 0
-552 -814 228 0
789 -78 -829 0
653 -436 -703 0
236 -730 -800 0
-316 811 830 0
-449 -346 231 0
-612 576 -641 0
244 692 474 0
-418 631 467 0
620 91 343 0
275 -303 -649 0
-502 269 -203 0
-447 -797 446 0
-498 -573 260 0
561 -803 455 0
-267 148 -132 0
-646 -343 22 0
-256 573 236 0
518 417 449 0
814 534 896 0
-94 530 481 0
-697 470 -186 0
-816 -357 -775 0
-226 467 806 0
-150 408 703 0
-615 -822 -136 0
730 558 361 0
550 696 656 0
-145 -74 -312 0
164 -388 -357 0
563 755 421 0
666 29 352 0
86 833 792 0
-94 704 702 0
147 -883 410 0
-373 38 342 0
74 -435 588 0
-379 106 -623 0
778 30 849 0
-84 -85 -448 0
-456 -125 735 0
463 89 -758 0
-897 -862 226 0
-704 -414 789 0
83 583 -494 0
-156 783 35 0
-604 -666 -573 0
160 -663 -98 0
803 -209 567 0
764 -742 452 0
672 -503 576 0
354 -59 430 0
722 356 -516 0
577 -123 -819 0
17 708 843 0
-362 234 22 0
-255 792 76 0
-556 -224 -316 0
-37 -75 -527 0
-741 -564 -425 0
-786 120 -827 0
-861 11 -349 0
459 132 636 0
-229 -216 876 0
-312 -638 -566 0
391 -823 213 0
200 681 -16 0
387 521 -603 0
-43 -822 -277 0
7 814 248 0
-179 686 -273 0
-849 431 -67 0
-57 -233 334 0
507 746 717 0
127 -718 383 0
573 -214 34 0
542 -494 763 0
93 514 105 0
-462 77 826 0
-703 -348 -888 0
751 -729 628 0
401 633 796 0
-874 -854 784 0
82 -247 -381 0
-2 -77 -895 0
652 -635 -171 0
675 -249 -761 0
-554 194 485 0
-698 -73 -469 0
-437 130 -94 0
681 -493 736 0
649 86 841 0
485 708 -271 0
-49 -210 339 0
792 -488 240 0
-363 402 181 0
-611 799 106 0
716 -9 -480 0
890 870 92 0
-440 39 -734 0
-365 406 -130 0
-357 2 -867 0
219 429 -330 0
-669 -672 205 0
680 172 -638 0
-743 207 449 0
752 -297 -273 0
327 523 459 0
-867 613 143 0
-646 -526 590 0
-65 -821 -332 0
509 -622 -890 0
136 -681 -833 0
385 -137 -756 0
-298 80 -797 0
-673 114 725 0
-614 402 -554 0
-247 337 498 0
-683 -398 878 0
-815 164 319 0
-687 410 -528 0
837 -492 7 0
384 272 -314 0
-380 468 -291 0
300 329 820 0
142 -539 -517 0
233 214 560 0
-738 868 -233 0
-447 185 786 0
-875 476 -138 0
728 27 677 0
-774 4 713 0
738 -716 649 0
-556 -34 282 0
-67 625 731 0
-108 782 421 0
862 871 480 0
-153 327 400 0
716 -99 -880 0
-860 -385 -508 0
246 33 306 0
-276 -714 2 0
52 648 -69 0
-682 -848 274 0
404 -112 727 0
-613 601 531 0
-426 -377 556 0
427 620 490 0
-464 -661 -339 0
-342 675 -94 0
-488 68 -350 0
519 426 -788 0
748 -613 259 0
-161 56 838 0
-808 -29 -258 0
-571 664 495 0
534 -205 -251 0
218 562 -734 0
271 -354 100 0
-111 441 290 0
-483 -8 -887 0
-414 -578 327 0
37 -711 542 0
541 -157 -478 0
-42 568 136 0
765 795 -892 0
470 659 -629 0
-467 -503 -300 0
656 -652 -231 0
854 -562 293 0
820 131 -269 0
404 -340 -61 0
-718 562 -680 0
-516 296 -679 0
-340 -399 -138 0
-324 726 356 0
187 -761 765 0
-736 342 747 0
625 540 -783 0
-762 674 527 0
-186 845 775 0
-161 487 279 0
-658 205 135 0
-199 -215 -15 0
-532 540 -444 0
510 -11 236 0
-175 867 224 0
-752 530 701 0
86 84 -531 0
-396 -509 191 0
221 782 -344 0
-881 -470 49 0
146 -79 -562 0
478 840 708 0
217 812 -872 0
-34 -874 -332 0
-882 -233 -497 0
150 701 -585 0
496 606 -608 0
-834 149 -521 0
-593 293 495 0
38 -720 431 0
175 -608 -426 0
236 -459 256 0
415 408 -704 0
679 -334 -232 0
-458 -570 -125 0
-345 849 -614 0
-738 512 196 0
2 -354 -742 0
-627 -762 -321 0
-776 458 -66 0
-487 -214 -530 0
106 854 -418 0
601 551 316 0
882 -761 -341 0
-833 -655 663 0
-44 -535 -331 0
10 -528 -793 0
-50 -464 -374 0
418 -199 137 0
760 619 459 0
775 -197 351 0
-39 401 -545 0
-459 492 322 0
260 57 -816 0
59 -285 -423 0
-202 610 -126 0
-647 807 138 0
-47 855 867 0
250 310 563 0
-583 888 -651 0
-423 700 -413 0
-803 -628 115 0
774 -693 -369 0
755 267 -284 0
60 -257 102 0
48 375 879 0
-87 394 -469 0
269 776 696 0
-15 62 657 0
754 516 606 0
774 -22 -598 0
500 753 580 0
145 826 -135 0
-835 -642 409 0
-517 552 281 0
127 -138 -172 0
856 -532 -784 0
-635 -328 849 0
693 -43 -547 0
541 -302 13 0
459 -710 -483 0
47 -594 276 0
-492 374 -240 0
-843 -656 -411 0
-732 -54 -849 0
146 352 -46 0
827 189 461 0
-11 599 151 0
343 -602 -172 0
293 -44 -114 0
704 -172 -131 0
-577 340 169 0
-551 769 -778 0
-897 453 -836 0
-345 -557 -307 0
488 448 165 0
-395 -15 -702 0
-758 883 520 0
-629 385 -330 0
173 -767 -87 0
783 -649 267 0
491 651 489 0
-202 -519 874 0
-700 -261 -212 0
27 65 -422 0
-164 -638 -150 0
-7 -389 447 0
-741 858 196 0
-558 -784 270 0
-725 141 811 0
33 845 135 0
-15 797 525 0
718 -509 696 0
-217 -702 870 0
502 -871 501 0
240 496 97 0
28 118 -843 0
-116 -52 -757 0
-307 -429 -338 0
-548 -296 -796 0
136 143 -563 0
898 -603 -438 0
193 451 -251 0
360 248 -597 0
-704 8 -721 0
-649 886 -391 0
59 -210 233 0
68 752 470 0
583 -193 -700 0
-815 -545 -286 0
-502 -219 116 0
-352 689 90 0
-790 -628 -29 0
-752 737 -15 0
-430 -734 -738 0
-490 -857 439 0
456 388 609 0
-122 -114 -293 0
-620 -856 610 0
-83 729 702 0
-41 -238 546 0
-38 25 462 0
-750 -265 886 0
175 -176 -156 0
315 32 535 0
208 725 -331 0
-129 -728 -717 0
-233 -484 75 0
-561 554 -136 0
-294 358 192 0
-650 298 -86 0
712 801 -854 0
-137 871 -610 0
378 -414 763 0
-151 -18 28 0
124 -210 429 0
-551 -431 389 0
220 -553 517 0
-732 118 98 0
-281 481 -200 0
-11 850 863 0
271 -178 -463 0
-517 491 -803 0
-776 -169 -713 0
833 87 431 0
-585 -130 -711 0
224 -215 601 0
284 -150 735 0
876 -58 898 0
-731 -78 100 0
716 -470 754 0
705 216 319 0
-719 680 -274 0
21 818 -402 0
-347 -93 -840 0
679 -211 645 0
488 328 -242 0
310 -130 -838 0
-653 590 -770 0
-614 -462 287 0
822 -871 -507 0
-272 -772 312 0
549 175 291 0
311 547 -789 0
-605 469 162 0
-598 836 -638 0
247 431 -162 0
-549 -766 493 0
-784 -421 -254 0
-811 -710 881 0
-129 -446 -394 0
183 37 -167 0
367 97 -573 0
377 825 -293 0
82 -411 209 0
212 -533 -692 0
-294 -812 -816 0
156 -259 -447 0
-752 -333 -167 0
-357 45 634 0
526 508 -28 0
764 -416 -763 0
803 -589 -464 0
220 -572 -75 0
720 -886 -152 0
-494 -640 -50 0
116 -454 -889 0
736 891 563 0
120 558 -613 0
-770 836 -615 0
281 120 -317 0
-865 633 372 0
-893 -249 346 0
-171 76 -454 0
186 772 807 0
2 742 642 0
-53 -81 -190 0
-599 -582 307 0
-562 872 783 0
280 53 -353 0
-726 258 344 0
-497 -235 519 0
-330 -534 -357 0
362 237 631 0
756 782 -373 0
409 196 -646 0
852 647 -161 0
-63 -763 -84 0
413 -268 -746 0
-291 392 -878 0
383 -445 -21 0
-165 580 616 0
843 343 242 0
-185 552 -357 0
-798 -716 820 0
181 707 -113 0
-227 -362 351 0
859 -395 692 0
254 -91 700 0
283 470 -706 0
640 633 307 0
-685 -156 -816 0
-174 -676 91 0
-377 727 439 0
529 455 -561 0
-311 567 -204 0
264 746 -282 0
-459 -182 455 0
656 731 -506 0
709 460 832 0
375 -76 491 0
-762 725 207 0
439 356 290 0
799 -278 357 0
-740 -839 303 0
-477 -470 -361 0
-763 -533 746 0
-510 -69 706 0
-865 -593 853 0
467 682 -205 0
648 -459 -31 0
-756 -507 -550 0
-438 829 -898 0
77 -187 -297 0
-405 425 719 0
-410 308 333 0
-231 -746 277 0
5 46 443 0
-16 80 -295 0
-266 -808 -723 0
-85 -330 -191 0
-668 -781 415 0
107 -468 144 0
-620 -29 165 0
826 -155 -691 0
775 241 -565 0
694 -340 -191 0
699 870 257 0
706 -747 28 0
262 -329 54 0
-557 728 -883 0
70 425 -693 0
-736 546 462 0
-521 -380 770 0
818 -413 62 0
-491 -519 264 0
830 -428 31 0
12 -521 696 0
-401 60 344 0
-601 -768 384 0
-213 -747 789 0
483 627 -808 0
-673 -830 820 0
867 222 -190 0
-203 235 -821 0
104 -478 -3 0
382 416 -690 0
741 530 161 0
109 831 449 0
844 -704 331 0
268 -261 -16 0
74 1 487 0
-474 -608 -715 0
-257 740 434 0
-837 -759 -325 0
-172 -19 -729 0
578 463 91 0
-416 83 -873 0
487 897 470 0
127 -510 571 0
-675 518 -298 0
423 348 -128 0
-356 139 -735 0
-556 375 -848 0
-158 311 460 0
343 620 -180 0
-822 -63 -873 0
331 752 -227 0
-568 657 295 0
842 -152 649 0
-469 -615 -891 0
-417 125 649 0
382 -243 -159 0
561 650 -145 0
37 336 -663 0
-865 -713 -892 0
287 308 -817 0
-860 -576 220 0
-661 -616 -732 0
98 140 87 0
-132 614 -712 0
-185 803 -765 0
879 844 -689 0
-158 238 -644 0
-466 -220 34 0
400 -847 28 0
90 -158 -339 0
331 -835 492 0
195 509 -593 0
706 366 113 0
-545 404 297 0
650 184 109 0
-225 146 -399 0
-287 -417 323 0
655 543 45 0
-99 -332 269 0
176 415 204 0
-533 637 -686 0
543 361 333 0
-20 581 -381 0
299 -849 -454 0
446 659 -832 0
-267 -499 -77 0
107 379 844 0
-684 632 598 0
-897 -38 550 0
715 -259 -243 0
173 -546 -656 0
-107 64 -749 0
-806 406 -738 0
-691 486 -219 0
-611 3 -593 0
888 -61 -364 0
-423 -308 560 0
-803 -618 -27 0
-403 -465 174 0
432 -91 255 0
-88 895 837 0
401 -743 874 0
769 215 -60 0
25 -56 730 0
-862 732 712 0
-704 489 426 0
802 342 -463 0
429 473 773 0
-186 -74 -113 0
-204 449 561 0
477 540 -123 0
103 118 -69 0
623 215 -542 0
502 161 349 0
-883 -626 153 0
-620 -385 894 0
487 -202 -263 0
548 82 -474 0
584 -86 -372 0
880 -790 -220 0
-78 -868 365 0
-599 -373 -116 0
-776 30 -403 0
509 625 -78 0
508 24 529 0
165 -47 -832 0
736 201 268 0
298 -793 -798 0
667 823 427 0
-490 338 788 0
-146 -641 -696 0
-185 -632 205 0
876 87 521 0
560 814 -721 0
320 29 -488 0
263 820 62 0
417 374 -329 0
-783 -729 -469 0
264 -545 3 0
-685 -40 6 0
78 -704 -505 0
832 -770 -47 0
-160 -420 866 0
864 -728 -492 0
-658 602 -39 0
287 -870 25 0
-178 862 -128 0
284 -155 -691 0
496 211 -19 0
-505 553 533 0
-809 -900 8 0
295 -770 175 0
899 571 -520 0
886 -43 -3 0
309 -667 -167 0
693 -181 -57 0
252 693 93 0
677 -779 367 0
167 -171 -492 0
79 87 563 0
-684 361 25 0
895 -286 438 0
152 -476 470 0
-125 495 -303 0
-644 -586 315 0
-304 166 -590 0
-215 -673 17 0
62 369 546 0
698 133 -272 0
673 82 113 0
-739 382 685 0
88 222 -194 0
-823 -386 -485 0
392 -301 699 0
-543 -690 -517 0
-884 -392 -699 0
-337 -548 -223 0
-673 -772 -778 0
594 732 -409 0
-750 -550 865 0
-453 -364 94 0
-646 -867 -27 0
685 376 -874 0
-57 -545 -560 0
451 -474 -14 0
-412 520 -806 0
-485 40 -107 0
-33 40 195 0
-705 340 -172 0
776 -838 148 0
-651 271 -244 0
-861 -150 -457 0
-455 -464 -382 0
629 702 -454 0
-12 53 -328 0
-335 603 -78 0
822 -253 117 0
20 -409 -172 0
-413 619 262 0
-195 -364 -587 0
-84 -594 882 0
173 -158 664 0
191 -42 675 0
-329 -59 50 0
808 469 827 0
-672 266 224 0
-889 35 748 0
518 -34 -608 0
626 -426 661 0
43 346 -850 0
-834 471 -597 0
56 -740 -576 0
620 531 30 0
-164 265 -18 0
234 898 656 0
721 -562 387 0
725 141 -224 0
300 257 -763 0
362 858 -306 0
324 140 -156 0
-859 373 444 0
-240 84 467 0
-197 881 804 0
-442 432 -729 0
890 -77 -843 0
638 799 -2 0
767 498 538 0
696 -132 -383 0
142 605 13 0
321 661 725 0
862 530 320 0
-185 836 690 0
607 -355 648 0
-249 841 -898 0
489 890 -44 0
443 -468 67 0
19 463 52 0
-405 -703 180 0
9 -447 646 0
660 -81 63 0
97 -806 -165 0
373 447 418 0
-312 -497 -124 0
560 -792 562 0
470 668 125 0
-515 -567 -65 0
715 168 -898 0
618 673 -637 0
-313 -309 -169 0
-544 420 358 0
57 811 390 0
-235 -198 -137 0
646 -33 -221 0
-141 -365 748 0
703 728 543 0
343 851 -236 0
815 596 532 0
795 647 714 0
-160 471 -354 0
63 94 -269 0
-483 578 -69 0
290 611 623 0
667 801 800 0
-270 -100 780 0
300 489 -153 0
-617 311 -125 0
-325 217 627 0
-653 76 864 0
620 106 -177 0
217 568 -75 0
-776 402 777 0
855 -629 -53 0
-95 149 -393 0
-336 123 -860 0
-63 -339 23 0
592 889 -883 0
625 135 801 0
602 478 -610 0
195 -320 -198 0
-241 -643 491 0
-149 -395 -769 0
-638 -536 -231 0
-78 693 -344 0
381 694 48 0
-32 -480 670 0
603 328 -45 0
-694 648 415 0
-297 832 -283 0
666 525 -242 0
461 -719 15 0
-293 -220 -105 0
782 -224 239 0
593 113 -438 0
413 432 -866 0
452 -857 215 0
-397 -180 -689 0
452 119 515 0
321 -6 417 0
-322 393 -637 0
648 -534 298 0
93 -874 -894 0
-221 261 -14 0
455 181 -845 0
187 -623 -287 0
-56 -349 384 0
-58 -12 -23 0
-23 -282 -167 0
-683 -652 844 0
-353 -16 402 0
-194 -534 136 0
760 624 -824 0
265 -847 -299 0
-294 -621 715 0
885 -52 317 0
52 809 208 0
-424 -372 -229 0
664 105 36 0
-779 113 -741 0
605 -16 -655 0
757 433 529 0
721 476 -766 0
850 217 -560 0
349 -657 800 0
711 35 900 0
-786 -40 553 0
-763 821 680 0
109 -163 -506 0
-151 -169 617 0
-155 -842 839 0
283 -702 243 0
-31 -663 164 0
167 -371 -36 0
897 -833 -40 0
249 138 -461 0
357 588 444 0
461 358 410 0
465 162 119 0
35 -506 340 0
686 -296 -453 0
99 756 -224 0
-547 -768 -449 0
26 -818 -627 0
647 -759 -276 0
-820 181 -246 0
-122 -763 -644 0
98 -271 112 0
401 -769 799 0
186 -554 -597 0
223 -276 777 0
-154 -552 136 0
-296 -422 -484 0
-731 193 -669 0
-368 235 782 0
177 346 -682 0
320 -648 196 0
-432 200 537 0
202 823 878 0
-456 99 159 0
507 319 146 0
873 -73 -796 0
-803 94 -585 0
-742 799 629 0
773 114 -834 0
418 -209 -713 0
-365 624 878 0
-631 -416 -214 0
-104 687 -257 0
-261 457 161 0
481 814 257 0
34 -667 418 0
213 -824 371 0
-567 94 290 0
317 -259 859 0
-830 893 -243 0
893 -451 427 0
-203 779 -159 0
115 190 549 0
685 -638 -13 0
-292 -755 255 0
-624 -570 -524 0
-28 266 -41 0
271 539 585 0
-35 -225 -637 0
751 -541 -672 0
195 -80 -547 0
300 462 867 0
527 508 -334 0
380 -576 -806 0
-557 -90 147 0
-716 -247 -362 0
-842 -712 389 0
165 -452 -629 0
-6 716 -678 0
697 -882 72 0
-729 478 842 0
142 536 -297 0
-192 -473 -142 0
856 -180 -565 0
470 745 132 0
-202 479 -680 0
-187 -376 550 0
165 228 868 0
-369 -493 546 0
626 660 687 0
-408 -597 691 0
70 -505 528 0
-553 376 893 0
-370 -753 622 0
-175 758 -437 0
448 878 684 0
583 196 -667 0
554 397 -285 0
-560 258 642 0
655 853 -389 0
641 -430 391 0
111 867 -826 0
38 379 892 0
-874 863 -614 0
696 -647 306 0
-40 700 745 0
-721 728 399 0
-345 -467 674 0
25 875 808 0
314 884 -218 0
-16 -537 -318 0
-852 -40 630 0
529 -477 512 0
-127 -793 643 0
-472 320 -477 0
387 10 -788 0
553 295 787 0
359 -314 -578 0
134 -361 67 0
-698 184 -509 0
-681 -572 745 0
-71 783 42 0
-56 -210 -449 0
-11 656 298 0
376 -742 -218 0
29 402 -883 0
-87 182 458 0
231 -424 -738 0
-627 807 -725 0
525 743 -771 0
125 -355 -71 0
664 658 -681 0
608 -235 -285 0
397 129 321 0
223 -532 -640 0
154 -94 -211 0
64 759 292 0
703 -263 332 0
71 339 712 0
206 -492 198 0
255 -644 273 0
557 475 -561 0
-637 136 -724 0
65 513 -210 0
290 757 -337 0
132 768 -817 0
-165 486 892 0
-55 -132 -464 0
744 -175 -351 0
199 -582 -899 0
-502 517 -839 0
22 307 -777 0
245 -338 -352 0
427 -894 -646 0
224 -761 -71 0
63 363 -836 0
640 408 703 0
388 -839 327 0
114 -880 513 0
-816 -727 -896 0
685 -823 695 0
882 -809 -364 0
-516 -141 -288 0
-612 -801 342 0
-555 497 -134 0
-726 -1 513 0
-319 -230 -253 0
-536 898 -699 0
726 582 139 0
-854 356 661 0
-279 858 648 0
35 457 -611 0
865 300 -575 0
809 395 -790 0
187 -668 570 0
-658 407 112 0
533 84 -660 0
-643 -598 -449 0
-588 299 -17 0
-651 -677 -20 0
741 -476 -313 0
-254 -739 -736 0
-532 -17 155 0
-325 -675 196 0
-663 -34 -670 0
292 -37 132 0
-508 -194 -46 0
619 -601 125 0
-682 276 -712 0
668 546 814 0
803 -848 262 0
566 327 -733 0
436 -352 -542 0
-88 -443 255 0
577 -397 -437 0
-837 611 878 0
670 -170 229 0
429 -231 -889 0
752 525 -24 0
-659 -279 -296 0
495 501 827 0
31 848 -489 0
-584 428 546 0
529 -409 2 0
484 573 715 0
853 -10 -245 0
91 -855 120 0
447 -302 278 0
-565 -306 894 0
319 733 334 0
677 437 -670 0
149 -671 -454 0
-763 -895 -178 0
-819 -812 -639 0
-96 3 -218 0
-452 762 -733 0
-296 -194 305 0
131 250 34 0
27 257 -2 0
-80 215 314 0
440 243 43 0
-227 186 104 0
421 752 -331 0
-167 -494 -137 0
407 -143 75 0
-629 -774 -596 0
123 -71 788 0
149 -137 -125 0
7 -160 -52 0
745 -800 -330 0
-846 -803 421 0
-565 -270 -850 0
-596 232 439 0
-188 415 334 0
221 309 622 0
-643 780 -795 0
-236 -494 -117 0
-615 -426 133 0
857 448 -28 0
321 -727 -101 0
-193 -788 76 0
-724 461 -648 0
851 619 -602 0
33 -700 -64 0
-371 -799 472 0
136 429 423 0
290 -638 -130 0
-351 -219 212 0
209 191 740 0
203 83 641 0
154 -715 -640 0
551 460 885 0
-434 337 -824 0
67 135 -468 0
-291 438 707 0
824 -166 324 0
592 -166 -558 0
-88 -214 82 0
-432 809 -318 0
210 145 -353 0
-8 88 215 0
-66 136 699 0
114 -369 -698 0
-255 -694 -350 0
813 702 96 0
832 -788 -635 0
643 -393 210 0
657 255 -495 0
-269 -397 -858 0
-871 -46 29 0
-604 -69 -441 0
-157 -361 884 0
-735 307 -565 0
785 605 -167 0
505 743 801 0
-171 873 -235 0
73 -549 -757 0
-893 -570 156 0
-603 -566 -510 0
-536 -844 -37 0
-66 -296 356 0
135 331 260 0
615 617 -618 0
-854 -393 -618 0
834 -817 582 0
279 183 71 0
40 -680 -212 0
-282 382 -258 0
-829 278 -223 0
-690 -57 -468 0
-485 -766 -300 0
-11 34 -743 0
-481 230 405 0
877 697 -515 0
662 -677 690 0
-658 -606 206 0
436 67 -791 0
346 -665 -38 0
589 480 -561 0
-624 467 891 0
248 -323 191 0
-433 -704 167 0
193 82 630 0
605 478 -604 0
188 511 -843 0
19 540 686 0
680 -638 3 0
-64 187 452 0
-894 -106 369 0
368 492 -743 0
-697 636 539 0
-593 583 98 0
180 537 659 0
14 488 -423 0
191 -727 528 0
893 580 -755 0
449 -520 -86 0
823 -633 -848 0
-828 -52 396 0
-439 -414 -463 0
-55 -503 -356 0
-45 30 568 0
-104 -651 -184 0
-749 -874 -734 0
200 -424 -588 0
103 445 333 0
-141 57 -305 0
729 -473 -548 0
-530 97 -199 0
-623 888 356 0
68 724 567 0
-713 -411 -773 0
7 539 325 0
693 64 -868 0
190 -54 -88 0
-133 381 -856 0
-66 -133 808 0
-409 709 -397 0
-804 -440 -576 0
575 720 502 0
148 178 140 0
543 260 796 0
784 -556 -398 0
523 356 396 0
-534 154 539 0
-435 356 127 0
360 -719 -526 0
49 822 -861 0
706 -136 -116 0
-577 360 -266 0
528 -157 900 0
52 409 550 0
89 -406 317 0
462 213 28 0
231 -296 91 0
380 -16 721 0
-22 -250 50 0
-631 390 -198 0
-780 -830 731 0
23 400 509 0
797 -23 -265 0
697 -543 470 0
-400 -540 832 0
237 -579 429 0
812 -459 -105 0
-192 569 54 0
-171 724 -497 0
258 -67 713 0
-734 714 -242 0
554 177 -842 0
-509 615 -596 0
875 124 708 0
-99 650 752 0
427 126 -575 0
11 -501 -482 0
318 -26 2 0
-404 523 134 0
295 -183 -61 0
-205 -298 378 0
-438 -777 -50 0
-387 528 -875 0
730 505 24 0
635 16 39 0
-20 109 -85 0
15 -580 -161 0
-15 620 -221 0
191 -18 -313 0
358 102 838 0
-578 623 247 0
212 -829 -32 0
-103 -780 -292 0
576 -782 -807 0
364 242 -507 0
754 365 439 0
38 620 478 0
-67 148 266 0
-383 206 436 0
491 35 -77 0
-124 321 52 0
-295 630 558 0
85 -454 791 0
-625 456 -1 0
678 827 -166 0
689 547 -336 0
245 800 -894 0
-675 -864 589 0
479 -796 800 0
-23 818 -168 0
-478 830 608 0
617 -133 702 0
-578 -424 -784 0
-4 47 -33 0
-422 897 630 0
805 486 -336 0
258 -505 635 0
-91 -50 414 0
-49 -313 56 0
-784 -855 435 0
312 487 -463 0
-454 -734 -453 0
681 100 -108 0
-863 25 87 0
413 893 875 0
658 -555 205 0
-39 -285 -490 0
-179 28 602 0
198 305 67 0
199 -853 -162 0
-10 -20 -670 0
319 -885 -64 0
356 106 -675 0
892 -453 -503 0
-117 166 31 0
40 -308 243 0
870 20 -264 0
-411 645 281 0
579 -405 -16 0
244 663 -893 0
-49 687 130 0
-508 488 -61 0
147 -44 -596 0
-706 -171 630 0
-20 146 236 0
320 -534 -830 0
-448 -398 -176 0
466 483 -84 0
320 689 -19 0
130 -592 532 0
258 760 -336 0
564 205 -120 0
-835 574 96 0
638 331 -58 0
666 153 532 0
-386 -700 601 0
398 99 804 0
-159 -584 -715 0
-42 348 600 0
509 -128 537 0
271 -200 110 0
-413 489 -665 0
-228 -119 335 0
-695 338 -175 0
101 -156 845 0
711 -113 528 0
-846 831 256 0
-112 -620 -196 0
899 -704 93 0
-688 -831 232 0
-625 28 619 0
-646 -885 882 0
438 -807 -177 0
-872 438 664 0
850 -4 -722 0
-315 -420 290 0
262 -435 414 0
604 -465 -260 0
170 833 -526 0
-445 -894 -105 0
-115 463 -698 0
-457 -796 -361 0
220 -622 643 0
448 -710 187 0
-728 -82 -261 0
869 373 -25 0
268 -245 -287 0
-34 -828 381 0
845 -442 -769 0
259 -352 325 0
281 -333 -157 0
345 -889 708 0
-772 -440 -535 0
-79 -861 298 0
-198 -306 755 0
-257 -614 -788 0
290 -641 707 0
-490 -329 -442 0
-621 -793 158 0
399 -729 865 0
759 -560 -234 0
-515 -445 -77 0
-161 499 -39 0
895 440 277 0
812 531 -615 0
277 -404 -604 0
-465 -445 -402 0
-492 -639 -675 0
821 246 26 0
804 143 -481 0
273 306 -770 0
55 -648 -849 0
40 -724 431 0
-590 -852 46 0
613 338 50 0
-698 46 620 0
217 782 -505 0
-854 -203 -788 0
-101 751 472 0
402 608 -535 0
-618 -488 62 0
-853 564 392 0
370 -163 624 0
246 498 -563 0
-266 298 812 0
639 234 -522 0
636 -97 614 0
-172 -853 857 0
205 17 585 0
-557 -129 534 0
574 524 631 0
-15 610 -266 0
552 -809 183 0
147 -458 -610 0
-55 22 328 0
567 236 585 0
-505 -442 -602 0
-544 854 -316 0
-865 -623 -118 0
-256 -59 232 0
-97 552 625 0
-69 878 341 0
180 554 524 0
590 -363 293 0
-866 515 -281 0
338 -620 -385 0
-828 -415 50 0
277 685 125 0
-420 1 26 0
-337 339 -805 0
-775 -118 443 0
435 -900 -365 0
116 -583 -532 0
-257 472 -586 0
499 736 -508 0
-221 495 358 0
838 -521 591 0
872 -37 -64 0
-883 -499 444 0
377 859 -735 0
-551 -36 -893 0
-474 -439 -491 0
-773 500 498 0
-298 268 -24 0
-614 826 81 0
-539 -155 302 0
547 408 -751 0
812 207 -739 0
-73 -664 790 0
-285 -642 504 0
-102 -349 23 0
-603 -554 289 0
-795 890 431 0
304 -528 -127 0
-128 138 79 0
868 256 -259 0
29 542 425 0
-7 -774 2 0
-509 -273 605 0
-674 780 -330 0
531 640 -378 0
-880 388 620 0
407 100 396 0
463 -322 -85 0
627 871 827 0
-121 -504 695 0
-679 -339 8 0
-842 887 318 0
204 -629 612 0
-837 48 542 0
-130 31 93 0
85 -440 -735 0
880 -330 135 0
-687 203 -127 0
607 98 654 0
477 258 659 0
-880 134 -341 0
483 -793 17 0
318 794 807 0
446 -49 384 0
-774 322 751 0
120 -107 410 0
844 -749 730 0
-555 322 614 0
406 233 -212 0
-484 -552 -699 0
658 -525 656 0
-5 -18 138 0
-108 -41 -753 0
-71 -294 642 0
-893 617 -69 0
-664 818 813 0
108 542 372 0
632 213 -393 0
781 184 -1 0
133 -340 678 0
-768 -390 563 0
-319 -367 834 0
-550 -384 690 0
546 -197 -769 0
829 749 895 0
708 -739 -197 0
-837 523 443 0
76 -164 -512 0
-49 425 -328 0
-625 199 679 0
87 -81 -805 0
-498 162 -629 0
-274 -401 636 0
329 61 -566 0
-32 -255 -17 0
270 26 -611 0
-539 194 -75 0
705 606 540 0
-715 -692 826 0
-817 -174 -799 0
589 134 106 0
215 220 -423 0
548 -328 -863 0
-604 -406 488 0
854 91 -525 0
-69 -199 4 0
20 -732 13 0
-71 229 795 0
240 -176 869 0
-500 -831 277 0
-815 519 751 0
387 712 -439 0
-497 219 407 0
808 -656 -285 0
-59 -649 -191 0
-536 -843 -285 0
596 -425 -261 0
-379 325 -267 0
143 501 761 0
139 -651 830 0
800 -635 5 0
-707 -401 -328 0
492 -880 477 0
288 689 -530 0
-91 -744 -616 0
-397 566 -91 0
597 -23 656 0
-475 -620 183 0
-781 -330 -844 0
-443 553 488 0
-741 -840 -847 0
768 -387 -495 0
790 -86 -151 0
-364 420 -756 0
216 582 -21 0
-330 -489 513 0
-881 431 597 0
874 12 -667 0
-254 -48 876 0
-500 -227 -57 0
-444 516 -889 0
619 738 -420 0
647 -582 670 0
-498 -237 -890 0
-660 -562 -304 0
-400 96 501 0
-263 -729 -399 0
549 358 270 0
-606 491 85 0
-512 491 443 0
732 -772 479 0
-125 270 -520 0
-647 170 -556 0
140 -730 73 0
-230 874 -882 0
-633 763 -146 0
421 -686 -297 0
-401 -685 824 0
270 144 -340 0
-242 516 -796 0
-288 -896 428 0
719 -846 -851 0
583 -823 340 0
-362 -830 647 0
402 -565 443 0
77 523 -838 0
619 708 -63 0
-352 876 -190 0
9 -336 267 0
247 567 -28 0
-661 -565 -613 0
183 -712 -8 0
103 -81 660 0
-652 279 -387 0
-248 -709 860 0
-32 204 158 0
-66 166 136 0
253 553 -45 0
656 -472 -445 0
-98 519 645 0
824 109 119 0
-242 -70 -804 0
-888 -270 -184 0
-423 72 -302 0
-94 -541 -868 0
307 -573 524 0
207 783 -76 0
551 -545 255 0
200 -270 -142 0
-715 -733 -667 0
289 -18 -431 0
528 -537 -882 0
116 356 719 0
720 -60 236 0
370 354 57 0
604 839 183 0
428 -380 -778 0
-57 -766 -811 0
13 -18 -756 0
-218 -638 -203 0
258 762 541 0
-367 -587 142 0
-309 21 -15 0
-791 -616 -419 0
238 -391 618 0
-487 317 797 0
-751 302 351 0
344 -771 302 0
676 -92 -536 0
-40 -633 610 0
-342 -239 692 0
148 321 -788 0
-468 647 -263 0
298 568 537 0
-388 -705 -309 0
-812 470 755 0
-470 871 -226 0
94 627 799 0
137 367 -163 0
759 -638 -446 0
768 -221 -405 0
332 482 676 0
-216 835 470 0
-554 279 -130 0
800 664 808 0
-478 150 163 0
-128 -108 801 0
427 73 726 0
-611 548 253 0
265 -559 -721 0
-443 299 -86 0
-233 -181 486 0
-531 395 -322 0
-769 697 -700 0
25 -551 -442 0
-45 -890 -656 0
-647 554 -422 0
-820 -738 147 0
37 604 737 0
-711 797 -287 0
-382 320 715 0
-873 298 -690 0
767 56 736 0
-899 332 723 0
553 -759 -301 0
-599 293 -850 0
192 608 -207 0
16 665 177 0
-705 -197 360 0
174 -277 -185 0
-805 339 442 0
-290 262 -407 0
-723 168 43 0
-18 -217 -509 0
-253 -417 146 0
817 -782 -599 0
-434 628 332 0
134 -31 794 0
-779 417 251 0
765 -214 46 0
-322 -855 41 0
835 777 419 0
-690 -465 -218 0
-762 441 342 0
-774 -328 681 0
752 337 -843 0
-870 -549 452 0
-49 -63 827 0
-481 -454 805 0
-655 -305 11 0
693 713 83 0
-159 -285 -758 0
766 469 601 0
-784 453 -586 0
-52 -849 -871 0
226 -216 462 0
235 -187 -838 0
251 -601 763 0
-186 819 225 0
-381 -376 -65 0
809 529 138 0
-558 234 -506 0
771 -15 871 0
86 828 764 0
11 378 753 0
826 684 -140 0
-605 348 518 0
475 850 -633 0
-327 253 -3 0
-598 -669 512 0
250 -218 -678 0
618 -319 740 0
-105 68 -419 0
25 105 436 0
656 -188 -93 0
789 -790 382 0
467 -694 -355 0
-399 386 -408 0
-368 -219 339 0
-605 555 492 0
399 -792 531 0
303 -582 153 0
889 819 649 0
-616 347 127 0
-546 -120 96 0
-439 233 -516 0
434 -570 -212 0
286 568 387 0
32 -686 -22 0
-269 241 -677 0
358 -524 838 0
681 312 -208 0
453 343 765 0
803 257 -684 0
779 -455 -821 0
854 582 361 0
440 -47 799 0
177 272 -767 0
-382 181 -32 0
-207 -522 424 0
850 -125 -103 0
-647 88 -471 0
-546 -449 276 0
-766 125 -480 0
-464 -86 -362 0
-405 -520 -622 0
-624 -660 -893 0
544 -91 -229 0
305 -66 192 0
722 -195 812 0
-657 854 -413 0
-445 341 464 0
40 -122 -522 0
20 347 52 0
-145 -543 -637 0
596 369 172 0
-459 -119 -512 0
426 -245 -239 0
-524 186 109 0
-27 888 109 0
76 -207 599 0
628 -147 196 0
426 865 206 0
504 262 815 0
-751 -770 684 0
-481 854 316 0
-414 -668 39 0
-860 365 154 0
-486 784 573 0
518 849 -638 0
-383 1 -449 0
-750 93 82 0
492 -886 -895 0
-411 479 781 0
-368 429 -477 0
-778 -345 329 0
-381 -758 52 0
-618 -718 490 0
8 -433 -448 0
566 -207 -135 0
-900 -600 -390 0
-844 -219 -168 0
-603 -718 -771 0
-805 419 -363 0
-590 565 538 0
718 479 693 0
541 -75 685 0
443 -179 700 0
-460 648 -858 0
703 191 688 0
-256 -722 -285 0
251 -515 85 0
655 -73 -235 0
-353 257 232 0
36 18 24 0
747 -816 -349 0
-313 -2 356 0
-124 -899 828 0
-586 865 139 0
227 -161 -373 0
-183 237 557 0
-735 618 833 0
-714 -567 802 0
827 -493 -756 0
-21 341 -859 0
-655 -634 455 0
349 495 -123 0
530 578 766 0
-142 -99 -747 0
872 -817 -368 0
-332 -725 -741 0
-506 286 -251 0
-714 451 314 0
439 -650 -756 0
-540 307 -23 0
816 -526 640 0
53 534 874 0
-296 650 -900 0
-142 -709 808 0
37 -91 -621 0
-446 -788 547 0
-675 -809 -762 0
338 703 -229 0
154 473 6 0
-397 802 871 0
-149 78 -685 0
497 -96 -72 0
-798 416 896 0
831 -20 387 0
564 -543 565 0
713 185 77 0
153 262 -293 0
-474 620 -611 0
-565 307 144 0
-897 692 12 0
837 30 -900 0
4 347 -197 0
172 154 248 0
739 -248 -327 0
-438 239 115 0
-387 544 -862 0
743 65 529 0
867 845 248 0
636 -181 -688 0
122 -197 50 0
-525 -764 -218 0
845 -216 872 0
800 40 552 0
606 42 -603 0
1 -193 126 0
225 152 -164 0
121 804 -24 0
-335 464 -746 0
444 -896 -109 0
-109 31 -802 0
294 -278 -630 0
-422 -119 -9 0
-88 -198 -852 0
818 -165 301 0
784 -861 -356 0
857 25 240 0
-366 499 410 0
190 -744 513 0
887 -724 142 0
519 737 -402 0
81 -831 216 0
833 -462 -158 0
-766 -48 13 0
162 595 -426 0
329 740 -94 0
-836 -130 -70 0
-866 646 -483 0
-89 215 66 0
-297 211 -712 0
-129 691 -686 0
-792 308 -746 0
239 -869 -310 0
-693 707 496 0
-416 51 -264 0
402 -398 119 0
163 578 525 0
386 -150 -712 0
-893 -281 434 0
68 29 -227 0
-226 -333 -733 0
817 -844 428 0
-325 772 -337 0
635 -439 -691 0
-602 661 90 0
474 -526 -3 0
641 637 151 0
-219 887 -37 0
701 -528 832 0
-700 262 206 0
-799 -547 -116 0
-816 -4 766 0
641 -693 647 0
-74 33 623 0
-245 641 -543 0
-410 -707 -232 0
181 -473 -841 0
-465 568 81 0
-119 535 -154 0
367 -69 184 0
-635 784 -36 0
351 95 -350 0
-884 -567 -309 0
529 298 96 0
-643 -87 627 0
-885 -374 172 0
618 233 2 0
343 693 -391 0
897 -462 -117 0
875 -637 -640 0
490 585 -730 0
-200 -280 563 0
507 714 238 0
-147 604 6 0
311 163 -752 0
-39 -466 -405 0
779 216 -898 0
652 769 49 0
534 -765 514 0
-743 -45 202 0
615 -58 -496 0
-225 507 693 0
395 537 829 0
712 -62 563 0
-279 131 -671 0
-726 224 -408 0
575 -154 -304 0
-574 769 518 0
787 593 93 0
-275 204 -882 0
521 341 -219 0
649 -95 3 0
254 -167 675 0
770 649 499 0
-740 -216 535 0
382 -262 -286 0
869 411 -381 0
708 -835 534 0
-669 381 -429 0
-165 -700 -354 0
-24 -674 -311 0
733 872 507 0
-243 380 553 0
-330 -164 -372 0
356 613 -105 0
-421 815 733 0
-661 -646 166 0
-142 -866 -75 0
707 578 -136 0
-708 -487 -517 0
-804 -601 702 0
-689 895 453 0
393 713 -440 0
608 -188 267 0
620 622 -207 0
192 304 338 0
-23 142 -61 0
-243 2 62 0
-855 -434 -480 0
-141 545 -285 0
-898 270 204 0
-761 889 549 0
469 422 894 0
333 699 -32 0
-449 -537 806 0
476 395 -833 0
395 -24 692 0
119 142 649 0
-297 445 509 0
756 93 -727 0
322 -545 -291 0
767 -655 -493 0
770 -724 708 0
157 451 342 0
223 -65 -641 0
648 79 550 0
-52 -122 878 0
404 571 345 0
394 64 -142 0
611 -716 514 0
-278 594 699 0
168 -82 -825 0
-776 -316 -87 0
-439 636 -78 0
-130 95 199 0
865 689 -754 0
-569 -856 -36 0
146 -858 -393 0
-382 847 -219 0
846 394 34 0
144 79 800 0
555 -680 -428 0
6 -679 459 0
877 -654 -811 0
-440 694 326 0
-102 784 565 0
329 -90 -529 0
-377 780 -166 0
-789 340 3 0
-840 -276 -155 0
306 -553 -340 0
-712 414 -702 0
-555 -765 359 0
-125 -170 -188 0
-740 741 537 0
-352 -177 -601 0
25 667 -36 0
797 -230 762 0
-672 -696 -216 0
-180 -484 -576 0
-646 288 -152 0
-785 -743 94 0
243 705 -254 0
-431 182 -228 0
-272 -636 -522 0
88 -217 -706 0
891 565 -219 0
-50 450 881 0
645 157 -659 0
271 -274 591 0
-378 253 489 0
854 -391 360 0
-759 -476 -473 0
642 341 -275 0
-302 327 -115 0
-55 863 -376 0
-107 -809 -554 0
-495 -90 119 0
-332 -820 236 0
-826 -13 64 0
497 595 290 0
-721 -213 -516 0
724 498 -637 0
-733 -453 324 0
469 -118 512 0
-328 -613 -485 0
455 -567 -551 0
-337 404 688 0
220 311 -601 0
-442 -233 539 0
863 23 -750 0
254 -673 -533 0
183 607 -353 0
-752 -404 270 0
290 -98 -727 0
211 832 -680 0
-542 753 -313 0
800 355 -780 0
-34 333 -788 0
374 475 -149 0
-875 223 615 0
169 -33 712 0
-202 -889 -646 0
504 -618 -737 0
323 603 552 0
-698 -810 571 0
-27 166 510 0
-850 -761 561 0
778 697 854 0
-403 525 678 0
371 -169 -765 0
-363 498 -566 0
281 752 -61 0
413 -391 609 0
359 746 -256 0
-286 -688 -438 0
209 -307 613 0
392 -741 -268 0
302 -644 162 0
855 202 523 0
345 794 -301 0
350 -202 -39 0
-382 -521 -611 0
574 227 -238 0
171 -351 117 0
-189 -680 437 0
524 667 856 0
-48 320 -268 0
300 -47 -848 0
230 -39 767 0
-432 -671 -681 0
-10 -667 -175 0
-815 -630 -8 0
-467 601 633 0
-495 -326 127 0
261 178 426 0
30 481 -207 0
-715 -710 -303 0
861 675 -115 0
-259 441 -162 0
585 254 -202 0
480 376 -484 0
797 -192 -158 0
-458 200 -250 0
-401 409 -677 0
461 -560 194 0
650 -160 778 0
-70 342 -161 0
843 -387 771 0
-77 29 821 0
871 281 -27 0
-879 -754 868 0
491 252 -84 0
551 -263 -161 0
-372 408 -81 0
578 265 -748 0
-812 -401 -693 0
653 143 376 0
-882 457 -764 0
-865 -849 124 0
-743 -450 -187 0
331 -540 105 0
776 298 671 0
-107 -59 -176 0
454 -28 -738 0
-759 762 195 0
132 -801 -605 0
-252 -559 630 0
-252 -896 822 0
715 -488 -301 0
-214 430 709 0
710 -30 427 0
84 435 37 0
614 773 -738 0
-296 10 -272 0
-368 369 -288 0
475 -872 156 0
799 442 758 0
-147 573 -461 0
-660 -15 -24 0
-198 -289 870 0
-243 557 -267 0
507 723 -172 0
-8 615 600 0
-578 -592 -246 0
-435 875 -864 0
601 -820 394 0
287 424 863 0
645 227 894 0
528 765 -8 0
196 -900 -625 0
-480 394 603 0
751 753 573 0
-784 -835 742 0
91 783 534 0
817 -559 338 0
32 339 223 0
178 -74 301 0
418 349 42 0
-198 869 849 0
-313 718 -828 0
-274 -393 898 0
-248 759 -698 0
-331 487 358 0
-146 -181 -238 0
-167 -858 83 0
739 261 -862 0
-348 529 -251 0
-461 -340 351 0
88 341 -859 0
105 87 -122 0
-377 67 125 0
-384 -617 219 0
-224 -256 834 0
-296 197 -104 0
-305 -518 -147 0
-307 -445 -196 0
165 221 -636 0
197 486 481 0
721 793 49 0
-59 312 -820 0
594 882 -74 0
569 -644 -261 0
-696 701 -270 0
-584 -263 863 0
567 129 -793 0
-65 192 -786 0
149 43 -765 0
7 -308 -633 0
4 -710 867 0
851 66 571 0
-619 480 685 0
363 -900 737 0
113 -823 252 0
572 -795 -558 0
-332 -281 349 0
867 796 -789 0
-247 34 -316 0
-807 -328 251 0
194 -440 720 0
-361 312 305 0
-765 115 -647 0
-556 835 564 0
173 -462 -590 0
3 -672 215 0
-210 500 -394 0
-741 87 -760 0
685 825 -750 0
-579 299 -717 0
-359 -459 244 0
-628 33 -607 0
92 -342 -476 0
125 493 492 0
338 -318 38 0
-873 -330 173 0
450 617 -679 0
-414 -2 -615 0
543 128 507 0
580 -304 -25 0
-96 805 -117 0
-885 532 441 0
625 -403 348 0
-704 -454 -555 0
667 690 -467 0
429 707 670 0
-71 -888 855 0
-871 -400 -532 0
-770 -451 301 0
397 -737 -778 0
-434 -187 -226 0
367 -776 -691 0
321 349 105 0
887 -595 798 0
676 630 436 0
300 -713 284 0
-283 -611 898 0
512 809 590 0
898 547 -68 0
-54 -12 556 0
-567 -320 573 0
785 -44 -749 0
-24 282 431 0
-73 257 152 0
516 -156 -743 0
-60 -551 16 0
-615 -104 -609 0
681 755 76 0
-85 -205 -253 0
165 -519 846 0
587 -540 -496 0
-172 -645 454 0
82 -729 -195 0
91 715 133 0
759 193 -693 0
584 -747 743 0
-818 -654 -419 0
349 -660 -837 0
-9 552 804 0
806 143 279 0
-612 -794 -114 0
362 -18 259 0
705 -589 720 0
367 -144 613 0
-868 380 21 0
-754 159 -17 0
-578 -248 -70 0
-549 400 814 0
611 -185 -108 0
-670 516 -260 0
-827 683 119 0
-732 -215 363 0
627 -178 -127 0
-46 -311 -533 0
-562 189 -564 0
431 -891 -555 0
267 855 645 0
448 -185 -458 0
-299 -810 -38 0
498 -628 531 0
-310 52 666 0
37 693 -304 0
622 -362 -269 0
-805 105 -291 0
843 485 -584 0
337 -482 -848 0
711 341 888 0
-288 416 28 0
-879 -195 184 0
687 -94 422 0
215 -244 -349 0
-318 -539 -43 0
834 -63 552 0
-213 -656 46 0
176 -127 -435 0
-859 182 -782 0
-569 502 132 0
99 -775 -719 0
869 798 437 0
-517 -99 331 0
-359 -341 273 0
-731 -304 215 0
-860 -325 -206 0
-676 822 -393 0
202 -574 -723 0
322 403 299 0
438 -777 -585 0
297 -290 -267 0
-354 281 -264 0
703 476 -363 0
-783 658 137 0
898 776 132 0
215 -830 -220 0
-811 -305 -519 0
598 -44 -83 0
-598 780 530 0
78 -148 114 0
42 -12 -667 0
144 723 328 0
406 311 -770 0
-484 -153 -326 0
-552 887 537 0
179 -95 -171 0
134 757 -31 0
-663 -619 195 0
-814 -856 282 0
-800 784 -767 0
-357 -91 -253 0
-825 800 -416 0
-381 -704 153 0
-113 -48 814 0
753 631 630 0
602 220 -656 0
194 203 -296 0
22 250 212 0
849 181 -622 0
-375 -278 694 0
-605 -35 809 0
778 752 -526 0
188 -341 -790 0
440 -30 -394 0
121 -353 -503 0
-482 -30 893 0
-225 -447 -688 0
-677 -844 173 0
-805 -212 -378 0
898 110 820 0
542 -639 83 0
239 -51 -169 0
349 -469 745 0
-170 116 -478 0
688 -249 -748 0
-592 -369 377 0
-159 76 -274 0
-558 646 -167 0
-462 530 -869 0
-390 -309 -829 0
806 756 -748 0
-169 -2 -321 0
742 -472 -195 0
-572 -271 685 0
-701 -266 -722 0
-100 88 235 0
669 -880 -352 0
-641 645 -840 0
-730 -808 -423 0
-372 305 -437 0
301 778 556 0
-503 -96 -500 0
537 -350 -218 0
874 -834 212 0
529 602 -826 0
-452 -706 520 0
-730 789 268 0
235 -90 858 0
-431 -539 -815 0
474 312 -193 0
588 589 274 0
-604 434 -115 0
-743 9 -445 0
-465 216 -192 0
-490 -487 370 0
-566 -854 5 0
294 -637 -299 0
220 373 718 0
-245 -274 331 0
566 208 -55 0
-418 234 -638 0
297 738 589 0
163 765 585 0
-820 -379 516 0
629 -153 616 0
418 289 143 0
895 367 70 0
711 -579 -592 0
-453 -228 -131 0
-750 116 325 0
-729 242 -832 0
-147 -47 633 0
279 652 365 0
-693 -167 479 0
634 380 190 0
-139 -541 80 0
144 470 634 0
469 -617 -435 0
272 329 342 0
-547 -112 438 0
-362 -375 -247 0
-690 226 -422 0
-783 -586 -549 0
739 506 -744 0
602 -732 800 0
368 -257 -426 0
-578 308 -806 0
-591 -387 695 0
-222 -767 -897 0
-797 -796 -401 0
-597 345 728 0
-877 -253 457 0
572 381 -355 0
638 -381 -68 0
150 -522 -223 0
173 -370 426 0
-380 -621 -448 0
-78 -19 -111 0
-730 384 124 0
433 307 226 0
754 506 -353 0
-794 31 -892 0
689 -47 777 0
-507 -645 289 0
467 -317 397 0
844 -549 -49 0
373 26 -535 0
142 -20 -216 0
98 539 859 0
-461 -554 -615 0
329 415 115 0
134 -296 613 0
-852 -380 -213 0
213 -694 605 0
272 301 382 0
519 -278 -495 0
649 -131 550 0
107 -289 -733 0
-234 207 -194 0
-756 -818 470 0
-301 -590 -716 0
674 -826 -232 0
-275 35 -306 0
785 843 896 0
-702 -286 562 0
-210 819 350 0
-582 -377 133 0
-887 -613 -279 0
209 213 -440 0
-221 160 -619 0
179 895 -484 0
-710 -366 -372 0
-545 220 589 0
87 207 -495 0
-213 146 556 0
623 -775 848 0
-254 718 -580 0
-395 -670 -895 0
518 322 768 0
-292 -212 -655 0
404 -523 96 0
184 484 -689 0
500 -160 -701 0
203 -265 609 0
417 573 -19 0
-266 757 -723 0
-373 484 753 0
406 806 794 0
140 -888 634 0
168 854 -481 0
-719 -311 -561 0
254 370 303 0
-438 625 -153 0
-282 -220 -647 0
-182 -128 -818 0
-811 891 -532 0
441 -886 -383 0
310 251 535 0
710 159 -6 0
-654 -164 327 0
-12 68 -679 0
-778 -59 -12 0
593 173 -127 0
-153 665 -663 0
452 -171 -686 0
-5 371 -645 0
468 765 -15 0
559 -678 -420 0
430 -48 -676 0
-229 -407 -845 0
585 336 -869 0
-407 562 -199 0
476 416 221 0
888 780 -733 0
-718 -520 696 0
-878 -661 450 0
-642 383 77 0
120 -53 -227 0
-675 -68 -60 0
182 -220 -191 0
782 -846 -111 0
402 -865 536 0
679 784 -376 0
369 531 233 0
-15 183 602 0
-207 -603 -831 0
598 -382 -767 0
97 688 -676 0
213 161 376 0
714 -612 -415 0
150 830 -566 0
817 622 -764 0
-493 832 100 0
-815 -525 -167 0
639 627 832 0
122 -357 93 0
369 -251 -241 0
307 -446 -531 0
-46 -146 865 0
-219 668 316 0
642 -607 683 0
-594 -533 814 0
-177 711 -642 0
-637 -316 580 0
-629 520 752 0
665 751 -896 0
674 806 45 0
649 -224 188 0
-669 -702 253 0
160 -211 -567 0
568 -824 393 0
-788 571 493 0
298 297 -759 0
108 698 -851 0
-571 -838 524 0
-49 -297 -665 0
-604 49 -420 0
136 452 610 0
-700 17 -234 0
-183 287 64 0
430 -787 163 0
-517 -242 243 0
855 152 -617 0
655 -859 -888 0
-436 -318 -732 0
-808 -164 702 0
-880 -276 -173 0
409 -690 35 0
-5 173 650 0
575 -96 191 0
739 -879 -1 0
716 163 -765 0
-99 -626 157 0
281 23 322 0
-299 729 416 0
273 -350 485 0
4 569 315 0
401 161 -459 0
349 851 858 0
437 314 -35 0
50 578 -884 0
-508 864 656 0
-10 732 -269 0
-753 -127 -775 0
-86 248 -190 0
738 -696 131 0
37 -754 838 0
-809 -267 -244 0
-144 185 -54 0
-506 726 -322 0
116 494 534 0
580 -567 -76 0
836 175 499 0
875 -843 358 0
730 -616 92 0
10 -832 -789 0
-86 512 629 0
376 -369 427 0
184 -518 730 0
-437 -470 -60 0
763 -3 859 0
-318 -55 -328 0
376 -705 760 0
-298 -405 333 0
468 895 358 0
478 -657 -439 0
-192 -429 -228 0
-756 -487 -102 0
-401 410 -406 0
742 769 -36 0
337 -699 502 0
-643 777 -76 0
171 139 -812 0
-698 -121 -562 0
518 -841 550 0
-141 225 -400 0
-101 692 698 0
-838 -507 -31 0
888 542 284 0
861 454 -496 0
-340 344 -452 0
278 -70 -156 0
-632 -343 -274 0
28 -708 -52 0
785 41 -718 0
296 103 609 0
-678 -15 559 0
57 487 -614 0
-39 149 815 0
135 -224 -436 0
24 -26 -898 0
-267 -340 373 0
-858 -736 538 0
236 -537 145 0
717 -26 586 0
-850 11 -424 0
594 341 -608 0
-851 217 -580 0
-305 255 749 0
-780 350 -508 0
-784 779 103 0
134 870 491 0
411 -815 231 0
793 -510 328 0
-570 19 396 0
-84 -407 -704 0
88 682 -193 0
-803 -235 87 0
-455 -538 822 0
557 19 -723 0
-264 709 6 0
339 735 709 0
855 -738 -128 0
822 546 -520 0
-385 510 -522 0
722 585 761 0
351 -328 -547 0
-748 -888 724 0
94 491 573 0
-884 794 307 0
-490 259 125 0
-555 681 365 0
-528 857 477 0
-351 288 -168 0
-311 75 -203 0
323 296 806 0
-6 -790 778 0
630 -896 766 0
258 -326 -637 0
282 813 55 0
-369 650 211 0
861 -291 790 0
760 200 529 0
697 760 387 0
-549 605 647 0
698 -447 -884 0
240 -773 -212 0
337 138 -533 0
-899 809 246 0
-457 -776 -496 0
610 -306 -632 0
-139 178 -158 0
742 -485 375 0
-454 -787 -392 0
95 -538 -379 0
735 360 3 0
525 -773 421 0
-473 -825 434 0
354 -773 -688 0
-481 158 -484 0
-348 -239 -206 0
419 -866 -764 0
127 798 -424 0
179 -275 524 0
140 639 -217 0
103 -757 -804 0
-684 -401 246 0
788 610 -750 0
-9 -738 718 0
345 -614 479 0
619 -550 -685 0
