c mixed random circuit, inputs=24 gates=300, last 24 signals pinned to a planted input assignment; input variables are 1..24
c generated by TurboCryptoSAT gen-benchmark - satisfiable by construction
p cnf 322 981
-25 -1 -6 0
-25 1 6 0
25 1 -6 0
25 -1 6 0
-26 -25 0
-26 23 0
26 25 -23 0
-27 -19 24 0
-27 19 -24 0
27 19 24 0
27 -19 -24 0
-28 19 0
-28 17 0
28 -19 -17 0
-29 -26 0
-29 -27 0
29 26 27 0
-30 -17 0
-30 12 0
30 17 -12 0
-31 16 0
-31 -23 0
31 -16 23 0
-32 -29 0
-32 -23 0
32 29 23 0
-33 15 0
-33 -8 0
33 -15 8 0
-34 3 -16 0
-34 -3 16 0
34 -3 -16 0
34 3 16 0
-35 33 0
-35 -17 0
35 -33 17 0
-36 -23 0
-36 10 0
36 23 -10 0
-37 11 0
-37 -9 0
37 -11 9 0
-38 -37 0
-38 -4 0
38 37 4 0
-39 -2 0
-39 -24 0
39 2 24 0
-40 31 0
-40 27 0
40 -31 -27 0
-41 -16 -5 0
-41 16 5 0
41 16 -5 0
41 -16 5 0
-42 -20 0
-42 -10 0
42 20 10 0
-43 -15 0
-43 32 0
43 15 -32 0
-44 -27 0
-44 -29 0
44 27 29 0
-45 -15 0
-45 -16 0
45 15 16 0
-46 26 0
-46 44 0
46 -26 -44 0
-47 12 0
-47 45 0
47 -12 -45 0
-48 -9 0
-48 33 0
48 9 -33 0
-49 30 47 0
-49 -30 -47 0
49 -30 47 0
49 30 -47 0
-50 20 3 0
-50 -20 -3 0
50 -20 3 0
50 20 -3 0
-51 42 -32 0
-51 -42 32 0
51 -42 -32 0
51 42 32 0
-52 34 0
-52 -5 0
52 -34 5 0
-53 2 0
-53 -31 0
53 -2 31 0
-54 -26 3 0
-54 26 -3 0
54 26 3 0
54 -26 -3 0
-55 2 0
-55 -15 0
55 -2 15 0
-56 -43 9 0
-56 43 -9 0
56 43 9 0
56 -43 -9 0
-57 39 0
-57 -18 0
57 -39 18 0
-58 -33 31 0
-58 33 -31 0
58 33 31 0
58 -33 -31 0
-59 57 -49 0
-59 -57 49 0
59 -57 -49 0
59 57 49 0
-60 -31 0
-60 7 0
60 31 -7 0
-61 -38 36 0
-61 38 -36 0
61 38 36 0
61 -38 -36 0
-62 28 0
-62 13 0
62 -28 -13 0
-63 -34 0
-63 -20 0
63 34 20 0
-64 -22 0
-64 -19 0
64 22 19 0
-65 -36 0
-65 -14 0
65 36 14 0
-66 40 0
-66 23 0
66 -40 -23 0
-67 3 0
-67 -12 0
67 -3 12 0
-68 -25 0
-68 -1 0
68 25 1 0
-69 -35 25 0
-69 35 -25 0
69 35 25 0
69 -35 -25 0
-70 -27 0
-70 28 0
70 27 -28 0
-71 -70 0
-71 26 0
71 70 -26 0
-72 -18 63 0
-72 18 -63 0
72 18 63 0
72 -18 -63 0
-73 -43 0
-73 38 0
73 43 -38 0
-74 -14 0
-74 -32 0
74 14 32 0
-75 -38 0
-75 36 0
75 38 -36 0
-76 73 0
-76 63 0
76 -73 -63 0
-77 -25 2 0
-77 25 -2 0
77 25 2 0
77 -25 -2 0
-78 76 0
-78 40 0
78 -76 -40 0
-79 3 0
-79 -62 0
79 -3 62 0
-80 58 0
-80 15 0
80 -58 -15 0
-81 -1 0
-81 70 0
81 1 -70 0
-82 4 0
-82 3 0
82 -4 -3 0
-83 -59 0
-83 21 0
83 59 -21 0
-84 -58 0
-84 -40 0
84 58 40 0
-85 6 77 0
-85 -6 -77 0
85 -6 77 0
85 6 -77 0
-86 72 0
-86 47 0
86 -72 -47 0
-87 -71 0
-87 -74 0
87 71 74 0
-88 -72 0
-88 -29 0
88 72 29 0
-89 -76 0
-89 -74 0
89 76 74 0
-90 -81 0
-90 39 0
90 81 -39 0
-91 5 0
-91 37 0
91 -5 -37 0
-92 38 0
-92 -36 0
92 -38 36 0
-93 -63 0
-93 -77 0
93 63 77 0
-94 62 0
-94 -64 0
94 -62 64 0
-95 34 0
-95 -1 0
95 -34 1 0
-96 -43 20 0
-96 43 -20 0
96 43 20 0
96 -43 -20 0
-97 -59 0
-97 -18 0
97 59 18 0
-98 48 -73 0
-98 -48 73 0
98 -48 -73 0
98 48 73 0
-99 -32 0
-99 -43 0
99 32 43 0
-100 -69 -90 0
-100 69 90 0
100 69 -90 0
100 -69 90 0
-101 -27 0
-101 -90 0
101 27 90 0
-102 4 0
-102 -96 0
102 -4 96 0
-103 47 28 0
-103 -47 -28 0
103 -47 28 0
103 47 -28 0
-104 -15 0
-104 -19 0
104 15 19 0
-105 72 0
-105 22 0
105 -72 -22 0
-106 -34 0
-106 97 0
106 34 -97 0
-107 -53 0
-107 -73 0
107 53 73 0
-108 48 -10 0
-108 -48 10 0
108 -48 -10 0
108 48 10 0
-109 -69 0
-109 55 0
109 69 -55 0
-110 -27 0
-110 15 0
110 27 -15 0
-111 -76 0
-111 29 0
111 76 -29 0
-112 -99 0
-112 86 0
112 99 -86 0
-113 38 0
-113 -65 0
113 -38 65 0
-114 -31 -87 0
-114 31 87 0
114 31 -87 0
114 -31 87 0
-115 102 -37 0
-115 -102 37 0
115 -102 -37 0
115 102 37 0
-116 76 0
-116 24 0
116 -76 -24 0
-117 -58 0
-117 97 0
117 58 -97 0
-118 -81 0
-118 89 0
118 81 -89 0
-119 16 0
-119 -17 0
119 -16 17 0
-120 1 0
-120 -22 0
120 -1 22 0
-121 72 0
-121 -108 0
121 -72 108 0
-122 -15 -78 0
-122 15 78 0
122 15 -78 0
122 -15 78 0
-123 48 0
-123 -18 0
123 -48 18 0
-124 8 0
-124 -105 0
124 -8 105 0
-125 -55 0
-125 -40 0
125 55 40 0
-126 116 0
-126 46 0
126 -116 -46 0
-127 -6 0
-127 97 0
127 6 -97 0
-128 16 0
-128 -103 0
128 -16 103 0
-129 -78 0
-129 -9 0
129 78 9 0
-130 66 0
-130 -81 0
130 -66 81 0
-131 -24 0
-131 -107 0
131 24 107 0
-132 107 0
-132 54 0
132 -107 -54 0
-133 11 0
-133 -75 0
133 -11 75 0
-134 95 0
-134 -21 0
134 -95 21 0
-135 113 0
-135 -95 0
135 -113 95 0
-136 52 0
-136 -102 0
136 -52 102 0
-137 49 21 0
-137 -49 -21 0
137 -49 21 0
137 49 -21 0
-138 -84 -88 0
-138 84 88 0
138 84 -88 0
138 -84 88 0
-139 -4 0
-139 42 0
139 4 -42 0
-140 -89 0
-140 -28 0
140 89 28 0
-141 63 0
-141 23 0
141 -63 -23 0
-142 53 0
-142 -8 0
142 -53 8 0
-143 138 0
-143 -104 0
143 -138 104 0
-144 128 0
-144 -45 0
144 -128 45 0
-145 105 61 0
-145 -105 -61 0
145 -105 61 0
145 105 -61 0
-146 -31 0
-146 30 0
146 31 -30 0
-147 -136 0
-147 30 0
147 136 -30 0
-148 -111 0
-148 123 0
148 111 -123 0
-149 54 0
-149 -29 0
149 -54 29 0
-150 -57 -18 0
-150 57 18 0
150 57 -18 0
150 -57 18 0
-151 -9 0
-151 -63 0
151 9 63 0
-152 64 0
-152 -134 0
152 -64 134 0
-153 111 0
-153 151 0
153 -111 -151 0
-154 -9 0
-154 137 0
154 9 -137 0
-155 -110 0
-155 -78 0
155 110 78 0
-156 -129 0
-156 8 0
156 129 -8 0
-157 24 96 0
-157 -24 -96 0
157 -24 96 0
157 24 -96 0
-158 -154 0
-158 134 0
158 154 -134 0
-159 -9 0
-159 80 0
159 9 -80 0
-160 -21 0
-160 -62 0
160 21 62 0
-161 118 0
-161 75 0
161 -118 -75 0
-162 -7 0
-162 15 0
162 7 -15 0
-163 100 0
-163 -76 0
163 -100 76 0
-164 75 0
-164 -32 0
164 -75 32 0
-165 13 0
-165 102 0
165 -13 -102 0
-166 164 -88 0
-166 -164 88 0
166 -164 -88 0
166 164 88 0
-167 -130 0
-167 57 0
167 130 -57 0
-168 -159 0
-168 89 0
168 159 -89 0
-169 -167 0
-169 86 0
169 167 -86 0
-170 19 0
-170 -61 0
170 -19 61 0
-171 80 0
-171 138 0
171 -80 -138 0
-172 130 0
-172 -83 0
172 -130 83 0
-173 -153 0
-173 131 0
173 153 -131 0
-174 111 47 0
-174 -111 -47 0
174 -111 47 0
174 111 -47 0
-175 -148 0
-175 110 0
175 148 -110 0
-176 124 0
-176 -1 0
176 -124 1 0
-177 -66 0
-177 43 0
177 66 -43 0
-178 156 0
-178 -24 0
178 -156 24 0
-179 21 78 0
-179 -21 -78 0
179 -21 78 0
179 21 -78 0
-180 109 0
-180 87 0
180 -109 -87 0
-181 -114 0
-181 73 0
181 114 -73 0
-182 -29 0
-182 -3 0
182 29 3 0
-183 -71 157 0
-183 71 -157 0
183 71 157 0
183 -71 -157 0
-184 -122 -113 0
-184 122 113 0
184 122 -113 0
184 -122 113 0
-185 -73 0
-185 20 0
185 73 -20 0
-186 -95 0
-186 92 0
186 95 -92 0
-187 112 115 0
-187 -112 -115 0
187 -112 115 0
187 112 -115 0
-188 66 0
-188 -159 0
188 -66 159 0
-189 -139 0
-189 -42 0
189 139 42 0
-190 110 0
-190 -33 0
190 -110 33 0
-191 -43 101 0
-191 43 -101 0
191 43 101 0
191 -43 -101 0
-192 114 0
-192 94 0
192 -114 -94 0
-193 -166 0
-193 -155 0
193 166 155 0
-194 -92 0
-194 -19 0
194 92 19 0
-195 48 -37 0
-195 -48 37 0
195 -48 -37 0
195 48 37 0
-196 128 0
-196 124 0
196 -128 -124 0
-197 155 0
-197 -115 0
197 -155 115 0
-198 23 -83 0
-198 -23 83 0
198 -23 -83 0
198 23 83 0
-199 -90 74 0
-199 90 -74 0
199 90 74 0
199 -90 -74 0
-200 -179 0
-200 -186 0
200 179 186 0
-201 5 0
-201 33 0
201 -5 -33 0
-202 -119 0
-202 137 0
202 119 -137 0
-203 73 -191 0
-203 -73 191 0
203 -73 -191 0
203 73 191 0
-204 -149 0
-204 75 0
204 149 -75 0
-205 -20 0
-205 -15 0
205 20 15 0
-206 -55 156 0
-206 55 -156 0
206 55 156 0
206 -55 -156 0
-207 -64 0
-207 131 0
207 64 -131 0
-208 -183 0
-208 64 0
208 183 -64 0
-209 -36 0
-209 -111 0
209 36 111 0
-210 127 0
-210 -126 0
210 -127 126 0
-211 82 45 0
-211 -82 -45 0
211 -82 45 0
211 82 -45 0
-212 182 0
-212 140 0
212 -182 -140 0
-213 209 -141 0
-213 -209 141 0
213 -209 -141 0
213 209 141 0
-214 206 0
-214 -112 0
214 -206 112 0
-215 117 0
-215 106 0
215 -117 -106 0
-216 18 0
-216 83 0
216 -18 -83 0
-217 61 0
-217 -166 0
217 -61 166 0
-218 42 0
-218 -193 0
218 -42 193 0
-219 63 0
-219 -117 0
219 -63 117 0
-220 184 0
-220 -72 0
220 -184 72 0
-221 105 0
-221 -178 0
221 -105 178 0
-222 -113 0
-222 137 0
222 113 -137 0
-223 -33 0
-223 164 0
223 33 -164 0
-224 214 0
-224 -4 0
224 -214 4 0
-225 -161 -32 0
-225 161 32 0
225 161 -32 0
225 -161 32 0
-226 61 0
-226 130 0
226 -61 -130 0
-227 222 -189 0
-227 -222 189 0
227 -222 -189 0
227 222 189 0
-228 -142 0
-228 180 0
228 142 -180 0
-229 105 -203 0
-229 -105 203 0
229 -105 -203 0
229 105 203 0
-230 -97 0
-230 -13 0
230 97 13 0
-231 -158 0
-231 -178 0
231 158 178 0
-232 38 0
-232 35 0
232 -38 -35 0
-233 93 0
-233 -91 0
233 -93 91 0
-234 182 0
-234 -6 0
234 -182 6 0
-235 120 0
-235 68 0
235 -120 -68 0
-236 -41 0
-236 -154 0
236 41 154 0
-237 -188 0
-237 -164 0
237 188 164 0
-238 2 0
-238 160 0
238 -2 -160 0
-239 182 0
-239 -142 0
239 -182 142 0
-240 24 0
-240 176 0
240 -24 -176 0
-241 183 0
-241 149 0
241 -183 -149 0
-242 11 0
-242 -107 0
242 -11 107 0
-243 19 -70 0
-243 -19 70 0
243 -19 -70 0
243 19 70 0
-244 -223 0
-244 -147 0
244 223 147 0
-245 147 0
-245 56 0
245 -147 -56 0
-246 -87 0
-246 120 0
246 87 -120 0
-247 -150 0
-247 76 0
247 150 -76 0
-248 54 0
-248 -187 0
248 -54 187 0
-249 -151 0
-249 101 0
249 151 -101 0
-250 156 -145 0
-250 -156 145 0
250 -156 -145 0
250 156 145 0
-251 -127 0
-251 83 0
251 127 -83 0
-252 -37 0
-252 190 0
252 37 -190 0
-253 -137 0
-253 -203 0
253 137 203 0
-254 239 141 0
-254 -239 -141 0
254 -239 141 0
254 239 -141 0
-255 -238 0
-255 78 0
255 238 -78 0
-256 192 0
-256 3 0
256 -192 -3 0
-257 -8 -166 0
-257 8 166 0
257 8 -166 0
257 -8 166 0
-258 -192 0
-258 187 0
258 192 -187 0
-259 -32 0
-259 152 0
259 32 -152 0
-260 189 0
-260 159 0
260 -189 -159 0
-261 -255 0
-261 -95 0
261 255 95 0
-262 206 0
-262 39 0
262 -206 -39 0
-263 236 0
-263 174 0
263 -236 -174 0
-264 -202 0
-264 222 0
264 202 -222 0
-265 191 0
-265 30 0
265 -191 -30 0
-266 123 0
-266 30 0
266 -123 -30 0
-267 -107 0
-267 249 0
267 107 -249 0
-268 193 0
-268 -242 0
268 -193 242 0
-269 249 0
-269 -186 0
269 -249 186 0
-270 -220 0
-270 -229 0
270 220 229 0
-271 99 -45 0
-271 -99 45 0
271 -99 -45 0
271 99 45 0
-272 -133 0
-272 197 0
272 133 -197 0
-273 77 0
-273 55 0
273 -77 -55 0
-274 -28 142 0
-274 28 -142 0
274 28 142 0
274 -28 -142 0
-275 -124 0
-275 176 0
275 124 -176 0
-276 256 0
-276 185 0
276 -256 -185 0
-277 84 0
-277 5 0
277 -84 -5 0
-278 23 0
-278 146 0
278 -23 -146 0
-279 189 0
-279 -260 0
279 -189 260 0
-280 -180 0
-280 128 0
280 180 -128 0
-281 -197 0
-281 -62 0
281 197 62 0
-282 102 -166 0
-282 -102 166 0
282 -102 -166 0
282 102 166 0
-283 2 0
-283 -117 0
283 -2 117 0
-284 56 0
-284 164 0
284 -56 -164 0
-285 -67 0
-285 265 0
285 67 -265 0
-286 215 0
-286 -23 0
286 -215 23 0
-287 149 0
-287 -84 0
287 -149 84 0
-288 287 0
-288 -136 0
288 -287 136 0
-289 -63 211 0
-289 63 -211 0
289 63 211 0
289 -63 -211 0
-290 -288 167 0
-290 288 -167 0
290 288 167 0
290 -288 -167 0
-291 -97 0
-291 205 0
291 97 -205 0
-292 165 0
-292 184 0
292 -165 -184 0
-293 -153 0
-293 157 0
293 153 -157 0
-294 -148 0
-294 158 0
294 148 -158 0
-295 282 0
-295 30 0
295 -282 -30 0
-296 72 -272 0
-296 -72 272 0
296 -72 -272 0
296 72 272 0
-297 -266 0
-297 -204 0
297 266 204 0
-298 -35 0
-298 253 0
298 35 -253 0
-299 -61 0
-299 -140 0
299 61 140 0
-300 274 -260 0
-300 -274 260 0
300 -274 -260 0
300 274 260 0
-301 -282 -235 0
-301 282 235 0
301 282 -235 0
301 -282 235 0
-302 227 0
-302 -3 0
302 -227 3 0
-303 -204 0
-303 151 0
303 204 -151 0
-304 171 -174 0
-304 -171 174 0
304 -171 -174 0
304 171 174 0
-305 304 0
-305 137 0
305 -304 -137 0
-306 290 0
-306 -68 0
306 -290 68 0
-307 -20 0
-307 -135 0
307 20 135 0
-308 -173 0
-308 -19 0
308 173 19 0
-309 -159 172 0
-309 159 -172 0
309 159 172 0
309 -159 -172 0
-310 -59 0
-310 -86 0
310 59 86 0
-311 -238 0
-311 88 0
311 238 -88 0
-312 258 0
-312 252 0
312 -258 -252 0
-313 -49 0
-313 284 0
313 49 -284 0
-314 -169 -285 0
-314 169 285 0
314 169 -285 0
314 -169 285 0
-315 53 0
-315 -282 0
315 -53 282 0
-316 -217 0
-316 121 0
316 217 -121 0
-317 196 -17 0
-317 -196 17 0
317 -196 -17 0
317 196 17 0
-318 42 0
-318 171 0
318 -42 -171 0
-319 -27 0
-319 -278 0
319 27 278 0
-320 -52 -285 0
-320 52 285 0
320 52 -285 0
320 -52 285 0
-321 -16 0
-321 204 0
321 16 -204 0
-322 -25 0
-322 -192 0
322 25 192 0
-299 0
300 0
301 0
-302 0
-303 0
304 0
-305 0
306 0
307 0
-308 0
309 0
-310 0
-311 0
-312 0
-313 0
-314 0
-315 0
-316 0
-317 0
-318 0
-319 0
-320 0
-321 0
322 0
