c mixed random circuit, inputs=32 gates=600, last 32 signals pinned to a planted input assignment; input variables are 1..32
c generated by TurboCryptoSAT gen-benchmark - satisfiable by construction
p cnf 625 1959
-33 8 0
-33 -14 0
33 -8 14 0
-34 5 0
-34 -27 0
34 -5 27 0
-35 -20 -34 0
-35 20 34 0
35 20 -34 0
35 -20 34 0
-36 -22 0
-36 5 0
36 22 -5 0
-37 -25 0
-37 -22 0
37 25 22 0
-38 4 0
-38 -5 0
38 -4 5 0
-39 -32 0
-39 37 0
39 32 -37 0
-40 12 15 0
-40 -12 -15 0
40 -12 15 0
40 12 -15 0
-41 30 0
-41 -13 0
41 -30 13 0
-42 -31 -11 0
-42 31 11 0
42 31 -11 0
42 -31 11 0
-43 -28 0
-43 27 0
43 28 -27 0
-44 22 18 0
-44 -22 -18 0
44 -22 18 0
44 22 -18 0
-45 -25 0
-45 44 0
45 25 -44 0
-46 32 0
-46 25 0
46 -32 -25 0
-47 -30 -38 0
-47 30 38 0
47 30 -38 0
47 -30 38 0
-48 39 0
-48 28 0
48 -39 -28 0
-49 -29 0
-49 -28 0
49 29 28 0
-50 49 0
-50 -10 0
50 -49 10 0
-51 38 44 0
-51 -38 -44 0
51 -38 44 0
51 38 -44 0
-52 50 0
-52 14 0
52 -50 -14 0
-53 50 0
-53 -15 0
53 -50 15 0
-54 33 0
-54 -50 0
54 -33 50 0
-55 37 0
-55 2 0
55 -37 -2 0
-56 50 0
-56 8 0
56 -50 -8 0
-57 -29 0
-57 -51 0
57 29 51 0
-58 -39 -52 0
-58 39 52 0
58 39 -52 0
58 -39 52 0
-59 -38 0
-59 -16 0
59 38 16 0
-60 -39 0
-60 -42 0
60 39 42 0
-61 -58 0
-61 -29 0
61 58 29 0
-62 28 -40 0
-62 -28 40 0
62 -28 -40 0
62 28 40 0
-63 -8 0
-63 -34 0
63 8 34 0
-64 -15 0
-64 -38 0
64 15 38 0
-65 -61 0
-65 -30 0
65 61 30 0
-66 -5 -16 0
-66 5 16 0
66 5 -16 0
66 -5 16 0
-67 -62 -1 0
-67 62 1 0
67 62 -1 0
67 -62 1 0
-68 -20 0
-68 60 0
68 20 -60 0
-69 -58 3 0
-69 58 -3 0
69 58 3 0
69 -58 -3 0
-70 -22 0
-70 -56 0
70 22 56 0
-71 68 0
-71 11 0
71 -68 -11 0
-72 10 0
-72 34 0
72 -10 -34 0
-73 -13 -47 0
-73 13 47 0
73 13 -47 0
73 -13 47 0
-74 31 0
-74 -41 0
74 -31 41 0
-75 -63 0
-75 16 0
75 63 -16 0
-76 55 0
-76 -66 0
76 -55 66 0
-77 -6 0
-77 44 0
77 6 -44 0
-78 40 0
-78 -23 0
78 -40 23 0
-79 45 0
-79 -71 0
79 -45 71 0
-80 -63 0
-80 53 0
80 63 -53 0
-81 -2 0
-81 -55 0
81 2 55 0
-82 46 0
-82 76 0
82 -46 -76 0
-83 -16 0
-83 17 0
83 16 -17 0
-84 34 0
-84 64 0
84 -34 -64 0
-85 12 0
-85 43 0
85 -12 -43 0
-86 26 48 0
-86 -26 -48 0
86 -26 48 0
86 26 -48 0
-87 20 0
-87 83 0
87 -20 -83 0
-88 6 0
-88 -35 0
88 -6 35 0
-89 -64 0
-89 20 0
89 64 -20 0
-90 14 0
-90 -24 0
90 -14 24 0
-91 58 0
-91 11 0
91 -58 -11 0
-92 -61 18 0
-92 61 -18 0
92 61 18 0
92 -61 -18 0
-93 -61 0
-93 9 0
93 61 -9 0
-94 91 0
-94 -19 0
94 -91 19 0
-95 64 0
-95 -60 0
95 -64 60 0
-96 44 0
-96 69 0
96 -44 -69 0
-97 78 0
-97 -55 0
97 -78 55 0
-98 -18 0
-98 -20 0
98 18 20 0
-99 -8 0
-99 73 0
99 8 -73 0
-100 63 -92 0
-100 -63 92 0
100 -63 -92 0
100 63 92 0
-101 93 0
-101 29 0
101 -93 -29 0
-102 40 -97 0
-102 -40 97 0
102 -40 -97 0
102 40 97 0
-103 -92 0
-103 -30 0
103 92 30 0
-104 -6 -17 0
-104 6 17 0
104 6 -17 0
104 -6 17 0
-105 -19 71 0
-105 19 -71 0
105 19 71 0
105 -19 -71 0
-106 105 0
-106 82 0
106 -105 -82 0
-107 52 0
-107 -88 0
107 -52 88 0
-108 -38 0
-108 -22 0
108 38 22 0
-109 -81 0
-109 -69 0
109 81 69 0
-110 -24 0
-110 -62 0
110 24 62 0
-111 -110 -96 0
-111 110 96 0
111 110 -96 0
111 -110 96 0
-112 31 0
-112 -18 0
112 -31 18 0
-113 81 0
-113 -80 0
113 -81 80 0
-114 -109 0
-114 27 0
114 109 -27 0
-115 -44 0
-115 -6 0
115 44 6 0
-116 -2 0
-116 -96 0
116 2 96 0
-117 66 0
-117 -112 0
117 -66 112 0
-118 30 0
-118 91 0
118 -30 -91 0
-119 -118 0
-119 -87 0
119 118 87 0
-120 19 -75 0
-120 -19 75 0
120 -19 -75 0
120 19 75 0
-121 -21 0
-121 -103 0
121 21 103 0
-122 -58 -56 0
-122 58 56 0
122 58 -56 0
122 -58 56 0
-123 -42 0
-123 65 0
123 42 -65 0
-124 -89 0
-124 -34 0
124 89 34 0
-125 71 0
-125 78 0
125 -71 -78 0
-126 44 -22 0
-126 -44 22 0
126 -44 -22 0
126 44 22 0
-127 -19 0
-127 7 0
127 19 -7 0
-128 11 0
-128 -111 0
128 -11 111 0
-129 27 0
-129 -99 0
129 -27 99 0
-130 -84 0
-130 73 0
130 84 -73 0
-131 114 0
-131 59 0
131 -114 -59 0
-132 127 -71 0
-132 -127 71 0
132 -127 -71 0
132 127 71 0
-133 -24 0
-133 -43 0
133 24 43 0
-134 75 0
-134 35 0
134 -75 -35 0
-135 43 -108 0
-135 -43 108 0
135 -43 -108 0
135 43 108 0
-136 118 30 0
-136 -118 -30 0
136 -118 30 0
136 118 -30 0
-137 -1 0
-137 -45 0
137 1 45 0
-138 -21 -56 0
-138 21 56 0
138 21 -56 0
138 -21 56 0
-139 -31 0
-139 120 0
139 31 -120 0
-140 92 0
-140 36 0
140 -92 -36 0
-141 -5 0
-141 57 0
141 5 -57 0
-142 65 0
-142 67 0
142 -65 -67 0
-143 49 0
-143 117 0
143 -49 -117 0
-144 7 50 0
-144 -7 -50 0
144 -7 50 0
144 7 -50 0
-145 -109 0
-145 -135 0
145 109 135 0
-146 -97 0
-146 44 0
146 97 -44 0
-147 -143 0
-147 -126 0
147 143 126 0
-148 101 0
-148 -66 0
148 -101 66 0
-149 147 110 0
-149 -147 -110 0
149 -147 110 0
149 147 -110 0
-150 -70 81 0
-150 70 -81 0
150 70 81 0
150 -70 -81 0
-151 128 0
-151 -15 0
151 -128 15 0
-152 26 0
-152 -97 0
152 -26 97 0
-153 93 0
-153 -87 0
153 -93 87 0
-154 -98 0
-154 78 0
154 98 -78 0
-155 69 0
-155 133 0
155 -69 -133 0
-156 -50 69 0
-156 50 -69 0
156 50 69 0
156 -50 -69 0
-157 106 0
-157 45 0
157 -106 -45 0
-158 -114 0
-158 9 0
158 114 -9 0
-159 124 0
-159 137 0
159 -124 -137 0
-160 -76 0
-160 35 0
160 76 -35 0
-161 68 0
-161 -89 0
161 -68 89 0
-162 -12 0
-162 -13 0
162 12 13 0
-163 51 0
-163 -16 0
163 -51 16 0
-164 -46 0
-164 -135 0
164 46 135 0
-165 153 0
-165 123 0
165 -153 -123 0
-166 33 30 0
-166 -33 -30 0
166 -33 30 0
166 33 -30 0
-167 106 0
-167 84 0
167 -106 -84 0
-168 -113 121 0
-168 113 -121 0
168 113 121 0
168 -113 -121 0
-169 25 0
-169 -83 0
169 -25 83 0
-170 -31 124 0
-170 31 -124 0
170 31 124 0
170 -31 -124 0
-171 -27 0
-171 139 0
171 27 -139 0
-172 157 0
-172 -113 0
172 -157 113 0
-173 61 50 0
-173 -61 -50 0
173 -61 50 0
173 61 -50 0
-174 -161 0
-174 -61 0
174 161 61 0
-175 172 0
-175 -165 0
175 -172 165 0
-176 -114 0
-176 83 0
176 114 -83 0
-177 -64 0
-177 -5 0
177 64 5 0
-178 -17 0
-178 -29 0
178 17 29 0
-179 -33 45 0
-179 33 -45 0
179 33 45 0
179 -33 -45 0
-180 -78 0
-180 111 0
180 78 -111 0
-181 166 -39 0
-181 -166 39 0
181 -166 -39 0
181 166 39 0
-182 -168 0
-182 -16 0
182 168 16 0
-183 -166 -33 0
-183 166 33 0
183 166 -33 0
183 -166 33 0
-184 56 0
-184 -71 0
184 -56 71 0
-185 128 -137 0
-185 -128 137 0
185 -128 -137 0
185 128 137 0
-186 -121 0
-186 -97 0
186 121 97 0
-187 -180 -145 0
-187 180 145 0
187 180 -145 0
187 -180 145 0
-188 2 0
-188 76 0
188 -2 -76 0
-189 137 0
-189 -90 0
189 -137 90 0
-190 -158 0
-190 -174 0
190 158 174 0
-191 160 0
-191 180 0
191 -160 -180 0
-192 -38 0
-192 -25 0
192 38 25 0
-193 -63 66 0
-193 63 -66 0
193 63 66 0
193 -63 -66 0
-194 133 0
-194 -41 0
194 -133 41 0
-195 194 0
-195 -95 0
195 -194 95 0
-196 18 0
-196 -132 0
196 -18 132 0
-197 60 0
-197 -150 0
197 -60 150 0
-198 143 0
-198 92 0
198 -143 -92 0
-199 132 0
-199 105 0
199 -132 -105 0
-200 -142 0
-200 -47 0
200 142 47 0
-201 -172 0
-201 -121 0
201 172 121 0
-202 -189 0
-202 -176 0
202 189 176 0
-203 17 0
-203 138 0
203 -17 -138 0
-204 -43 100 0
-204 43 -100 0
204 43 100 0
204 -43 -100 0
-205 160 0
-205 168 0
205 -160 -168 0
-206 83 0
-206 7 0
206 -83 -7 0
-207 -149 0
-207 56 0
207 149 -56 0
-208 -15 0
-208 -58 0
208 15 58 0
-209 199 0
-209 51 0
209 -199 -51 0
-210 40 0
-210 -10 0
210 -40 10 0
-211 45 0
-211 150 0
211 -45 -150 0
-212 -100 0
-212 138 0
212 100 -138 0
-213 52 0
-213 -60 0
213 -52 60 0
-214 -1 0
-214 22 0
214 1 -22 0
-215 128 0
-215 188 0
215 -128 -188 0
-216 -154 7 0
-216 154 -7 0
216 154 7 0
216 -154 -7 0
-217 -137 0
-217 153 0
217 137 -153 0
-218 65 0
-218 -139 0
218 -65 139 0
-219 -23 0
-219 173 0
219 23 -173 0
-220 -172 0
-220 83 0
220 172 -83 0
-221 66 0
-221 -171 0
221 -66 171 0
-222 -145 0
-222 -64 0
222 145 64 0
-223 197 0
-223 187 0
223 -197 -187 0
-224 -59 0
-224 172 0
224 59 -172 0
-225 -11 0
-225 69 0
225 11 -69 0
-226 178 0
-226 92 0
226 -178 -92 0
-227 -192 -55 0
-227 192 55 0
227 192 -55 0
227 -192 55 0
-228 32 0
-228 134 0
228 -32 -134 0
-229 167 0
-229 -214 0
229 -167 214 0
-230 111 0
-230 65 0
230 -111 -65 0
-231 -11 0
-231 108 0
231 11 -108 0
-232 -183 0
-232 -172 0
232 183 172 0
-233 190 0
-233 -25 0
233 -190 25 0
-234 85 -55 0
-234 -85 55 0
234 -85 -55 0
234 85 55 0
-235 44 12 0
-235 -44 -12 0
235 -44 12 0
235 44 -12 0
-236 -5 0
-236 133 0
236 5 -133 0
-237 -185 0
-237 -155 0
237 185 155 0
-238 -228 0
-238 165 0
238 228 -165 0
-239 110 0
-239 -223 0
239 -110 223 0
-240 137 0
-240 -122 0
240 -137 122 0
-241 76 0
-241 -231 0
241 -76 231 0
-242 146 -218 0
-242 -146 218 0
242 -146 -218 0
242 146 218 0
-243 131 0
-243 -20 0
243 -131 20 0
-244 -240 0
-244 58 0
244 240 -58 0
-245 -23 0
-245 -43 0
245 23 43 0
-246 -183 0
-246 -92 0
246 183 92 0
-247 -175 0
-247 -59 0
247 175 59 0
-248 -166 -113 0
-248 166 113 0
248 166 -113 0
248 -166 113 0
-249 -139 69 0
-249 139 -69 0
249 139 69 0
249 -139 -69 0
-250 189 0
-250 -133 0
250 -189 133 0
-251 190 0
-251 -174 0
251 -190 174 0
-252 -132 0
-252 55 0
252 132 -55 0
-253 -39 0
-253 -231 0
253 39 231 0
-254 232 4 0
-254 -232 -4 0
254 -232 4 0
254 232 -4 0
-255 72 12 0
-255 -72 -12 0
255 -72 12 0
255 72 -12 0
-256 -5 -72 0
-256 5 72 0
256 5 -72 0
256 -5 72 0
-257 91 0
-257 16 0
257 -91 -16 0
-258 -234 0
-258 63 0
258 234 -63 0
-259 -59 0
-259 -12 0
259 59 12 0
-260 -58 0
-260 48 0
260 58 -48 0
-261 256 0
-261 -239 0
261 -256 239 0
-262 -28 0
-262 -79 0
262 28 79 0
-263 -11 -32 0
-263 11 32 0
263 11 -32 0
263 -11 32 0
-264 -16 0
-264 -170 0
264 16 170 0
-265 -189 0
-265 -59 0
265 189 59 0
-266 147 0
-266 96 0
266 -147 -96 0
-267 -181 0
-267 -35 0
267 181 35 0
-268 267 -149 0
-268 -267 149 0
268 -267 -149 0
268 267 149 0
-269 42 0
-269 -187 0
269 -42 187 0
-270 50 0
-270 35 0
270 -50 -35 0
-271 -137 18 0
-271 137 -18 0
271 137 18 0
271 -137 -18 0
-272 -32 179 0
-272 32 -179 0
272 32 179 0
272 -32 -179 0
-273 163 -64 0
-273 -163 64 0
273 -163 -64 0
273 163 64 0
-274 -161 123 0
-274 161 -123 0
274 161 123 0
274 -161 -123 0
-275 14 0
-275 37 0
275 -14 -37 0
-276 266 0
-276 46 0
276 -266 -46 0
-277 -28 -125 0
-277 28 125 0
277 28 -125 0
277 -28 125 0
-278 -24 0
-278 13 0
278 24 -13 0
-279 -213 106 0
-279 213 -106 0
279 213 106 0
279 -213 -106 0
-280 131 0
-280 177 0
280 -131 -177 0
-281 -11 0
-281 38 0
281 11 -38 0
-282 -11 0
-282 -17 0
282 11 17 0
-283 -214 0
-283 268 0
283 214 -268 0
-284 45 0
-284 69 0
284 -45 -69 0
-285 -236 256 0
-285 236 -256 0
285 236 256 0
285 -236 -256 0
-286 188 0
-286 -24 0
286 -188 24 0
-287 264 0
-287 -115 0
287 -264 115 0
-288 49 109 0
-288 -49 -109 0
288 -49 109 0
288 49 -109 0
-289 -20 15 0
-289 20 -15 0
289 20 15 0
289 -20 -15 0
-290 198 0
-290 -265 0
290 -198 265 0
-291 -31 0
-291 15 0
291 31 -15 0
-292 -38 -28 0
-292 38 28 0
292 38 -28 0
292 -38 28 0
-293 -264 135 0
-293 264 -135 0
293 264 135 0
293 -264 -135 0
-294 -10 0
-294 114 0
294 10 -114 0
-295 36 35 0
-295 -36 -35 0
295 -36 35 0
295 36 -35 0
-296 -270 0
-296 -90 0
296 270 90 0
-297 -95 0
-297 197 0
297 95 -197 0
-298 231 0
-298 -285 0
298 -231 285 0
-299 108 0
-299 9 0
299 -108 -9 0
-300 -283 -31 0
-300 283 31 0
300 283 -31 0
300 -283 31 0
-301 126 6 0
-301 -126 -6 0
301 -126 6 0
301 126 -6 0
-302 88 0
-302 -141 0
302 -88 141 0
-303 -288 0
-303 252 0
303 288 -252 0
-304 27 0
-304 -121 0
304 -27 121 0
-305 -98 0
-305 119 0
305 98 -119 0
-306 -264 -289 0
-306 264 289 0
306 264 -289 0
306 -264 289 0
-307 -201 0
-307 283 0
307 201 -283 0
-308 66 -64 0
-308 -66 64 0
308 -66 -64 0
308 66 64 0
-309 -238 0
-309 -168 0
309 238 168 0
-310 303 0
-310 -211 0
310 -303 211 0
-311 119 0
-311 -250 0
311 -119 250 0
-312 15 -199 0
-312 -15 199 0
312 -15 -199 0
312 15 199 0
-313 216 0
-313 64 0
313 -216 -64 0
-314 -302 0
-314 -160 0
314 302 160 0
-315 -18 0
-315 -204 0
315 18 204 0
-316 -94 0
-316 244 0
316 94 -244 0
-317 -68 0
-317 -41 0
317 68 41 0
-318 -237 0
-318 -101 0
318 237 101 0
-319 -267 0
-319 174 0
319 267 -174 0
-320 294 -52 0
-320 -294 52 0
320 -294 -52 0
320 294 52 0
-321 -150 -32 0
-321 150 32 0
321 150 -32 0
321 -150 32 0
-322 -216 0
-322 -40 0
322 216 40 0
-323 -282 0
-323 79 0
323 282 -79 0
-324 209 0
-324 293 0
324 -209 -293 0
-325 -125 0
-325 54 0
325 125 -54 0
-326 -263 0
-326 145 0
326 263 -145 0
-327 303 -292 0
-327 -303 292 0
327 -303 -292 0
327 303 292 0
-328 -90 0
-328 -218 0
328 90 218 0
-329 89 174 0
-329 -89 -174 0
329 -89 174 0
329 89 -174 0
-330 119 326 0
-330 -119 -326 0
330 -119 326 0
330 119 -326 0
-331 -4 -59 0
-331 4 59 0
331 4 -59 0
331 -4 59 0
-332 192 69 0
-332 -192 -69 0
332 -192 69 0
332 192 -69 0
-333 181 0
-333 -281 0
333 -181 281 0
-334 101 0
-334 205 0
334 -101 -205 0
-335 -265 0
-335 328 0
335 265 -328 0
-336 256 0
-336 -3 0
336 -256 3 0
-337 -110 0
-337 124 0
337 110 -124 0
-338 45 0
-338 278 0
338 -45 -278 0
-339 -95 0
-339 334 0
339 95 -334 0
-340 197 195 0
-340 -197 -195 0
340 -197 195 0
340 197 -195 0
-341 -149 -240 0
-341 149 240 0
341 149 -240 0
341 -149 240 0
-342 -162 -5 0
-342 162 5 0
342 162 -5 0
342 -162 5 0
-343 -158 0
-343 -339 0
343 158 339 0
-344 278 0
-344 182 0
344 -278 -182 0
-345 49 0
-345 -168 0
345 -49 168 0
-346 272 0
-346 -98 0
346 -272 98 0
-347 -338 0
-347 159 0
347 338 -159 0
-348 -152 0
-348 117 0
348 152 -117 0
-349 -178 0
-349 -327 0
349 178 327 0
-350 340 0
-350 -332 0
350 -340 332 0
-351 -140 113 0
-351 140 -113 0
351 140 113 0
351 -140 -113 0
-352 102 0
-352 -19 0
352 -102 19 0
-353 -131 67 0
-353 131 -67 0
353 131 67 0
353 -131 -67 0
-354 -29 0
-354 329 0
354 29 -329 0
-355 11 0
-355 159 0
355 -11 -159 0
-356 -255 -153 0
-356 255 153 0
356 255 -153 0
356 -255 153 0
-357 182 0
-357 189 0
357 -182 -189 0
-358 259 0
-358 90 0
358 -259 -90 0
-359 -27 0
-359 108 0
359 27 -108 0
-360 269 0
-360 -170 0
360 -269 170 0
-361 105 0
-361 185 0
361 -105 -185 0
-362 204 0
-362 216 0
362 -204 -216 0
-363 -273 -35 0
-363 273 35 0
363 273 -35 0
363 -273 35 0
-364 305 -186 0
-364 -305 186 0
364 -305 -186 0
364 305 186 0
-365 81 15 0
-365 -81 -15 0
365 -81 15 0
365 81 -15 0
-366 312 0
-366 -338 0
366 -312 338 0
-367 -2 0
-367 69 0
367 2 -69 0
-368 150 0
-368 104 0
368 -150 -104 0
-369 137 0
-369 63 0
369 -137 -63 0
-370 -154 0
-370 123 0
370 154 -123 0
-371 353 0
-371 -332 0
371 -353 332 0
-372 276 0
-372 -135 0
372 -276 135 0
-373 -226 0
-373 49 0
373 226 -49 0
-374 287 0
-374 228 0
374 -287 -228 0
-375 -27 160 0
-375 27 -160 0
375 27 160 0
375 -27 -160 0
-376 -162 -74 0
-376 162 74 0
376 162 -74 0
376 -162 74 0
-377 105 0
-377 -350 0
377 -105 350 0
-378 -245 0
-378 -165 0
378 245 165 0
-379 -206 0
-379 -237 0
379 206 237 0
-380 279 0
-380 -238 0
380 -279 238 0
-381 -281 0
-381 284 0
381 281 -284 0
-382 302 0
-382 125 0
382 -302 -125 0
-383 -322 0
-383 69 0
383 322 -69 0
-384 -372 0
-384 -287 0
384 372 287 0
-385 67 -204 0
-385 -67 204 0
385 -67 -204 0
385 67 204 0
-386 314 0
-386 -150 0
386 -314 150 0
-387 -294 0
-387 -382 0
387 294 382 0
-388 -90 0
-388 150 0
388 90 -150 0
-389 -40 0
-389 -21 0
389 40 21 0
-390 -253 0
-390 258 0
390 253 -258 0
-391 -6 0
-391 -354 0
391 6 354 0
-392 -26 0
-392 148 0
392 26 -148 0
-393 383 -59 0
-393 -383 59 0
393 -383 -59 0
393 383 59 0
-394 93 0
-394 -181 0
394 -93 181 0
-395 -145 257 0
-395 145 -257 0
395 145 257 0
395 -145 -257 0
-396 -122 0
-396 -14 0
396 122 14 0
-397 -269 -78 0
-397 269 78 0
397 269 -78 0
397 -269 78 0
-398 -188 0
-398 -276 0
398 188 276 0
-399 317 0
-399 -174 0
399 -317 174 0
-400 366 0
-400 -331 0
400 -366 331 0
-401 325 0
-401 -9 0
401 -325 9 0
-402 -153 266 0
-402 153 -266 0
402 153 266 0
402 -153 -266 0
-403 371 0
-403 -283 0
403 -371 283 0
-404 -56 0
-404 -291 0
404 56 291 0
-405 370 0
-405 7 0
405 -370 -7 0
-406 -327 0
-406 -187 0
406 327 187 0
-407 214 63 0
-407 -214 -63 0
407 -214 63 0
407 214 -63 0
-408 204 0
-408 -104 0
408 -204 104 0
-409 171 0
-409 -55 0
409 -171 55 0
-410 -290 333 0
-410 290 -333 0
410 290 333 0
410 -290 -333 0
-411 384 -187 0
-411 -384 187 0
411 -384 -187 0
411 384 187 0
-412 -252 0
-412 -359 0
412 252 359 0
-413 -166 0
-413 -386 0
413 166 386 0
-414 200 -28 0
-414 -200 28 0
414 -200 -28 0
414 200 28 0
-415 -218 0
-415 21 0
415 218 -21 0
-416 -251 0
-416 -68 0
416 251 68 0
-417 144 0
-417 -63 0
417 -144 63 0
-418 -129 0
-418 -209 0
418 129 209 0
-419 -364 0
-419 -270 0
419 364 270 0
-420 137 0
-420 190 0
420 -137 -190 0
-421 -250 0
-421 -157 0
421 250 157 0
-422 108 0
-422 -190 0
422 -108 190 0
-423 -273 0
-423 275 0
423 273 -275 0
-424 102 0
-424 -134 0
424 -102 134 0
-425 266 -27 0
-425 -266 27 0
425 -266 -27 0
425 266 27 0
-426 -296 0
-426 48 0
426 296 -48 0
-427 251 0
-427 -192 0
427 -251 192 0
-428 -345 117 0
-428 345 -117 0
428 345 117 0
428 -345 -117 0
-429 14 393 0
-429 -14 -393 0
429 -14 393 0
429 14 -393 0
-430 -391 0
-430 149 0
430 391 -149 0
-431 129 0
-431 69 0
431 -129 -69 0
-432 -307 0
-432 -98 0
432 307 98 0
-433 -372 0
-433 102 0
433 372 -102 0
-434 59 -117 0
-434 -59 117 0
434 -59 -117 0
434 59 117 0
-435 -303 0
-435 142 0
435 303 -142 0
-436 420 0
-436 -78 0
436 -420 78 0
-437 -358 0
-437 -4 0
437 358 4 0
-438 -135 -112 0
-438 135 112 0
438 135 -112 0
438 -135 112 0
-439 182 0
-439 10 0
439 -182 -10 0
-440 234 0
-440 -136 0
440 -234 136 0
-441 152 92 0
-441 -152 -92 0
441 -152 92 0
441 152 -92 0
-442 -438 146 0
-442 438 -146 0
442 438 146 0
442 -438 -146 0
-443 -238 0
-443 179 0
443 238 -179 0
-444 -282 0
-444 352 0
444 282 -352 0
-445 66 0
-445 4 0
445 -66 -4 0
-446 -345 307 0
-446 345 -307 0
446 345 307 0
446 -345 -307 0
-447 -49 0
-447 -121 0
447 49 121 0
-448 -262 0
-448 -272 0
448 262 272 0
-449 64 0
-449 305 0
449 -64 -305 0
-450 -360 0
-450 286 0
450 360 -286 0
-451 -289 319 0
-451 289 -319 0
451 289 319 0
451 -289 -319 0
-452 -143 0
-452 -211 0
452 143 211 0
-453 -5 0
-453 -301 0
453 5 301 0
-454 427 0
-454 -192 0
454 -427 192 0
-455 -437 0
-455 131 0
455 437 -131 0
-456 5 0
-456 152 0
456 -5 -152 0
-457 -169 0
-457 208 0
457 169 -208 0
-458 216 0
-458 -361 0
458 -216 361 0
-459 169 0
-459 220 0
459 -169 -220 0
-460 -290 0
-460 -275 0
460 290 275 0
-461 333 0
-461 -128 0
461 -333 128 0
-462 -239 402 0
-462 239 -402 0
462 239 402 0
462 -239 -402 0
-463 -168 0
-463 -43 0
463 168 43 0
-464 -203 0
-464 384 0
464 203 -384 0
-465 177 0
-465 243 0
465 -177 -243 0
-466 -273 0
-466 -171 0
466 273 171 0
-467 -93 0
-467 171 0
467 93 -171 0
-468 -290 0
-468 310 0
468 290 -310 0
-469 -183 0
-469 -444 0
469 183 444 0
-470 404 0
-470 333 0
470 -404 -333 0
-471 -359 0
-471 -135 0
471 359 135 0
-472 -442 0
-472 310 0
472 442 -310 0
-473 -161 0
-473 -332 0
473 161 332 0
-474 151 0
-474 218 0
474 -151 -218 0
-475 -288 0
-475 56 0
475 288 -56 0
-476 388 0
-476 277 0
476 -388 -277 0
-477 130 -82 0
-477 -130 82 0
477 -130 -82 0
477 130 82 0
-478 464 0
-478 -470 0
478 -464 470 0
-479 -4 -273 0
-479 4 273 0
479 4 -273 0
479 -4 273 0
-480 -218 0
-480 -305 0
480 218 305 0
-481 -16 0
-481 78 0
481 16 -78 0
-482 -293 0
-482 79 0
482 293 -79 0
-483 244 130 0
-483 -244 -130 0
483 -244 130 0
483 244 -130 0
-484 421 0
-484 344 0
484 -421 -344 0
-485 -158 -457 0
-485 158 457 0
485 158 -457 0
485 -158 457 0
-486 -7 0
-486 -282 0
486 7 282 0
-487 -164 -386 0
-487 164 386 0
487 164 -386 0
487 -164 386 0
-488 -27 -11 0
-488 27 11 0
488 27 -11 0
488 -27 11 0
-489 221 0
-489 225 0
489 -221 -225 0
-490 -118 -30 0
-490 118 30 0
490 118 -30 0
490 -118 30 0
-491 292 0
-491 12 0
491 -292 -12 0
-492 381 160 0
-492 -381 -160 0
492 -381 160 0
492 381 -160 0
-493 126 0
-493 -226 0
493 -126 226 0
-494 260 -126 0
-494 -260 126 0
494 -260 -126 0
494 260 126 0
-495 25 -315 0
-495 -25 315 0
495 -25 -315 0
495 25 315 0
-496 24 0
-496 -1 0
496 -24 1 0
-497 383 129 0
-497 -383 -129 0
497 -383 129 0
497 383 -129 0
-498 -265 -82 0
-498 265 82 0
498 265 -82 0
498 -265 82 0
-499 -186 0
-499 425 0
499 186 -425 0
-500 -186 0
-500 -130 0
500 186 130 0
-501 -246 0
-501 -398 0
501 246 398 0
-502 -423 -61 0
-502 423 61 0
502 423 -61 0
502 -423 61 0
-503 388 82 0
-503 -388 -82 0
503 -388 82 0
503 388 -82 0
-504 -181 410 0
-504 181 -410 0
504 181 410 0
504 -181 -410 0
-505 -70 0
-505 -251 0
505 70 251 0
-506 64 375 0
-506 -64 -375 0
506 -64 375 0
506 64 -375 0
-507 344 0
-507 -473 0
507 -344 473 0
-508 413 297 0
-508 -413 -297 0
508 -413 297 0
508 413 -297 0
-509 274 0
-509 -43 0
509 -274 43 0
-510 -339 205 0
-510 339 -205 0
510 339 205 0
510 -339 -205 0
-511 -268 0
-511 -22 0
511 268 22 0
-512 323 0
-512 -401 0
512 -323 401 0
-513 455 0
-513 443 0
513 -455 -443 0
-514 385 -474 0
-514 -385 474 0
514 -385 -474 0
514 385 474 0
-515 -473 0
-515 234 0
515 473 -234 0
-516 -299 0
-516 390 0
516 299 -390 0
-517 514 0
-517 -83 0
517 -514 83 0
-518 51 0
-518 -267 0
518 -51 267 0
-519 277 -33 0
-519 -277 33 0
519 -277 -33 0
519 277 33 0
-520 243 181 0
-520 -243 -181 0
520 -243 181 0
520 243 -181 0
-521 -412 -53 0
-521 412 53 0
521 412 -53 0
521 -412 53 0
-522 422 0
-522 356 0
522 -422 -356 0
-523 -224 0
-523 473 0
523 224 -473 0
-524 -15 0
-524 -88 0
524 15 88 0
-525 329 0
-525 -202 0
525 -329 202 0
-526 -82 0
-526 -187 0
526 82 187 0
-527 -502 -492 0
-527 502 492 0
527 502 -492 0
527 -502 492 0
-528 393 0
-528 404 0
528 -393 -404 0
-529 335 0
-529 151 0
529 -335 -151 0
-530 59 0
-530 -499 0
530 -59 499 0
-531 345 -374 0
-531 -345 374 0
531 -345 -374 0
531 345 374 0
-532 -277 0
-532 -470 0
532 277 470 0
-533 507 0
-533 14 0
533 -507 -14 0
-534 256 0
-534 409 0
534 -256 -409 0
-535 -90 519 0
-535 90 -519 0
535 90 519 0
535 -90 -519 0
-536 84 0
-536 461 0
536 -84 -461 0
-537 -138 0
-537 -205 0
537 138 205 0
-538 482 0
-538 -295 0
538 -482 295 0
-539 -523 0
-539 -347 0
539 523 347 0
-540 -397 0
-540 -312 0
540 397 312 0
-541 81 0
-541 -534 0
541 -81 534 0
-542 -272 0
-542 -219 0
542 272 219 0
-543 31 -3 0
-543 -31 3 0
543 -31 -3 0
543 31 3 0
-544 -329 0
-544 534 0
544 329 -534 0
-545 -13 472 0
-545 13 -472 0
545 13 472 0
545 -13 -472 0
-546 -351 0
-546 230 0
546 351 -230 0
-547 -353 526 0
-547 353 -526 0
547 353 526 0
547 -353 -526 0
-548 451 267 0
-548 -451 -267 0
548 -451 267 0
548 451 -267 0
-549 -158 38 0
-549 158 -38 0
549 158 38 0
549 -158 -38 0
-550 -432 0
-550 -131 0
550 432 131 0
-551 333 0
-551 -147 0
551 -333 147 0
-552 -505 0
-552 455 0
552 505 -455 0
-553 -511 0
-553 331 0
553 511 -331 0
-554 -412 233 0
-554 412 -233 0
554 412 233 0
554 -412 -233 0
-555 -393 0
-555 54 0
555 393 -54 0
-556 -502 0
-556 -521 0
556 502 521 0
-557 -223 0
-557 333 0
557 223 -333 0
-558 -194 0
-558 -482 0
558 194 482 0
-559 -114 0
-559 217 0
559 114 -217 0
-560 -194 237 0
-560 194 -237 0
560 194 237 0
560 -194 -237 0
-561 -323 0
-561 -144 0
561 323 144 0
-562 428 0
-562 309 0
562 -428 -309 0
-563 268 0
-563 16 0
563 -268 -16 0
-564 302 0
-564 102 0
564 -302 -102 0
-565 -232 0
-565 445 0
565 232 -445 0
-566 247 176 0
-566 -247 -176 0
566 -247 176 0
566 247 -176 0
-567 -324 0
-567 -429 0
567 324 429 0
-568 405 0
-568 -269 0
568 -405 269 0
-569 304 0
-569 -365 0
569 -304 365 0
-570 -464 0
-570 -214 0
570 464 214 0
-571 235 0
-571 408 0
571 -235 -408 0
-572 -222 0
-572 38 0
572 222 -38 0
-573 8 0
-573 -245 0
573 -8 245 0
-574 46 0
-574 -573 0
574 -46 573 0
-575 -427 0
-575 -465 0
575 427 465 0
-576 -263 0
-576 367 0
576 263 -367 0
-577 442 0
-577 139 0
577 -442 -139 0
-578 52 0
-578 -274 0
578 -52 274 0
-579 -202 0
-579 494 0
579 202 -494 0
-580 -29 0
-580 -179 0
580 29 179 0
-581 -226 526 0
-581 226 -526 0
581 226 526 0
581 -226 -526 0
-582 325 461 0
-582 -325 -461 0
582 -325 461 0
582 325 -461 0
-583 -435 0
-583 464 0
583 435 -464 0
-584 43 0
-584 -35 0
584 -43 35 0
-585 -440 0
-585 8 0
585 440 -8 0
-586 183 0
-586 -500 0
586 -183 500 0
-587 -510 0
-587 -35 0
587 510 35 0
-588 -585 0
-588 -498 0
588 585 498 0
-589 450 0
-589 405 0
589 -450 -405 0
-590 146 447 0
-590 -146 -447 0
590 -146 447 0
590 146 -447 0
-591 -444 0
-591 -457 0
591 444 457 0
-592 -535 0
-592 143 0
592 535 -143 0
-593 -530 0
-593 114 0
593 530 -114 0
-594 494 0
-594 181 0
594 -494 -181 0
-595 524 0
-595 -575 0
595 -524 575 0
-596 -102 66 0
-596 102 -66 0
596 102 66 0
596 -102 -66 0
-597 -573 0
-597 -546 0
597 573 546 0
-598 -365 0
-598 -133 0
598 365 133 0
-599 231 0
-599 192 0
599 -231 -192 0
-600 500 -202 0
-600 -500 202 0
600 -500 -202 0
600 500 202 0
-601 -362 0
-601 -37 0
601 362 37 0
-602 583 433 0
-602 -583 -433 0
602 -583 433 0
602 583 -433 0
-603 286 0
-603 -395 0
603 -286 395 0
-604 160 0
-604 353 0
604 -160 -353 0
-605 368 0
-605 -517 0
605 -368 517 0
-606 338 0
-606 539 0
606 -338 -539 0
-607 402 0
-607 37 0
607 -402 -37 0
-608 233 0
-608 66 0
608 -233 -66 0
-609 -194 266 0
-609 194 -266 0
609 194 266 0
609 -194 -266 0
-610 -468 0
-610 -605 0
610 468 605 0
-611 -545 394 0
-611 545 -394 0
611 545 394 0
611 -545 -394 0
-612 586 0
-612 74 0
612 -586 -74 0
-613 -327 0
-613 370 0
613 327 -370 0
-614 35 0
-614 -212 0
614 -35 212 0
-615 63 0
-615 -517 0
615 -63 517 0
-616 -482 0
-616 -557 0
616 482 557 0
-617 520 0
-617 -598 0
617 -520 598 0
-618 535 0
-618 298 0
618 -535 -298 0
-619 124 0
-619 -290 0
619 -124 290 0
-620 -588 0
-620 132 0
620 588 -132 0
-621 -355 0
-621 -578 0
621 355 578 0
-622 328 0
-622 325 0
622 -328 -325 0
-623 159 0
-623 529 0
623 -159 -529 0
-624 321 0
-624 86 0
624 -321 -86 0
-625 -579 0
-625 568 0
625 579 -568 0
-594 0
-595 0
596 0
-597 0
-598 0
-599 0
600 0
-601 0
602 0
-603 0
-604 0
605 0
-606 0
607 0
-608 0
-609 0
-610 0
611 0
-612 0
-613 0
-614 0
615 0
616 0
-617 0
-618 0
619 0
620 0
621 0
-622 0
-623 0
-624 0
-625 0
