c mixed random circuit, inputs=48 gates=1200, last 48 signals pinned to a planted input assignment; input variables are 1..48
c generated by TurboCryptoSAT gen-benchmark - satisfiable by construction
p cnf 1242 3921
-49 -38 0
-49 -6 0
49 38 6 0
-50 -17 0
-50 -11 0
50 17 11 0
-51 -32 0
-51 1 0
51 32 -1 0
-52 -49 18 0
-52 49 -18 0
52 49 18 0
52 -49 -18 0
-53 -30 0
-53 27 0
53 30 -27 0
-54 5 0
-54 10 0
54 -5 -10 0
-55 -47 0
-55 -9 0
55 47 9 0
-56 -51 0
-56 50 0
56 51 -50 0
-57 35 0
-57 -18 0
57 -35 18 0
-58 -28 -54 0
-58 28 54 0
58 28 -54 0
58 -28 54 0
-59 -33 0
-59 56 0
59 33 -56 0
-60 45 0
-60 -2 0
60 -45 2 0
-61 -33 0
-61 -15 0
61 33 15 0
-62 -11 0
-62 40 0
62 11 -40 0
-63 42 0
-63 -19 0
63 -42 19 0
-64 -36 -56 0
-64 36 56 0
64 36 -56 0
64 -36 56 0
-65 23 0
-65 33 0
65 -23 -33 0
-66 -35 64 0
-66 35 -64 0
66 35 64 0
66 -35 -64 0
-67 -13 0
-67 -17 0
67 13 17 0
-68 51 0
-68 -5 0
68 -51 5 0
-69 -22 0
-69 10 0
69 22 -10 0
-70 -63 28 0
-70 63 -28 0
70 63 28 0
70 -63 -28 0
-71 40 0
-71 -15 0
71 -40 15 0
-72 -56 0
-72 8 0
72 56 -8 0
-73 33 23 0
-73 -33 -23 0
73 -33 23 0
73 33 -23 0
-74 -17 0
-74 -66 0
74 17 66 0
-75 14 0
-75 -5 0
75 -14 5 0
-76 -48 0
-76 -23 0
76 48 23 0
-77 38 -60 0
-77 -38 60 0
77 -38 -60 0
77 38 60 0
-78 32 0
-78 -20 0
78 -32 20 0
-79 44 0
-79 -72 0
79 -44 72 0
-80 26 0
-80 -64 0
80 -26 64 0
-81 -51 0
-81 -56 0
81 51 56 0
-82 -28 0
-82 -26 0
82 28 26 0
-83 79 -25 0
-83 -79 25 0
83 -79 -25 0
83 79 25 0
-84 -40 0
-84 64 0
84 40 -64 0
-85 -39 0
-85 -55 0
85 39 55 0
-86 -80 0
-86 -12 0
86 80 12 0
-87 41 0
-87 -28 0
87 -41 28 0
-88 -4 0
-88 -31 0
88 4 31 0
-89 1 0
-89 -15 0
89 -1 15 0
-90 21 0
-90 -64 0
90 -21 64 0
-91 -83 -82 0
-91 83 82 0
91 83 -82 0
91 -83 82 0
-92 -60 44 0
-92 60 -44 0
92 60 44 0
92 -60 -44 0
-93 23 0
-93 81 0
93 -23 -81 0
-94 -27 0
-94 -35 0
94 27 35 0
-95 -88 -57 0
-95 88 57 0
95 88 -57 0
95 -88 57 0
-96 75 0
-96 67 0
96 -75 -67 0
-97 69 26 0
-97 -69 -26 0
97 -69 26 0
97 69 -26 0
-98 -91 0
-98 60 0
98 91 -60 0
-99 -97 0
-99 -71 0
99 97 71 0
-100 -42 -87 0
-100 42 87 0
100 42 -87 0
100 -42 87 0
-101 -28 0
-101 78 0
101 28 -78 0
-102 99 0
-102 -14 0
102 -99 14 0
-103 26 0
-103 -66 0
103 -26 66 0
-104 16 0
-104 -1 0
104 -16 1 0
-105 57 0
-105 96 0
105 -57 -96 0
-106 32 0
-106 57 0
106 -32 -57 0
-107 102 0
-107 -98 0
107 -102 98 0
-108 24 0
-108 -4 0
108 -24 4 0
-109 -16 0
-109 3 0
109 16 -3 0
-110 -105 0
-110 -20 0
110 105 20 0
-111 -106 0
-111 -20 0
111 106 20 0
-112 95 0
-112 31 0
112 -95 -31 0
-113 29 -61 0
-113 -29 61 0
113 -29 -61 0
113 29 61 0
-114 89 0
-114 78 0
114 -89 -78 0
-115 5 0
-115 -4 0
115 -5 4 0
-116 -85 0
-116 -23 0
116 85 23 0
-117 -41 0
-117 -60 0
117 41 60 0
-118 -17 0
-118 -97 0
118 17 97 0
-119 52 0
-119 73 0
119 -52 -73 0
-120 -68 0
-120 15 0
120 68 -15 0
-121 107 0
-121 -86 0
121 -107 86 0
-122 -82 0
-122 -12 0
122 82 12 0
-123 -15 -11 0
-123 15 11 0
123 15 -11 0
123 -15 11 0
-124 -7 0
-124 -71 0
124 7 71 0
-125 21 0
-125 105 0
125 -21 -105 0
-126 29 0
-126 -9 0
126 -29 9 0
-127 66 0
-127 -6 0
127 -66 6 0
-128 -86 0
-128 -7 0
128 86 7 0
-129 128 0
-129 119 0
129 -128 -119 0
-130 43 0
-130 16 0
130 -43 -16 0
-131 47 0
-131 77 0
131 -47 -77 0
-132 -69 0
-132 -82 0
132 69 82 0
-133 -38 17 0
-133 38 -17 0
133 38 17 0
133 -38 -17 0
-134 -40 0
-134 131 0
134 40 -131 0
-135 -93 0
-135 -14 0
135 93 14 0
-136 129 116 0
-136 -129 -116 0
136 -129 116 0
136 129 -116 0
-137 75 0
-137 52 0
137 -75 -52 0
-138 -62 0
-138 137 0
138 62 -137 0
-139 -118 0
-139 -71 0
139 118 71 0
-140 133 0
-140 -103 0
140 -133 103 0
-141 29 -30 0
-141 -29 30 0
141 -29 -30 0
141 29 30 0
-142 -31 0
-142 -65 0
142 31 65 0
-143 95 0
-143 -12 0
143 -95 12 0
-144 -45 0
-144 -104 0
144 45 104 0
-145 58 0
-145 84 0
145 -58 -84 0
-146 -141 -93 0
-146 141 93 0
146 141 -93 0
146 -141 93 0
-147 18 92 0
-147 -18 -92 0
147 -18 92 0
147 18 -92 0
-148 -92 0
-148 103 0
148 92 -103 0
-149 -96 0
-149 68 0
149 96 -68 0
-150 37 0
-150 -47 0
150 -37 47 0
-151 -2 0
-151 -33 0
151 2 33 0
-152 14 0
-152 -130 0
152 -14 130 0
-153 107 79 0
-153 -107 -79 0
153 -107 79 0
153 107 -79 0
-154 79 0
-154 153 0
154 -79 -153 0
-155 -120 0
-155 -100 0
155 120 100 0
-156 70 0
-156 51 0
156 -70 -51 0
-157 -62 0
-157 -23 0
157 62 23 0
-158 -41 0
-158 -65 0
158 41 65 0
-159 -76 0
-159 -101 0
159 76 101 0
-160 76 0
-160 40 0
160 -76 -40 0
-161 126 44 0
-161 -126 -44 0
161 -126 44 0
161 126 -44 0
-162 -53 0
-162 -50 0
162 53 50 0
-163 115 160 0
-163 -115 -160 0
163 -115 160 0
163 115 -160 0
-164 -17 -111 0
-164 17 111 0
164 17 -111 0
164 -17 111 0
-165 -148 0
-165 -160 0
165 148 160 0
-166 99 0
-166 10 0
166 -99 -10 0
-167 162 0
-167 -118 0
167 -162 118 0
-168 151 0
-168 99 0
168 -151 -99 0
-169 -29 -37 0
-169 29 37 0
169 29 -37 0
169 -29 37 0
-170 -98 0
-170 -63 0
170 98 63 0
-171 128 0
-171 -91 0
171 -128 91 0
-172 139 44 0
-172 -139 -44 0
172 -139 44 0
172 139 -44 0
-173 118 0
-173 135 0
173 -118 -135 0
-174 -103 0
-174 7 0
174 103 -7 0
-175 26 0
-175 14 0
175 -26 -14 0
-176 -83 0
-176 174 0
176 83 -174 0
-177 69 0
-177 8 0
177 -69 -8 0
-178 -17 0
-178 152 0
178 17 -152 0
-179 -89 0
-179 126 0
179 89 -126 0
-180 148 0
-180 -120 0
180 -148 120 0
-181 -38 -169 0
-181 38 169 0
181 38 -169 0
181 -38 169 0
-182 173 0
-182 -70 0
182 -173 70 0
-183 93 0
-183 89 0
183 -93 -89 0
-184 123 0
-184 -102 0
184 -123 102 0
-185 -103 0
-185 -128 0
185 103 128 0
-186 -116 0
-186 120 0
186 116 -120 0
-187 -132 0
-187 -49 0
187 132 49 0
-188 -59 0
-188 -62 0
188 59 62 0
-189 36 101 0
-189 -36 -101 0
189 -36 101 0
189 36 -101 0
-190 -56 0
-190 -18 0
190 56 18 0
-191 97 0
-191 -39 0
191 -97 39 0
-192 -104 0
-192 -154 0
192 104 154 0
-193 44 -91 0
-193 -44 91 0
193 -44 -91 0
193 44 91 0
-194 148 0
-194 158 0
194 -148 -158 0
-195 154 129 0
-195 -154 -129 0
195 -154 129 0
195 154 -129 0
-196 71 0
-196 -27 0
196 -71 27 0
-197 38 0
-197 174 0
197 -38 -174 0
-198 78 0
-198 77 0
198 -78 -77 0
-199 146 0
-199 -92 0
199 -146 92 0
-200 138 -28 0
-200 -138 28 0
200 -138 -28 0
200 138 28 0
-201 -197 0
-201 108 0
201 197 -108 0
-202 40 0
-202 185 0
202 -40 -185 0
-203 2 0
-203 176 0
203 -2 -176 0
-204 -40 0
-204 161 0
204 40 -161 0
-205 28 150 0
-205 -28 -150 0
205 -28 150 0
205 28 -150 0
-206 133 0
-206 -127 0
206 -133 127 0
-207 102 -156 0
-207 -102 156 0
207 -102 -156 0
207 102 156 0
-208 121 0
-208 109 0
208 -121 -109 0
-209 -53 0
-209 31 0
209 53 -31 0
-210 132 0
-210 91 0
210 -132 -91 0
-211 70 0
-211 -187 0
211 -70 187 0
-212 104 95 0
-212 -104 -95 0
212 -104 95 0
212 104 -95 0
-213 209 0
-213 203 0
213 -209 -203 0
-214 -136 201 0
-214 136 -201 0
214 136 201 0
214 -136 -201 0
-215 182 0
-215 -54 0
215 -182 54 0
-216 -139 0
-216 164 0
216 139 -164 0
-217 -40 0
-217 175 0
217 40 -175 0
-218 -111 0
-218 152 0
218 111 -152 0
-219 -130 216 0
-219 130 -216 0
219 130 216 0
219 -130 -216 0
-220 172 -101 0
-220 -172 101 0
220 -172 -101 0
220 172 101 0
-221 118 0
-221 31 0
221 -118 -31 0
-222 72 187 0
-222 -72 -187 0
222 -72 187 0
222 72 -187 0
-223 -146 0
-223 177 0
223 146 -177 0
-224 178 -71 0
-224 -178 71 0
224 -178 -71 0
224 178 71 0
-225 -224 -122 0
-225 224 122 0
225 224 -122 0
225 -224 122 0
-226 -127 0
-226 -16 0
226 127 16 0
-227 -4 0
-227 -43 0
227 4 43 0
-228 133 0
-228 -189 0
228 -133 189 0
-229 65 0
-229 -31 0
229 -65 31 0
-230 -107 0
-230 -170 0
230 107 170 0
-231 131 122 0
-231 -131 -122 0
231 -131 122 0
231 131 -122 0
-232 -180 0
-232 178 0
232 180 -178 0
-233 -106 0
-233 -204 0
233 106 204 0
-234 -153 0
-234 -39 0
234 153 39 0
-235 122 0
-235 -93 0
235 -122 93 0
-236 185 196 0
-236 -185 -196 0
236 -185 196 0
236 185 -196 0
-237 2 -22 0
-237 -2 22 0
237 -2 -22 0
237 2 22 0
-238 50 0
-238 -169 0
238 -50 169 0
-239 -197 -98 0
-239 197 98 0
239 197 -98 0
239 -197 98 0
-240 34 0
-240 121 0
240 -34 -121 0
-241 -13 129 0
-241 13 -129 0
241 13 129 0
241 -13 -129 0
-242 -23 0
-242 5 0
242 23 -5 0
-243 138 -136 0
-243 -138 136 0
243 -138 -136 0
243 138 136 0
-244 243 0
-244 -158 0
244 -243 158 0
-245 -114 103 0
-245 114 -103 0
245 114 103 0
245 -114 -103 0
-246 189 -19 0
-246 -189 19 0
246 -189 -19 0
246 189 19 0
-247 -240 0
-247 -174 0
247 240 174 0
-248 239 0
-248 -237 0
248 -239 237 0
-249 -186 0
-249 -2 0
249 186 2 0
-250 117 0
-250 55 0
250 -117 -55 0
-251 196 -1 0
-251 -196 1 0
251 -196 -1 0
251 196 1 0
-252 -168 0
-252 -245 0
252 168 245 0
-253 20 135 0
-253 -20 -135 0
253 -20 135 0
253 20 -135 0
-254 187 0
-254 162 0
254 -187 -162 0
-255 -107 0
-255 -151 0
255 107 151 0
-256 10 0
-256 -4 0
256 -10 4 0
-257 10 0
-257 106 0
257 -10 -106 0
-258 -120 -47 0
-258 120 47 0
258 120 -47 0
258 -120 47 0
-259 23 0
-259 -25 0
259 -23 25 0
-260 -102 236 0
-260 102 -236 0
260 102 236 0
260 -102 -236 0
-261 14 0
-261 -51 0
261 -14 51 0
-262 98 0
-262 -127 0
262 -98 127 0
-263 139 0
-263 -232 0
263 -139 232 0
-264 -110 0
-264 -77 0
264 110 77 0
-265 77 0
-265 -171 0
265 -77 171 0
-266 -261 0
-266 204 0
266 261 -204 0
-267 25 0
-267 -61 0
267 -25 61 0
-268 -60 0
-268 227 0
268 60 -227 0
-269 2 0
-269 -246 0
269 -2 246 0
-270 -187 0
-270 62 0
270 187 -62 0
-271 240 237 0
-271 -240 -237 0
271 -240 237 0
271 240 -237 0
-272 -184 0
-272 -99 0
272 184 99 0
-273 -189 -259 0
-273 189 259 0
273 189 -259 0
273 -189 259 0
-274 -269 0
-274 -131 0
274 269 131 0
-275 -114 0
-275 45 0
275 114 -45 0
-276 -126 0
-276 7 0
276 126 -7 0
-277 -155 0
-277 240 0
277 155 -240 0
-278 271 0
-278 23 0
278 -271 -23 0
-279 -159 0
-279 33 0
279 159 -33 0
-280 -159 -201 0
-280 159 201 0
280 159 -201 0
280 -159 201 0
-281 -236 0
-281 -58 0
281 236 58 0
-282 -205 187 0
-282 205 -187 0
282 205 187 0
282 -205 -187 0
-283 -141 0
-283 -210 0
283 141 210 0
-284 -155 0
-284 -204 0
284 155 204 0
-285 270 -239 0
-285 -270 239 0
285 -270 -239 0
285 270 239 0
-286 -170 0
-286 -211 0
286 170 211 0
-287 96 0
-287 -115 0
287 -96 115 0
-288 102 0
-288 -79 0
288 -102 79 0
-289 172 0
-289 199 0
289 -172 -199 0
-290 -64 0
-290 49 0
290 64 -49 0
-291 -250 0
-291 -68 0
291 250 68 0
-292 -98 -269 0
-292 98 269 0
292 98 -269 0
292 -98 269 0
-293 53 0
-293 68 0
293 -53 -68 0
-294 -104 112 0
-294 104 -112 0
294 104 112 0
294 -104 -112 0
-295 104 0
-295 218 0
295 -104 -218 0
-296 124 0
-296 -231 0
296 -124 231 0
-297 -82 0
-297 128 0
297 82 -128 0
-298 -173 0
-298 -230 0
298 173 230 0
-299 -135 0
-299 256 0
299 135 -256 0
-300 -113 0
-300 -61 0
300 113 61 0
-301 -237 0
-301 248 0
301 237 -248 0
-302 -51 -167 0
-302 51 167 0
302 51 -167 0
302 -51 167 0
-303 215 0
-303 -25 0
303 -215 25 0
-304 -76 0
-304 153 0
304 76 -153 0
-305 -235 0
-305 165 0
305 235 -165 0
-306 -288 137 0
-306 288 -137 0
306 288 137 0
306 -288 -137 0
-307 169 0
-307 184 0
307 -169 -184 0
-308 -27 26 0
-308 27 -26 0
308 27 26 0
308 -27 -26 0
-309 76 0
-309 120 0
309 -76 -120 0
-310 -152 69 0
-310 152 -69 0
310 152 69 0
310 -152 -69 0
-311 4 0
-311 9 0
311 -4 -9 0
-312 168 0
-312 -128 0
312 -168 128 0
-313 -125 0
-313 232 0
313 125 -232 0
-314 237 0
-314 290 0
314 -237 -290 0
-315 90 -78 0
-315 -90 78 0
315 -90 -78 0
315 90 78 0
-316 158 0
-316 -90 0
316 -158 90 0
-317 -123 0
-317 1 0
317 123 -1 0
-318 -48 0
-318 -256 0
318 48 256 0
-319 11 51 0
-319 -11 -51 0
319 -11 51 0
319 11 -51 0
-320 71 0
-320 98 0
320 -71 -98 0
-321 -234 0
-321 162 0
321 234 -162 0
-322 174 0
-322 163 0
322 -174 -163 0
-323 228 0
-323 255 0
323 -228 -255 0
-324 290 0
-324 -183 0
324 -290 183 0
-325 303 -239 0
-325 -303 239 0
325 -303 -239 0
325 303 239 0
-326 -15 -173 0
-326 15 173 0
326 15 -173 0
326 -15 173 0
-327 10 0
-327 126 0
327 -10 -126 0
-328 -36 -288 0
-328 36 288 0
328 36 -288 0
328 -36 288 0
-329 -169 0
-329 -11 0
329 169 11 0
-330 181 -270 0
-330 -181 270 0
330 -181 -270 0
330 181 270 0
-331 184 0
-331 230 0
331 -184 -230 0
-332 -143 0
-332 186 0
332 143 -186 0
-333 127 221 0
-333 -127 -221 0
333 -127 221 0
333 127 -221 0
-334 -333 0
-334 72 0
334 333 -72 0
-335 -55 286 0
-335 55 -286 0
335 55 286 0
335 -55 -286 0
-336 -173 -104 0
-336 173 104 0
336 173 -104 0
336 -173 104 0
-337 200 0
-337 123 0
337 -200 -123 0
-338 -29 0
-338 301 0
338 29 -301 0
-339 40 0
-339 105 0
339 -40 -105 0
-340 314 0
-340 9 0
340 -314 -9 0
-341 -189 0
-341 274 0
341 189 -274 0
-342 -281 0
-342 -126 0
342 281 126 0
-343 -77 0
-343 232 0
343 77 -232 0
-344 -132 0
-344 -342 0
344 132 342 0
-345 -101 0
-345 -7 0
345 101 7 0
-346 -173 -334 0
-346 173 334 0
346 173 -334 0
346 -173 334 0
-347 50 0
-347 -307 0
347 -50 307 0
-348 62 -73 0
-348 -62 73 0
348 -62 -73 0
348 62 73 0
-349 -161 0
-349 -101 0
349 161 101 0
-350 -248 0
-350 -275 0
350 248 275 0
-351 321 -77 0
-351 -321 77 0
351 -321 -77 0
351 321 77 0
-352 243 83 0
-352 -243 -83 0
352 -243 83 0
352 243 -83 0
-353 -146 0
-353 -193 0
353 146 193 0
-354 -199 0
-354 182 0
354 199 -182 0
-355 -283 0
-355 -189 0
355 283 189 0
-356 -171 0
-356 -41 0
356 171 41 0
-357 -17 267 0
-357 17 -267 0
357 17 267 0
357 -17 -267 0
-358 214 0
-358 -192 0
358 -214 192 0
-359 -21 202 0
-359 21 -202 0
359 21 202 0
359 -21 -202 0
-360 272 0
-360 -143 0
360 -272 143 0
-361 -243 230 0
-361 243 -230 0
361 243 230 0
361 -243 -230 0
-362 300 0
-362 131 0
362 -300 -131 0
-363 -220 0
-363 -195 0
363 220 195 0
-364 -235 0
-364 -29 0
364 235 29 0
-365 327 0
-365 246 0
365 -327 -246 0
-366 283 0
-366 76 0
366 -283 -76 0
-367 257 0
-367 -240 0
367 -257 240 0
-368 134 -237 0
-368 -134 237 0
368 -134 -237 0
368 134 237 0
-369 292 0
-369 118 0
369 -292 -118 0
-370 40 0
-370 211 0
370 -40 -211 0
-371 215 0
-371 -127 0
371 -215 127 0
-372 -18 261 0
-372 18 -261 0
372 18 261 0
372 -18 -261 0
-373 -2 0
-373 -135 0
373 2 135 0
-374 159 -2 0
-374 -159 2 0
374 -159 -2 0
374 159 2 0
-375 -233 0
-375 -270 0
375 233 270 0
-376 203 0
-376 103 0
376 -203 -103 0
-377 -119 0
-377 -166 0
377 119 166 0
-378 193 0
-378 -320 0
378 -193 320 0
-379 369 0
-379 225 0
379 -369 -225 0
-380 -14 0
-380 -317 0
380 14 317 0
-381 -209 0
-381 -59 0
381 209 59 0
-382 374 0
-382 -372 0
382 -374 372 0
-383 -321 0
-383 -160 0
383 321 160 0
-384 289 0
-384 -71 0
384 -289 71 0
-385 -72 0
-385 258 0
385 72 -258 0
-386 236 0
-386 263 0
386 -236 -263 0
-387 196 0
-387 -298 0
387 -196 298 0
-388 -221 0
-388 -375 0
388 221 375 0
-389 -252 0
-389 119 0
389 252 -119 0
-390 -272 -190 0
-390 272 190 0
390 272 -190 0
390 -272 190 0
-391 257 320 0
-391 -257 -320 0
391 -257 320 0
391 257 -320 0
-392 -69 0
-392 314 0
392 69 -314 0
-393 -379 0
-393 189 0
393 379 -189 0
-394 -7 164 0
-394 7 -164 0
394 7 164 0
394 -7 -164 0
-395 -342 0
-395 350 0
395 342 -350 0
-396 229 0
-396 -60 0
396 -229 60 0
-397 -164 0
-397 48 0
397 164 -48 0
-398 -58 0
-398 243 0
398 58 -243 0
-399 -153 0
-399 290 0
399 153 -290 0
-400 3 0
-400 -359 0
400 -3 359 0
-401 -290 0
-401 -261 0
401 290 261 0
-402 182 0
-402 366 0
402 -182 -366 0
-403 -247 37 0
-403 247 -37 0
403 247 37 0
403 -247 -37 0
-404 229 0
-404 -131 0
404 -229 131 0
-405 -99 0
-405 11 0
405 99 -11 0
-406 227 0
-406 -170 0
406 -227 170 0
-407 380 0
-407 -310 0
407 -380 310 0
-408 200 91 0
-408 -200 -91 0
408 -200 91 0
408 200 -91 0
-409 -12 0
-409 -29 0
409 12 29 0
-410 -213 26 0
-410 213 -26 0
410 213 26 0
410 -213 -26 0
-411 258 -404 0
-411 -258 404 0
411 -258 -404 0
411 258 404 0
-412 86 0
-412 161 0
412 -86 -161 0
-413 -97 0
-413 -330 0
413 97 330 0
-414 -125 -202 0
-414 125 202 0
414 125 -202 0
414 -125 202 0
-415 -184 0
-415 -82 0
415 184 82 0
-416 274 0
-416 -349 0
416 -274 349 0
-417 -352 0
-417 307 0
417 352 -307 0
-418 322 261 0
-418 -322 -261 0
418 -322 261 0
418 322 -261 0
-419 -312 0
-419 -58 0
419 312 58 0
-420 312 -83 0
-420 -312 83 0
420 -312 -83 0
420 312 83 0
-421 239 0
-421 95 0
421 -239 -95 0
-422 -111 0
-422 127 0
422 111 -127 0
-423 -301 72 0
-423 301 -72 0
423 301 72 0
423 -301 -72 0
-424 277 0
-424 -292 0
424 -277 292 0
-425 -283 349 0
-425 283 -349 0
425 283 349 0
425 -283 -349 0
-426 38 -87 0
-426 -38 87 0
426 -38 -87 0
426 38 87 0
-427 -413 0
-427 -388 0
427 413 388 0
-428 -123 0
-428 74 0
428 123 -74 0
-429 207 123 0
-429 -207 -123 0
429 -207 123 0
429 207 -123 0
-430 -163 0
-430 424 0
430 163 -424 0
-431 -272 0
-431 -419 0
431 272 419 0
-432 -428 -373 0
-432 428 373 0
432 428 -373 0
432 -428 373 0
-433 -275 -6 0
-433 275 6 0
433 275 -6 0
433 -275 6 0
-434 32 0
-434 41 0
434 -32 -41 0
-435 -88 0
-435 21 0
435 88 -21 0
-436 408 -432 0
-436 -408 432 0
436 -408 -432 0
436 408 432 0
-437 373 0
-437 308 0
437 -373 -308 0
-438 351 0
-438 -60 0
438 -351 60 0
-439 -210 0
-439 390 0
439 210 -390 0
-440 26 -370 0
-440 -26 370 0
440 -26 -370 0
440 26 370 0
-441 199 -380 0
-441 -199 380 0
441 -199 -380 0
441 199 380 0
-442 -191 0
-442 -182 0
442 191 182 0
-443 -163 0
-443 -340 0
443 163 340 0
-444 194 0
-444 -438 0
444 -194 438 0
-445 202 0
-445 290 0
445 -202 -290 0
-446 -177 -76 0
-446 177 76 0
446 177 -76 0
446 -177 76 0
-447 -431 232 0
-447 431 -232 0
447 431 232 0
447 -431 -232 0
-448 444 0
-448 -186 0
448 -444 186 0
-449 -52 0
-449 353 0
449 52 -353 0
-450 -184 0
-450 217 0
450 184 -217 0
-451 358 0
-451 229 0
451 -358 -229 0
-452 -298 0
-452 -228 0
452 298 228 0
-453 -41 17 0
-453 41 -17 0
453 41 17 0
453 -41 -17 0
-454 58 0
-454 346 0
454 -58 -346 0
-455 -47 0
-455 -286 0
455 47 286 0
-456 -61 -181 0
-456 61 181 0
456 61 -181 0
456 -61 181 0
-457 72 54 0
-457 -72 -54 0
457 -72 54 0
457 72 -54 0
-458 -189 0
-458 42 0
458 189 -42 0
-459 253 -187 0
-459 -253 187 0
459 -253 -187 0
459 253 187 0
-460 373 0
-460 225 0
460 -373 -225 0
-461 -60 0
-461 -314 0
461 60 314 0
-462 28 0
-462 133 0
462 -28 -133 0
-463 -64 0
-463 134 0
463 64 -134 0
-464 -200 0
-464 189 0
464 200 -189 0
-465 6 0
-465 -327 0
465 -6 327 0
-466 431 0
-466 416 0
466 -431 -416 0
-467 248 -321 0
-467 -248 321 0
467 -248 -321 0
467 248 321 0
-468 389 0
-468 -126 0
468 -389 126 0
-469 151 0
-469 86 0
469 -151 -86 0
-470 181 0
-470 266 0
470 -181 -266 0
-471 -277 0
-471 292 0
471 277 -292 0
-472 113 -397 0
-472 -113 397 0
472 -113 -397 0
472 113 397 0
-473 162 0
-473 324 0
473 -162 -324 0
-474 161 0
-474 35 0
474 -161 -35 0
-475 -414 0
-475 -63 0
475 414 63 0
-476 -218 0
-476 -366 0
476 218 366 0
-477 437 0
-477 -352 0
477 -437 352 0
-478 59 0
-478 258 0
478 -59 -258 0
-479 -197 0
-479 -105 0
479 197 105 0
-480 359 0
-480 364 0
480 -359 -364 0
-481 304 0
-481 -161 0
481 -304 161 0
-482 -7 0
-482 -218 0
482 7 218 0
-483 197 0
-483 -151 0
483 -197 151 0
-484 413 0
-484 -461 0
484 -413 461 0
-485 -13 0
-485 364 0
485 13 -364 0
-486 -122 230 0
-486 122 -230 0
486 122 230 0
486 -122 -230 0
-487 -173 -352 0
-487 173 352 0
487 173 -352 0
487 -173 352 0
-488 -29 0
-488 -105 0
488 29 105 0
-489 -448 0
-489 -199 0
489 448 199 0
-490 -199 0
-490 -138 0
490 199 138 0
-491 109 0
-491 -425 0
491 -109 425 0
-492 148 0
-492 -166 0
492 -148 166 0
-493 -130 0
-493 176 0
493 130 -176 0
-494 -453 0
-494 -224 0
494 453 224 0
-495 -220 0
-495 -454 0
495 220 454 0
-496 -314 0
-496 404 0
496 314 -404 0
-497 169 0
-497 -68 0
497 -169 68 0
-498 414 0
-498 324 0
498 -414 -324 0
-499 -251 0
-499 -186 0
499 251 186 0
-500 236 0
-500 -358 0
500 -236 358 0
-501 -386 0
-501 75 0
501 386 -75 0
-502 389 0
-502 221 0
502 -389 -221 0
-503 165 0
-503 -401 0
503 -165 401 0
-504 62 0
-504 359 0
504 -62 -359 0
-505 438 0
-505 -216 0
505 -438 216 0
-506 505 0
-506 -220 0
506 -505 220 0
-507 91 288 0
-507 -91 -288 0
507 -91 288 0
507 91 -288 0
-508 340 0
-508 309 0
508 -340 -309 0
-509 -465 0
-509 335 0
509 465 -335 0
-510 -295 -341 0
-510 295 341 0
510 295 -341 0
510 -295 341 0
-511 161 95 0
-511 -161 -95 0
511 -161 95 0
511 161 -95 0
-512 -230 0
-512 -380 0
512 230 380 0
-513 294 0
-513 -39 0
513 -294 39 0
-514 21 0
-514 -438 0
514 -21 438 0
-515 -389 -147 0
-515 389 147 0
515 389 -147 0
515 -389 147 0
-516 -508 0
-516 -404 0
516 508 404 0
-517 389 0
-517 117 0
517 -389 -117 0
-518 457 0
-518 144 0
518 -457 -144 0
-519 -438 0
-519 10 0
519 438 -10 0
-520 165 0
-520 -308 0
520 -165 308 0
-521 184 -176 0
-521 -184 176 0
521 -184 -176 0
521 184 176 0
-522 -163 0
-522 27 0
522 163 -27 0
-523 193 0
-523 -164 0
523 -193 164 0
-524 95 0
-524 142 0
524 -95 -142 0
-525 197 0
-525 307 0
525 -197 -307 0
-526 519 0
-526 -39 0
526 -519 39 0
-527 10 0
-527 -48 0
527 -10 48 0
-528 349 -205 0
-528 -349 205 0
528 -349 -205 0
528 349 205 0
-529 39 262 0
-529 -39 -262 0
529 -39 262 0
529 39 -262 0
-530 501 0
-530 -423 0
530 -501 423 0
-531 -113 0
-531 66 0
531 113 -66 0
-532 437 37 0
-532 -437 -37 0
532 -437 37 0
532 437 -37 0
-533 -375 0
-533 363 0
533 375 -363 0
-534 -209 0
-534 -202 0
534 209 202 0
-535 506 0
-535 21 0
535 -506 -21 0
-536 83 0
-536 39 0
536 -83 -39 0
-537 507 0
-537 24 0
537 -507 -24 0
-538 -347 0
-538 292 0
538 347 -292 0
-539 243 0
-539 335 0
539 -243 -335 0
-540 -61 0
-540 1 0
540 61 -1 0
-541 289 0
-541 -124 0
541 -289 124 0
-542 61 0
-542 425 0
542 -61 -425 0
-543 102 0
-543 -96 0
543 -102 96 0
-544 -88 0
-544 198 0
544 88 -198 0
-545 442 0
-545 -408 0
545 -442 408 0
-546 -471 0
-546 264 0
546 471 -264 0
-547 -357 0
-547 -62 0
547 357 62 0
-548 -278 0
-548 170 0
548 278 -170 0
-549 172 0
-549 174 0
549 -172 -174 0
-550 -421 -97 0
-550 421 97 0
550 421 -97 0
550 -421 97 0
-551 -337 0
-551 -47 0
551 337 47 0
-552 490 0
-552 85 0
552 -490 -85 0
-553 -189 0
-553 155 0
553 189 -155 0
-554 -171 0
-554 -411 0
554 171 411 0
-555 -551 79 0
-555 551 -79 0
555 551 79 0
555 -551 -79 0
-556 -65 0
-556 -345 0
556 65 345 0
-557 46 0
-557 -264 0
557 -46 264 0
-558 -556 -19 0
-558 556 19 0
558 556 -19 0
558 -556 19 0
-559 -82 0
-559 -260 0
559 82 260 0
-560 355 326 0
-560 -355 -326 0
560 -355 326 0
560 355 -326 0
-561 -322 0
-561 9 0
561 322 -9 0
-562 167 0
-562 -221 0
562 -167 221 0
-563 223 0
-563 219 0
563 -223 -219 0
-564 95 0
-564 233 0
564 -95 -233 0
-565 424 0
-565 66 0
565 -424 -66 0
-566 282 0
-566 -69 0
566 -282 69 0
-567 275 0
-567 158 0
567 -275 -158 0
-568 498 321 0
-568 -498 -321 0
568 -498 321 0
568 498 -321 0
-569 71 0
-569 -331 0
569 -71 331 0
-570 -464 0
-570 163 0
570 464 -163 0
-571 -160 0
-571 -10 0
571 160 10 0
-572 246 0
-572 -407 0
572 -246 407 0
-573 -568 0
-573 -165 0
573 568 165 0
-574 561 21 0
-574 -561 -21 0
574 -561 21 0
574 561 -21 0
-575 -109 0
-575 82 0
575 109 -82 0
-576 502 473 0
-576 -502 -473 0
576 -502 473 0
576 502 -473 0
-577 -76 0
-577 -54 0
577 76 54 0
-578 431 0
-578 520 0
578 -431 -520 0
-579 131 42 0
-579 -131 -42 0
579 -131 42 0
579 131 -42 0
-580 -411 0
-580 -181 0
580 411 181 0
-581 213 0
-581 66 0
581 -213 -66 0
-582 -269 0
-582 -61 0
582 269 61 0
-583 -510 0
-583 341 0
583 510 -341 0
-584 -489 0
-584 359 0
584 489 -359 0
-585 118 0
-585 -463 0
585 -118 463 0
-586 -310 0
-586 -460 0
586 310 460 0
-587 165 0
-587 -164 0
587 -165 164 0
-588 425 0
-588 137 0
588 -425 -137 0
-589 278 0
-589 137 0
589 -278 -137 0
-590 216 -469 0
-590 -216 469 0
590 -216 -469 0
590 216 469 0
-591 85 0
-591 -58 0
591 -85 58 0
-592 -15 540 0
-592 15 -540 0
592 15 540 0
592 -15 -540 0
-593 524 0
-593 309 0
593 -524 -309 0
-594 -222 0
-594 68 0
594 222 -68 0
-595 -258 0
-595 -494 0
595 258 494 0
-596 226 0
-596 -435 0
596 -226 435 0
-597 569 18 0
-597 -569 -18 0
597 -569 18 0
597 569 -18 0
-598 298 0
-598 -22 0
598 -298 22 0
-599 457 0
-599 488 0
599 -457 -488 0
-600 -24 0
-600 -17 0
600 24 17 0
-601 -581 0
-601 426 0
601 581 -426 0
-602 330 0
-602 550 0
602 -330 -550 0
-603 179 -112 0
-603 -179 112 0
603 -179 -112 0
603 179 112 0
-604 237 0
-604 -115 0
604 -237 115 0
-605 -295 0
-605 -318 0
605 295 318 0
-606 -485 0
-606 -397 0
606 485 397 0
-607 -20 0
-607 125 0
607 20 -125 0
-608 -430 0
-608 378 0
608 430 -378 0
-609 -441 0
-609 139 0
609 441 -139 0
-610 499 0
-610 280 0
610 -499 -280 0
-611 353 0
-611 482 0
611 -353 -482 0
-612 -99 0
-612 -469 0
612 99 469 0
-613 539 0
-613 -74 0
613 -539 74 0
-614 164 0
-614 514 0
614 -164 -514 0
-615 -613 0
-615 374 0
615 613 -374 0
-616 -499 95 0
-616 499 -95 0
616 499 95 0
616 -499 -95 0
-617 86 567 0
-617 -86 -567 0
617 -86 567 0
617 86 -567 0
-618 -315 0
-618 -484 0
618 315 484 0
-619 -69 0
-619 -36 0
619 69 36 0
-620 -264 0
-620 -263 0
620 264 263 0
-621 -254 0
-621 351 0
621 254 -351 0
-622 -103 0
-622 165 0
622 103 -165 0
-623 499 0
-623 -216 0
623 -499 216 0
-624 544 505 0
-624 -544 -505 0
624 -544 505 0
624 544 -505 0
-625 456 0
-625 9 0
625 -456 -9 0
-626 -618 -326 0
-626 618 326 0
626 618 -326 0
626 -618 326 0
-627 439 0
-627 28 0
627 -439 -28 0
-628 -111 0
-628 518 0
628 111 -518 0
-629 -377 0
-629 -595 0
629 377 595 0
-630 115 -324 0
-630 -115 324 0
630 -115 -324 0
630 115 324 0
-631 353 0
-631 -92 0
631 -353 92 0
-632 413 0
-632 -460 0
632 -413 460 0
-633 -293 0
-633 462 0
633 293 -462 0
-634 263 0
-634 -341 0
634 -263 341 0
-635 190 0
-635 225 0
635 -190 -225 0
-636 44 0
-636 -64 0
636 -44 64 0
-637 -620 0
-637 -354 0
637 620 354 0
-638 298 0
-638 449 0
638 -298 -449 0
-639 -99 -344 0
-639 99 344 0
639 99 -344 0
639 -99 344 0
-640 -186 0
-640 189 0
640 186 -189 0
-641 -490 0
-641 -556 0
641 490 556 0
-642 551 0
-642 -249 0
642 -551 249 0
-643 -553 0
-643 -208 0
643 553 208 0
-644 -598 0
-644 -404 0
644 598 404 0
-645 -404 0
-645 -337 0
645 404 337 0
-646 252 0
-646 504 0
646 -252 -504 0
-647 611 -330 0
-647 -611 330 0
647 -611 -330 0
647 611 330 0
-648 -74 0
-648 -37 0
648 74 37 0
-649 611 0
-649 236 0
649 -611 -236 0
-650 -647 0
-650 568 0
650 647 -568 0
-651 -247 0
-651 203 0
651 247 -203 0
-652 -216 0
-652 -519 0
652 216 519 0
-653 640 0
-653 613 0
653 -640 -613 0
-654 -211 0
-654 7 0
654 211 -7 0
-655 85 0
-655 298 0
655 -85 -298 0
-656 -15 86 0
-656 15 -86 0
656 15 86 0
656 -15 -86 0
-657 -272 0
-657 -264 0
657 272 264 0
-658 250 0
-658 496 0
658 -250 -496 0
-659 -617 0
-659 603 0
659 617 -603 0
-660 -328 0
-660 -437 0
660 328 437 0
-661 -369 0
-661 -612 0
661 369 612 0
-662 -167 0
-662 597 0
662 167 -597 0
-663 181 0
-663 -114 0
663 -181 114 0
-664 365 -416 0
-664 -365 416 0
664 -365 -416 0
664 365 416 0
-665 -285 0
-665 -287 0
665 285 287 0
-666 361 0
-666 -196 0
666 -361 196 0
-667 -560 0
-667 198 0
667 560 -198 0
-668 343 0
-668 401 0
668 -343 -401 0
-669 -379 0
-669 -563 0
669 379 563 0
-670 -97 0
-670 42 0
670 97 -42 0
-671 -565 0
-671 -333 0
671 565 333 0
-672 -654 0
-672 -455 0
672 654 455 0
-673 157 -545 0
-673 -157 545 0
673 -157 -545 0
673 157 545 0
-674 -456 0
-674 -397 0
674 456 397 0
-675 91 0
-675 -140 0
675 -91 140 0
-676 268 0
-676 -66 0
676 -268 66 0
-677 -545 556 0
-677 545 -556 0
677 545 556 0
677 -545 -556 0
-678 -90 0
-678 -232 0
678 90 232 0
-679 583 0
-679 -394 0
679 -583 394 0
-680 151 0
-680 155 0
680 -151 -155 0
-681 -541 0
-681 -106 0
681 541 106 0
-682 -512 0
-682 117 0
682 512 -117 0
-683 313 0
-683 -38 0
683 -313 38 0
-684 -121 -458 0
-684 121 458 0
684 121 -458 0
684 -121 458 0
-685 -668 0
-685 -16 0
685 668 16 0
-686 -382 579 0
-686 382 -579 0
686 382 579 0
686 -382 -579 0
-687 506 0
-687 -42 0
687 -506 42 0
-688 -213 -647 0
-688 213 647 0
688 213 -647 0
688 -213 647 0
-689 445 0
-689 315 0
689 -445 -315 0
-690 -223 0
-690 -583 0
690 223 583 0
-691 -464 0
-691 -476 0
691 464 476 0
-692 -436 0
-692 254 0
692 436 -254 0
-693 26 0
-693 -570 0
693 -26 570 0
-694 209 130 0
-694 -209 -130 0
694 -209 130 0
694 209 -130 0
-695 -375 0
-695 -654 0
695 375 654 0
-696 63 0
-696 672 0
696 -63 -672 0
-697 197 0
-697 109 0
697 -197 -109 0
-698 -479 0
-698 463 0
698 479 -463 0
-699 653 567 0
-699 -653 -567 0
699 -653 567 0
699 653 -567 0
-700 70 0
-700 448 0
700 -70 -448 0
-701 -77 -436 0
-701 77 436 0
701 77 -436 0
701 -77 436 0
-702 -209 0
-702 -492 0
702 209 492 0
-703 55 -258 0
-703 -55 258 0
703 -55 -258 0
703 55 258 0
-704 -186 0
-704 -226 0
704 186 226 0
-705 616 0
-705 239 0
705 -616 -239 0
-706 -375 0
-706 -483 0
706 375 483 0
-707 -410 -312 0
-707 410 312 0
707 410 -312 0
707 -410 312 0
-708 -700 0
-708 601 0
708 700 -601 0
-709 -661 0
-709 405 0
709 661 -405 0
-710 536 -244 0
-710 -536 244 0
710 -536 -244 0
710 536 244 0
-711 -216 0
-711 366 0
711 216 -366 0
-712 642 0
-712 124 0
712 -642 -124 0
-713 27 0
-713 -81 0
713 -27 81 0
-714 -505 702 0
-714 505 -702 0
714 505 702 0
714 -505 -702 0
-715 326 0
-715 -456 0
715 -326 456 0
-716 -664 -638 0
-716 664 638 0
716 664 -638 0
716 -664 638 0
-717 539 0
-717 -150 0
717 -539 150 0
-718 249 0
-718 -125 0
718 -249 125 0
-719 -604 613 0
-719 604 -613 0
719 604 613 0
719 -604 -613 0
-720 -383 0
-720 -219 0
720 383 219 0
-721 -611 0
-721 -324 0
721 611 324 0
-722 648 0
-722 -662 0
722 -648 662 0
-723 109 -11 0
-723 -109 11 0
723 -109 -11 0
723 109 11 0
-724 67 0
-724 -547 0
724 -67 547 0
-725 -77 0
-725 -274 0
725 77 274 0
-726 712 0
-726 -76 0
726 -712 76 0
-727 698 0
-727 654 0
727 -698 -654 0
-728 -337 -499 0
-728 337 499 0
728 337 -499 0
728 -337 499 0
-729 484 0
-729 -57 0
729 -484 57 0
-730 168 0
-730 -184 0
730 -168 184 0
-731 634 0
-731 169 0
731 -634 -169 0
-732 524 0
-732 -271 0
732 -524 271 0
-733 21 0
-733 679 0
733 -21 -679 0
-734 -586 2 0
-734 586 -2 0
734 586 2 0
734 -586 -2 0
-735 -95 0
-735 618 0
735 95 -618 0
-736 690 0
-736 -355 0
736 -690 355 0
-737 -226 -669 0
-737 226 669 0
737 226 -669 0
737 -226 669 0
-738 -415 0
-738 29 0
738 415 -29 0
-739 -323 -128 0
-739 323 128 0
739 323 -128 0
739 -323 128 0
-740 -116 0
-740 700 0
740 116 -700 0
-741 618 0
-741 -65 0
741 -618 65 0
-742 588 0
-742 289 0
742 -588 -289 0
-743 -392 0
-743 648 0
743 392 -648 0
-744 -370 -591 0
-744 370 591 0
744 370 -591 0
744 -370 591 0
-745 -729 719 0
-745 729 -719 0
745 729 719 0
745 -729 -719 0
-746 -367 250 0
-746 367 -250 0
746 367 250 0
746 -367 -250 0
-747 -13 0
-747 -335 0
747 13 335 0
-748 -3 0
-748 -223 0
748 3 223 0
-749 485 0
-749 309 0
749 -485 -309 0
-750 655 0
-750 -303 0
750 -655 303 0
-751 -669 0
-751 237 0
751 669 -237 0
-752 722 -150 0
-752 -722 150 0
752 -722 -150 0
752 722 150 0
-753 466 0
-753 701 0
753 -466 -701 0
-754 306 0
-754 -734 0
754 -306 734 0
-755 -542 0
-755 -337 0
755 542 337 0
-756 129 31 0
-756 -129 -31 0
756 -129 31 0
756 129 -31 0
-757 86 0
-757 142 0
757 -86 -142 0
-758 -645 0
-758 380 0
758 645 -380 0
-759 322 -687 0
-759 -322 687 0
759 -322 -687 0
759 322 687 0
-760 345 70 0
-760 -345 -70 0
760 -345 70 0
760 345 -70 0
-761 515 98 0
-761 -515 -98 0
761 -515 98 0
761 515 -98 0
-762 39 0
-762 86 0
762 -39 -86 0
-763 443 -450 0
-763 -443 450 0
763 -443 -450 0
763 443 450 0
-764 -209 0
-764 612 0
764 209 -612 0
-765 538 0
-765 -68 0
765 -538 68 0
-766 529 0
-766 558 0
766 -529 -558 0
-767 -198 0
-767 -94 0
767 198 94 0
-768 -571 0
-768 -215 0
768 571 215 0
-769 213 320 0
-769 -213 -320 0
769 -213 320 0
769 213 -320 0
-770 -720 0
-770 101 0
770 720 -101 0
-771 -750 0
-771 -328 0
771 750 328 0
-772 -77 187 0
-772 77 -187 0
772 77 187 0
772 -77 -187 0
-773 -285 0
-773 303 0
773 285 -303 0
-774 298 30 0
-774 -298 -30 0
774 -298 30 0
774 298 -30 0
-775 717 0
-775 -246 0
775 -717 246 0
-776 134 0
-776 -378 0
776 -134 378 0
-777 -540 733 0
-777 540 -733 0
777 540 733 0
777 -540 -733 0
-778 -680 0
-778 577 0
778 680 -577 0
-779 -715 0
-779 -608 0
779 715 608 0
-780 -571 0
-780 -60 0
780 571 60 0
-781 548 -342 0
-781 -548 342 0
781 -548 -342 0
781 548 342 0
-782 343 0
-782 607 0
782 -343 -607 0
-783 -629 0
-783 -361 0
783 629 361 0
-784 488 762 0
-784 -488 -762 0
784 -488 762 0
784 488 -762 0
-785 478 0
-785 -703 0
785 -478 703 0
-786 -730 0
-786 -68 0
786 730 68 0
-787 -103 -475 0
-787 103 475 0
787 103 -475 0
787 -103 475 0
-788 -704 0
-788 -469 0
788 704 469 0
-789 465 44 0
-789 -465 -44 0
789 -465 44 0
789 465 -44 0
-790 27 0
-790 240 0
790 -27 -240 0
-791 -87 -728 0
-791 87 728 0
791 87 -728 0
791 -87 728 0
-792 -603 0
-792 -618 0
792 603 618 0
-793 503 0
-793 -47 0
793 -503 47 0
-794 -415 0
-794 129 0
794 415 -129 0
-795 -207 0
-795 -341 0
795 207 341 0
-796 -206 0
-796 -583 0
796 206 583 0
-797 57 301 0
-797 -57 -301 0
797 -57 301 0
797 57 -301 0
-798 -51 0
-798 83 0
798 51 -83 0
-799 696 0
-799 732 0
799 -696 -732 0
-800 -370 0
-800 -257 0
800 370 257 0
-801 322 0
-801 522 0
801 -322 -522 0
-802 294 0
-802 -509 0
802 -294 509 0
-803 -227 -322 0
-803 227 322 0
803 227 -322 0
803 -227 322 0
-804 -755 0
-804 -61 0
804 755 61 0
-805 779 0
-805 165 0
805 -779 -165 0
-806 473 0
-806 230 0
806 -473 -230 0
-807 -297 0
-807 588 0
807 297 -588 0
-808 -659 0
-808 473 0
808 659 -473 0
-809 522 -790 0
-809 -522 790 0
809 -522 -790 0
809 522 790 0
-810 -567 0
-810 150 0
810 567 -150 0
-811 -535 0
-811 -6 0
811 535 6 0
-812 70 0
-812 -290 0
812 -70 290 0
-813 -472 0
-813 790 0
813 472 -790 0
-814 -804 0
-814 -803 0
814 804 803 0
-815 -574 0
-815 -433 0
815 574 433 0
-816 -230 0
-816 -221 0
816 230 221 0
-817 614 0
-817 -318 0
817 -614 318 0
-818 -112 0
-818 515 0
818 112 -515 0
-819 -562 0
-819 -63 0
819 562 63 0
-820 -372 -672 0
-820 372 672 0
820 372 -672 0
820 -372 672 0
-821 597 0
-821 469 0
821 -597 -469 0
-822 -818 0
-822 -146 0
822 818 146 0
-823 -728 0
-823 147 0
823 728 -147 0
-824 -69 0
-824 529 0
824 69 -529 0
-825 -57 0
-825 593 0
825 57 -593 0
-826 407 0
-826 -615 0
826 -407 615 0
-827 -375 0
-827 -399 0
827 375 399 0
-828 17 0
-828 -93 0
828 -17 93 0
-829 294 -483 0
-829 -294 483 0
829 -294 -483 0
829 294 483 0
-830 -373 632 0
-830 373 -632 0
830 373 632 0
830 -373 -632 0
-831 -75 0
-831 231 0
831 75 -231 0
-832 383 0
-832 645 0
832 -383 -645 0
-833 -147 804 0
-833 147 -804 0
833 147 804 0
833 -147 -804 0
-834 107 0
-834 378 0
834 -107 -378 0
-835 88 0
-835 200 0
835 -88 -200 0
-836 -642 0
-836 523 0
836 642 -523 0
-837 -355 0
-837 -663 0
837 355 663 0
-838 744 0
-838 457 0
838 -744 -457 0
-839 -142 0
-839 241 0
839 142 -241 0
-840 20 0
-840 202 0
840 -20 -202 0
-841 -249 0
-841 828 0
841 249 -828 0
-842 579 0
-842 -724 0
842 -579 724 0
-843 683 340 0
-843 -683 -340 0
843 -683 340 0
843 683 -340 0
-844 -458 183 0
-844 458 -183 0
844 458 183 0
844 -458 -183 0
-845 -168 0
-845 -612 0
845 168 612 0
-846 -14 0
-846 -799 0
846 14 799 0
-847 -263 831 0
-847 263 -831 0
847 263 831 0
847 -263 -831 0
-848 -695 -304 0
-848 695 304 0
848 695 -304 0
848 -695 304 0
-849 -141 0
-849 -448 0
849 141 448 0
-850 245 -706 0
-850 -245 706 0
850 -245 -706 0
850 245 706 0
-851 275 0
-851 -130 0
851 -275 130 0
-852 -282 0
-852 -669 0
852 282 669 0
-853 758 0
-853 575 0
853 -758 -575 0
-854 -777 0
-854 -695 0
854 777 695 0
-855 -516 0
-855 779 0
855 516 -779 0
-856 -507 0
-856 518 0
856 507 -518 0
-857 -773 0
-857 418 0
857 773 -418 0
-858 517 -819 0
-858 -517 819 0
858 -517 -819 0
858 517 819 0
-859 245 733 0
-859 -245 -733 0
859 -245 733 0
859 245 -733 0
-860 768 0
-860 824 0
860 -768 -824 0
-861 388 824 0
-861 -388 -824 0
861 -388 824 0
861 388 -824 0
-862 669 0
-862 170 0
862 -669 -170 0
-863 -673 0
-863 73 0
863 673 -73 0
-864 -332 0
-864 -494 0
864 332 494 0
-865 -343 0
-865 219 0
865 343 -219 0
-866 -298 0
-866 642 0
866 298 -642 0
-867 245 0
-867 677 0
867 -245 -677 0
-868 -678 0
-868 -864 0
868 678 864 0
-869 -131 0
-869 -90 0
869 131 90 0
-870 520 0
-870 -19 0
870 -520 19 0
-871 -443 351 0
-871 443 -351 0
871 443 351 0
871 -443 -351 0
-872 -833 0
-872 -860 0
872 833 860 0
-873 841 0
-873 765 0
873 -841 -765 0
-874 659 0
-874 58 0
874 -659 -58 0
-875 564 0
-875 -626 0
875 -564 626 0
-876 -516 0
-876 -188 0
876 516 188 0
-877 -872 0
-877 67 0
877 872 -67 0
-878 390 -150 0
-878 -390 150 0
878 -390 -150 0
878 390 150 0
-879 -59 -764 0
-879 59 764 0
879 59 -764 0
879 -59 764 0
-880 184 0
-880 553 0
880 -184 -553 0
-881 -666 0
-881 -641 0
881 666 641 0
-882 -664 0
-882 556 0
882 664 -556 0
-883 484 -182 0
-883 -484 182 0
883 -484 -182 0
883 484 182 0
-884 -779 0
-884 386 0
884 779 -386 0
-885 147 -865 0
-885 -147 865 0
885 -147 -865 0
885 147 865 0
-886 541 0
-886 543 0
886 -541 -543 0
-887 -576 0
-887 504 0
887 576 -504 0
-888 485 -839 0
-888 -485 839 0
888 -485 -839 0
888 485 839 0
-889 769 0
-889 124 0
889 -769 -124 0
-890 246 0
-890 -29 0
890 -246 29 0
-891 715 -495 0
-891 -715 495 0
891 -715 -495 0
891 715 495 0
-892 795 663 0
-892 -795 -663 0
892 -795 663 0
892 795 -663 0
-893 170 0
-893 -418 0
893 -170 418 0
-894 -206 0
-894 496 0
894 206 -496 0
-895 669 594 0
-895 -669 -594 0
895 -669 594 0
895 669 -594 0
-896 -537 0
-896 -435 0
896 537 435 0
-897 -345 0
-897 -224 0
897 345 224 0
-898 -686 0
-898 -428 0
898 686 428 0
-899 -133 587 0
-899 133 -587 0
899 133 587 0
899 -133 -587 0
-900 727 0
-900 -878 0
900 -727 878 0
-901 721 0
-901 -483 0
901 -721 483 0
-902 710 0
-902 275 0
902 -710 -275 0
-903 -352 0
-903 249 0
903 352 -249 0
-904 -489 842 0
-904 489 -842 0
904 489 842 0
904 -489 -842 0
-905 -287 0
-905 -180 0
905 287 180 0
-906 -88 0
-906 192 0
906 88 -192 0
-907 457 -603 0
-907 -457 603 0
907 -457 -603 0
907 457 603 0
-908 -166 0
-908 -73 0
908 166 73 0
-909 482 0
-909 893 0
909 -482 -893 0
-910 884 0
-910 -290 0
910 -884 290 0
-911 767 0
-911 680 0
911 -767 -680 0
-912 280 0
-912 -11 0
912 -280 11 0
-913 -637 0
-913 279 0
913 637 -279 0
-914 268 0
-914 193 0
914 -268 -193 0
-915 -717 0
-915 -625 0
915 717 625 0
-916 -800 -615 0
-916 800 615 0
916 800 -615 0
916 -800 615 0
-917 764 127 0
-917 -764 -127 0
917 -764 127 0
917 764 -127 0
-918 -125 756 0
-918 125 -756 0
918 125 756 0
918 -125 -756 0
-919 -695 -322 0
-919 695 322 0
919 695 -322 0
919 -695 322 0
-920 -424 0
-920 -218 0
920 424 218 0
-921 457 -248 0
-921 -457 248 0
921 -457 -248 0
921 457 248 0
-922 485 276 0
-922 -485 -276 0
922 -485 276 0
922 485 -276 0
-923 618 0
-923 385 0
923 -618 -385 0
-924 268 0
-924 732 0
924 -268 -732 0
-925 -54 0
-925 496 0
925 54 -496 0
-926 -871 0
-926 -807 0
926 871 807 0
-927 -772 0
-927 -921 0
927 772 921 0
-928 -711 0
-928 -566 0
928 711 566 0
-929 -158 0
-929 10 0
929 158 -10 0
-930 181 0
-930 676 0
930 -181 -676 0
-931 -12 0
-931 569 0
931 12 -569 0
-932 469 0
-932 539 0
932 -469 -539 0
-933 -262 0
-933 -232 0
933 262 232 0
-934 -131 0
-934 257 0
934 131 -257 0
-935 18 0
-935 660 0
935 -18 -660 0
-936 -856 0
-936 -26 0
936 856 26 0
-937 107 -253 0
-937 -107 253 0
937 -107 -253 0
937 107 253 0
-938 675 -892 0
-938 -675 892 0
938 -675 -892 0
938 675 892 0
-939 -96 -525 0
-939 96 525 0
939 96 -525 0
939 -96 525 0
-940 240 0
-940 -181 0
940 -240 181 0
-941 -435 0
-941 -804 0
941 435 804 0
-942 274 0
-942 868 0
942 -274 -868 0
-943 -210 0
-943 471 0
943 210 -471 0
-944 175 0
-944 814 0
944 -175 -814 0
-945 865 0
-945 -613 0
945 -865 613 0
-946 917 0
-946 331 0
946 -917 -331 0
-947 343 -830 0
-947 -343 830 0
947 -343 -830 0
947 343 830 0
-948 156 147 0
-948 -156 -147 0
948 -156 147 0
948 156 -147 0
-949 -61 0
-949 -683 0
949 61 683 0
-950 -783 0
-950 757 0
950 783 -757 0
-951 -143 0
-951 -449 0
951 143 449 0
-952 76 -650 0
-952 -76 650 0
952 -76 -650 0
952 76 650 0
-953 -469 0
-953 638 0
953 469 -638 0
-954 -57 0
-954 662 0
954 57 -662 0
-955 -159 0
-955 405 0
955 159 -405 0
-956 47 0
-956 83 0
956 -47 -83 0
-957 -146 -98 0
-957 146 98 0
957 146 -98 0
957 -146 98 0
-958 905 0
-958 -52 0
958 -905 52 0
-959 925 0
-959 883 0
959 -925 -883 0
-960 632 -114 0
-960 -632 114 0
960 -632 -114 0
960 632 114 0
-961 252 0
-961 653 0
961 -252 -653 0
-962 -377 0
-962 538 0
962 377 -538 0
-963 321 0
-963 -509 0
963 -321 509 0
-964 900 0
-964 620 0
964 -900 -620 0
-965 44 0
-965 732 0
965 -44 -732 0
-966 -918 0
-966 -235 0
966 918 235 0
-967 126 775 0
-967 -126 -775 0
967 -126 775 0
967 126 -775 0
-968 244 0
-968 767 0
968 -244 -767 0
-969 532 732 0
-969 -532 -732 0
969 -532 732 0
969 532 -732 0
-970 668 0
-970 -712 0
970 -668 712 0
-971 237 -259 0
-971 -237 259 0
971 -237 -259 0
971 237 259 0
-972 835 0
-972 176 0
972 -835 -176 0
-973 521 -719 0
-973 -521 719 0
973 -521 -719 0
973 521 719 0
-974 177 0
-974 406 0
974 -177 -406 0
-975 151 -538 0
-975 -151 538 0
975 -151 -538 0
975 151 538 0
-976 157 -306 0
-976 -157 306 0
976 -157 -306 0
976 157 306 0
-977 -186 0
-977 -782 0
977 186 782 0
-978 -205 0
-978 136 0
978 205 -136 0
-979 -313 0
-979 -22 0
979 313 22 0
-980 -823 0
-980 695 0
980 823 -695 0
-981 806 0
-981 -788 0
981 -806 788 0
-982 -116 0
-982 547 0
982 116 -547 0
-983 493 0
-983 -655 0
983 -493 655 0
-984 702 0
-984 504 0
984 -702 -504 0
-985 598 0
-985 -857 0
985 -598 857 0
-986 861 0
-986 -684 0
986 -861 684 0
-987 -764 0
-987 625 0
987 764 -625 0
-988 -206 0
-988 -547 0
988 206 547 0
-989 723 175 0
-989 -723 -175 0
989 -723 175 0
989 723 -175 0
-990 -796 0
-990 -85 0
990 796 85 0
-991 -369 637 0
-991 369 -637 0
991 369 637 0
991 -369 -637 0
-992 -616 271 0
-992 616 -271 0
992 616 271 0
992 -616 -271 0
-993 385 26 0
-993 -385 -26 0
993 -385 26 0
993 385 -26 0
-994 -146 -471 0
-994 146 471 0
994 146 -471 0
994 -146 471 0
-995 -942 0
-995 575 0
995 942 -575 0
-996 -473 0
-996 86 0
996 473 -86 0
-997 325 0
-997 524 0
997 -325 -524 0
-998 742 0
-998 -889 0
998 -742 889 0
-999 -751 0
-999 -648 0
999 751 648 0
-1000 -935 0
-1000 694 0
1000 935 -694 0
-1001 -578 0
-1001 589 0
1001 578 -589 0
-1002 -689 0
-1002 721 0
1002 689 -721 0
-1003 -527 0
-1003 -46 0
1003 527 46 0
-1004 -68 498 0
-1004 68 -498 0
1004 68 498 0
1004 -68 -498 0
-1005 -361 0
-1005 -82 0
1005 361 82 0
-1006 474 0
-1006 34 0
1006 -474 -34 0
-1007 894 0
-1007 -133 0
1007 -894 133 0
-1008 -953 0
-1008 58 0
1008 953 -58 0
-1009 328 0
-1009 -179 0
1009 -328 179 0
-1010 289 -41 0
-1010 -289 41 0
1010 -289 -41 0
1010 289 41 0
-1011 483 0
-1011 857 0
1011 -483 -857 0
-1012 414 0
-1012 336 0
1012 -414 -336 0
-1013 550 -675 0
-1013 -550 675 0
1013 -550 -675 0
1013 550 675 0
-1014 25 -405 0
-1014 -25 405 0
1014 -25 -405 0
1014 25 405 0
-1015 468 0
-1015 -458 0
1015 -468 458 0
-1016 947 -587 0
-1016 -947 587 0
1016 -947 -587 0
1016 947 587 0
-1017 466 0
-1017 -664 0
1017 -466 664 0
-1018 -121 0
-1018 -932 0
1018 121 932 0
-1019 -521 0
-1019 -502 0
1019 521 502 0
-1020 511 0
-1020 898 0
1020 -511 -898 0
-1021 -960 0
-1021 -977 0
1021 960 977 0
-1022 751 616 0
-1022 -751 -616 0
1022 -751 616 0
1022 751 -616 0
-1023 -841 -54 0
-1023 841 54 0
1023 841 -54 0
1023 -841 54 0
-1024 -431 301 0
-1024 431 -301 0
1024 431 301 0
1024 -431 -301 0
-1025 233 0
-1025 240 0
1025 -233 -240 0
-1026 19 0
-1026 -896 0
1026 -19 896 0
-1027 37 0
-1027 695 0
1027 -37 -695 0
-1028 336 0
-1028 416 0
1028 -336 -416 0
-1029 105 0
-1029 -76 0
1029 -105 76 0
-1030 -823 0
-1030 694 0
1030 823 -694 0
-1031 471 0
-1031 214 0
1031 -471 -214 0
-1032 -426 -517 0
-1032 426 517 0
1032 426 -517 0
1032 -426 517 0
-1033 -1004 0
-1033 501 0
1033 1004 -501 0
-1034 -449 624 0
-1034 449 -624 0
1034 449 624 0
1034 -449 -624 0
-1035 251 -999 0
-1035 -251 999 0
1035 -251 -999 0
1035 251 999 0
-1036 -13 0
-1036 664 0
1036 13 -664 0
-1037 117 932 0
-1037 -117 -932 0
1037 -117 932 0
1037 117 -932 0
-1038 49 -765 0
-1038 -49 765 0
1038 -49 -765 0
1038 49 765 0
-1039 366 0
-1039 600 0
1039 -366 -600 0
-1040 10 0
-1040 -675 0
1040 -10 675 0
-1041 -698 0
-1041 688 0
1041 698 -688 0
-1042 145 0
-1042 781 0
1042 -145 -781 0
-1043 1006 984 0
-1043 -1006 -984 0
1043 -1006 984 0
1043 1006 -984 0
-1044 -491 924 0
-1044 491 -924 0
1044 491 924 0
1044 -491 -924 0
-1045 130 0
-1045 771 0
1045 -130 -771 0
-1046 -725 0
-1046 781 0
1046 725 -781 0
-1047 612 0
-1047 905 0
1047 -612 -905 0
-1048 399 0
-1048 960 0
1048 -399 -960 0
-1049 -280 -709 0
-1049 280 709 0
1049 280 -709 0
1049 -280 709 0
-1050 566 0
-1050 677 0
1050 -566 -677 0
-1051 953 0
-1051 763 0
1051 -953 -763 0
-1052 482 0
-1052 51 0
1052 -482 -51 0
-1053 -762 0
-1053 26 0
1053 762 -26 0
-1054 542 -13 0
-1054 -542 13 0
1054 -542 -13 0
1054 542 13 0
-1055 -723 0
-1055 338 0
1055 723 -338 0
-1056 -803 0
-1056 -788 0
1056 803 788 0
-1057 686 0
-1057 820 0
1057 -686 -820 0
-1058 157 0
-1058 437 0
1058 -157 -437 0
-1059 973 0
-1059 -278 0
1059 -973 278 0
-1060 -331 0
-1060 -842 0
1060 331 842 0
-1061 686 0
-1061 288 0
1061 -686 -288 0
-1062 -62 53 0
-1062 62 -53 0
1062 62 53 0
1062 -62 -53 0
-1063 -302 0
-1063 227 0
1063 302 -227 0
-1064 241 -872 0
-1064 -241 872 0
1064 -241 -872 0
1064 241 872 0
-1065 410 0
-1065 -824 0
1065 -410 824 0
-1066 305 0
-1066 -578 0
1066 -305 578 0
-1067 47 0
-1067 597 0
1067 -47 -597 0
-1068 589 632 0
-1068 -589 -632 0
1068 -589 632 0
1068 589 -632 0
-1069 -996 0
-1069 -105 0
1069 996 105 0
-1070 -955 -1066 0
-1070 955 1066 0
1070 955 -1066 0
1070 -955 1066 0
-1071 -983 0
-1071 581 0
1071 983 -581 0
-1072 -237 0
-1072 -472 0
1072 237 472 0
-1073 -118 0
-1073 -53 0
1073 118 53 0
-1074 1005 0
-1074 -503 0
1074 -1005 503 0
-1075 -914 0
-1075 920 0
1075 914 -920 0
-1076 -840 0
-1076 -288 0
1076 840 288 0
-1077 402 0
-1077 -746 0
1077 -402 746 0
-1078 414 0
-1078 -885 0
1078 -414 885 0
-1079 -74 0
-1079 -85 0
1079 74 85 0
-1080 -441 -967 0
-1080 441 967 0
1080 441 -967 0
1080 -441 967 0
-1081 -47 372 0
-1081 47 -372 0
1081 47 372 0
1081 -47 -372 0
-1082 -112 0
-1082 403 0
1082 112 -403 0
-1083 84 1008 0
-1083 -84 -1008 0
1083 -84 1008 0
1083 84 -1008 0
-1084 -311 -971 0
-1084 311 971 0
1084 311 -971 0
1084 -311 971 0
-1085 395 566 0
-1085 -395 -566 0
1085 -395 566 0
1085 395 -566 0
-1086 -345 0
-1086 -635 0
1086 345 635 0
-1087 -852 0
-1087 -542 0
1087 852 542 0
-1088 -271 339 0
-1088 271 -339 0
1088 271 339 0
1088 -271 -339 0
-1089 -481 0
-1089 1045 0
1089 481 -1045 0
-1090 -1011 0
-1090 -539 0
1090 1011 539 0
-1091 87 -420 0
-1091 -87 420 0
1091 -87 -420 0
1091 87 420 0
-1092 852 0
-1092 -27 0
1092 -852 27 0
-1093 988 667 0
-1093 -988 -667 0
1093 -988 667 0
1093 988 -667 0
-1094 582 -76 0
-1094 -582 76 0
1094 -582 -76 0
1094 582 76 0
-1095 213 0
-1095 -118 0
1095 -213 118 0
-1096 -809 0
-1096 -165 0
1096 809 165 0
-1097 -34 0
-1097 -1072 0
1097 34 1072 0
-1098 -1032 0
-1098 420 0
1098 1032 -420 0
-1099 970 0
-1099 615 0
1099 -970 -615 0
-1100 719 0
-1100 887 0
1100 -719 -887 0
-1101 -293 0
-1101 710 0
1101 293 -710 0
-1102 -686 930 0
-1102 686 -930 0
1102 686 930 0
1102 -686 -930 0
-1103 -814 -301 0
-1103 814 301 0
1103 814 -301 0
1103 -814 301 0
-1104 1032 0
-1104 -597 0
1104 -1032 597 0
-1105 -747 0
-1105 -1031 0
1105 747 1031 0
-1106 -1013 0
-1106 73 0
1106 1013 -73 0
-1107 1029 0
-1107 167 0
1107 -1029 -167 0
-1108 824 0
-1108 -4 0
1108 -824 4 0
-1109 -854 0
-1109 -395 0
1109 854 395 0
-1110 -61 771 0
-1110 61 -771 0
1110 61 771 0
1110 -61 -771 0
-1111 -404 0
-1111 -673 0
1111 404 673 0
-1112 287 0
-1112 865 0
1112 -287 -865 0
-1113 1080 0
-1113 35 0
1113 -1080 -35 0
-1114 -265 0
-1114 -622 0
1114 265 622 0
-1115 346 0
-1115 -697 0
1115 -346 697 0
-1116 76 988 0
-1116 -76 -988 0
1116 -76 988 0
1116 76 -988 0
-1117 -47 0
-1117 382 0
1117 47 -382 0
-1118 -181 0
-1118 -732 0
1118 181 732 0
-1119 46 814 0
-1119 -46 -814 0
1119 -46 814 0
1119 46 -814 0
-1120 866 0
-1120 63 0
1120 -866 -63 0
-1121 810 0
-1121 -728 0
1121 -810 728 0
-1122 818 0
-1122 172 0
1122 -818 -172 0
-1123 -902 0
-1123 -145 0
1123 902 145 0
-1124 -971 0
-1124 -767 0
1124 971 767 0
-1125 -390 0
-1125 -276 0
1125 390 276 0
-1126 503 0
-1126 -553 0
1126 -503 553 0
-1127 238 954 0
-1127 -238 -954 0
1127 -238 954 0
1127 238 -954 0
-1128 -372 -716 0
-1128 372 716 0
1128 372 -716 0
1128 -372 716 0
-1129 219 0
-1129 1092 0
1129 -219 -1092 0
-1130 -885 0
-1130 -832 0
1130 885 832 0
-1131 97 0
-1131 -1082 0
1131 -97 1082 0
-1132 1023 0
-1132 -1078 0
1132 -1023 1078 0
-1133 203 0
-1133 703 0
1133 -203 -703 0
-1134 -803 0
-1134 -582 0
1134 803 582 0
-1135 533 0
-1135 -855 0
1135 -533 855 0
-1136 -56 0
-1136 752 0
1136 56 -752 0
-1137 -752 -174 0
-1137 752 174 0
1137 752 -174 0
1137 -752 174 0
-1138 -151 0
-1138 -1137 0
1138 151 1137 0
-1139 -688 0
-1139 -493 0
1139 688 493 0
-1140 1094 0
-1140 -652 0
1140 -1094 652 0
-1141 -2 -541 0
-1141 2 541 0
1141 2 -541 0
1141 -2 541 0
-1142 -603 -1136 0
-1142 603 1136 0
1142 603 -1136 0
1142 -603 1136 0
-1143 -611 0
-1143 528 0
1143 611 -528 0
-1144 -126 0
-1144 53 0
1144 126 -53 0
-1145 237 0
-1145 -1137 0
1145 -237 1137 0
-1146 395 0
-1146 157 0
1146 -395 -157 0
-1147 -168 0
-1147 523 0
1147 168 -523 0
-1148 -996 0
-1148 -572 0
1148 996 572 0
-1149 113 0
-1149 1060 0
1149 -113 -1060 0
-1150 -548 0
-1150 -691 0
1150 548 691 0
-1151 448 0
-1151 -498 0
1151 -448 498 0
-1152 901 0
-1152 -920 0
1152 -901 920 0
-1153 -849 0
-1153 1064 0
1153 849 -1064 0
-1154 -526 0
-1154 629 0
1154 526 -629 0
-1155 103 -337 0
-1155 -103 337 0
1155 -103 -337 0
1155 103 337 0
-1156 -397 0
-1156 176 0
1156 397 -176 0
-1157 -856 -229 0
-1157 856 229 0
1157 856 -229 0
1157 -856 229 0
-1158 -942 0
-1158 679 0
1158 942 -679 0
-1159 1058 -221 0
-1159 -1058 221 0
1159 -1058 -221 0
1159 1058 221 0
-1160 -10 0
-1160 936 0
1160 10 -936 0
-1161 1043 -1142 0
-1161 -1043 1142 0
1161 -1043 -1142 0
1161 1043 1142 0
-1162 -773 0
-1162 27 0
1162 773 -27 0
-1163 30 0
-1163 519 0
1163 -30 -519 0
-1164 636 0
-1164 -149 0
1164 -636 149 0
-1165 -291 0
-1165 -234 0
1165 291 234 0
-1166 -675 0
-1166 487 0
1166 675 -487 0
-1167 -284 -648 0
-1167 284 648 0
1167 284 -648 0
1167 -284 648 0
-1168 -885 0
-1168 -765 0
1168 885 765 0
-1169 1160 639 0
-1169 -1160 -639 0
1169 -1160 639 0
1169 1160 -639 0
-1170 -1103 0
-1170 898 0
1170 1103 -898 0
-1171 -563 -840 0
-1171 563 840 0
1171 563 -840 0
1171 -563 840 0
-1172 -780 0
-1172 1028 0
1172 780 -1028 0
-1173 -109 0
-1173 -172 0
1173 109 172 0
-1174 -789 0
-1174 -9 0
1174 789 9 0
-1175 -92 -147 0
-1175 92 147 0
1175 92 -147 0
1175 -92 147 0
-1176 1087 0
-1176 170 0
1176 -1087 -170 0
-1177 260 0
-1177 157 0
1177 -260 -157 0
-1178 -1004 0
-1178 -406 0
1178 1004 406 0
-1179 -787 0
-1179 241 0
1179 787 -241 0
-1180 1076 905 0
-1180 -1076 -905 0
1180 -1076 905 0
1180 1076 -905 0
-1181 -947 0
-1181 636 0
1181 947 -636 0
-1182 988 0
-1182 -378 0
1182 -988 378 0
-1183 793 0
-1183 -484 0
1183 -793 484 0
-1184 -195 -1075 0
-1184 195 1075 0
1184 195 -1075 0
1184 -195 1075 0
-1185 1184 -457 0
-1185 -1184 457 0
1185 -1184 -457 0
1185 1184 457 0
-1186 866 150 0
-1186 -866 -150 0
1186 -866 150 0
1186 866 -150 0
-1187 -596 -1063 0
-1187 596 1063 0
1187 596 -1063 0
1187 -596 1063 0
-1188 -949 0
-1188 -910 0
1188 949 910 0
-1189 146 -1088 0
-1189 -146 1088 0
1189 -146 -1088 0
1189 146 1088 0
-1190 1033 0
-1190 -142 0
1190 -1033 142 0
-1191 115 0
-1191 -1136 0
1191 -115 1136 0
-1192 -79 0
-1192 -14 0
1192 79 14 0
-1193 936 0
-1193 822 0
1193 -936 -822 0
-1194 -494 557 0
-1194 494 -557 0
1194 494 557 0
1194 -494 -557 0
-1195 718 0
-1195 -697 0
1195 -718 697 0
-1196 -622 0
-1196 -1178 0
1196 622 1178 0
-1197 -203 0
-1197 -330 0
1197 203 330 0
-1198 818 0
-1198 649 0
1198 -818 -649 0
-1199 629 0
-1199 -23 0
1199 -629 23 0
-1200 1118 0
-1200 -771 0
1200 -1118 771 0
-1201 950 0
-1201 387 0
1201 -950 -387 0
-1202 357 0
-1202 -549 0
1202 -357 549 0
-1203 892 0
-1203 756 0
1203 -892 -756 0
-1204 -591 0
-1204 1028 0
1204 591 -1028 0
-1205 135 0
-1205 -1194 0
1205 -135 1194 0
-1206 -1159 0
-1206 669 0
1206 1159 -669 0
-1207 -1170 276 0
-1207 1170 -276 0
1207 1170 276 0
1207 -1170 -276 0
-1208 1094 0
-1208 -480 0
1208 -1094 480 0
-1209 725 0
-1209 589 0
1209 -725 -589 0
-1210 600 0
-1210 -870 0
1210 -600 870 0
-1211 569 0
-1211 -1129 0
1211 -569 1129 0
-1212 -805 123 0
-1212 805 -123 0
1212 805 123 0
1212 -805 -123 0
-1213 789 570 0
-1213 -789 -570 0
1213 -789 570 0
1213 789 -570 0
-1214 841 0
-1214 914 0
1214 -841 -914 0
-1215 566 0
-1215 -837 0
1215 -566 837 0
-1216 -33 -231 0
-1216 33 231 0
1216 33 -231 0
1216 -33 231 0
-1217 -201 0
-1217 1087 0
1217 201 -1087 0
-1218 -1096 0
-1218 1034 0
1218 1096 -1034 0
-1219 350 0
-1219 -846 0
1219 -350 846 0
-1220 -613 0
-1220 432 0
1220 613 -432 0
-1221 137 0
-1221 1066 0
1221 -137 -1066 0
-1222 459 0
-1222 -300 0
1222 -459 300 0
-1223 -1209 0
-1223 -345 0
1223 1209 345 0
-1224 27 0
-1224 247 0
1224 -27 -247 0
-1225 10 0
-1225 -545 0
1225 -10 545 0
-1226 203 0
-1226 263 0
1226 -203 -263 0
-1227 1207 0
-1227 653 0
1227 -1207 -653 0
-1228 234 0
-1228 145 0
1228 -234 -145 0
-1229 -157 0
-1229 229 0
1229 157 -229 0
-1230 1121 0
-1230 994 0
1230 -1121 -994 0
-1231 610 -296 0
-1231 -610 296 0
1231 -610 -296 0
1231 610 296 0
-1232 196 0
-1232 995 0
1232 -196 -995 0
-1233 693 0
-1233 -543 0
1233 -693 543 0
-1234 812 0
-1234 -223 0
1234 -812 223 0
-1235 -804 0
-1235 776 0
1235 804 -776 0
-1236 -162 0
-1236 1092 0
1236 162 -1092 0
-1237 -76 0
-1237 521 0
1237 76 -521 0
-1238 -60 0
-1238 1196 0
1238 60 -1196 0
-1239 482 0
-1239 1051 0
1239 -482 -1051 0
-1240 250 712 0
-1240 -250 -712 0
1240 -250 712 0
1240 250 -712 0
-1241 -239 0
-1241 -73 0
1241 239 73 0
-1242 405 -224 0
-1242 -405 224 0
1242 -405 -224 0
1242 405 224 0
1195 0
-1196 0
1197 0
-1198 0
-1199 0
-1200 0
-1201 0
1202 0
-1203 0
-1204 0
-1205 0
-1206 0
1207 0
-1208 0
-1209 0
-1210 0
1211 0
-1212 0
-1213 0
-1214 0
-1215 0
-1216 0
1217 0
-1218 0
-1219 0
1220 0
-1221 0
1222 0
1223 0
-1224 0
-1225 0
-1226 0
-1227 0
-1228 0
1229 0
-1230 0
1231 0
-1232 0
-1233 0
-1234 0
-1235 0
-1236 0
1237 0
-1238 0
-1239 0
-1240 0
-1241 0
-1242 0
