c mixed random circuit, inputs=64 gates=2000, last 64 signals pinned to a planted input assignment; input variables are 1..64
c generated by TurboCryptoSAT gen-benchmark - satisfiable by construction
p cnf 2059 6571
-65 -22 0
-65 -50 0
65 22 50 0
-66 -15 0
-66 -62 0
66 15 62 0
-67 -10 0
-67 34 0
67 10 -34 0
-68 -22 -4 0
-68 22 4 0
68 22 -4 0
68 -22 4 0
-69 43 -42 0
-69 -43 42 0
69 -43 -42 0
69 43 42 0
-70 39 0
-70 69 0
70 -39 -69 0
-71 17 -25 0
-71 -17 25 0
71 -17 -25 0
71 17 25 0
-72 22 0
-72 44 0
72 -22 -44 0
-73 52 0
-73 -60 0
73 -52 60 0
-74 35 -3 0
-74 -35 3 0
74 -35 -3 0
74 35 3 0
-75 -10 0
-75 11 0
75 10 -11 0
-76 35 0
-76 27 0
76 -35 -27 0
-77 66 52 0
-77 -66 -52 0
77 -66 52 0
77 66 -52 0
-78 -63 0
-78 -7 0
78 63 7 0
-79 -58 0
-79 15 0
79 58 -15 0
-80 32 0
-80 -25 0
80 -32 25 0
-81 -21 0
-81 80 0
81 21 -80 0
-82 -17 71 0
-82 17 -71 0
82 17 71 0
82 -17 -71 0
-83 -1 53 0
-83 1 -53 0
83 1 53 0
83 -1 -53 0
-84 -76 0
-84 -43 0
84 76 43 0
-85 -61 0
-85 -84 0
85 61 84 0
-86 68 -35 0
-86 -68 35 0
86 -68 -35 0
86 68 35 0
-87 -76 -71 0
-87 76 71 0
87 76 -71 0
87 -76 71 0
-88 21 0
-88 6 0
88 -21 -6 0
-89 -41 77 0
-89 41 -77 0
89 41 77 0
89 -41 -77 0
-90 51 0
-90 -7 0
90 -51 7 0
-91 -57 50 0
-91 57 -50 0
91 57 50 0
91 -57 -50 0
-92 -16 0
-92 -24 0
92 16 24 0
-93 45 0
-93 43 0
93 -45 -43 0
-94 15 -17 0
-94 -15 17 0
94 -15 -17 0
94 15 17 0
-95 82 0
-95 57 0
95 -82 -57 0
-96 88 0
-96 -14 0
96 -88 14 0
-97 -44 0
-97 33 0
97 44 -33 0
-98 -70 0
-98 21 0
98 70 -21 0
-99 43 0
-99 -15 0
99 -43 15 0
-100 74 0
-100 84 0
100 -74 -84 0
-101 66 0
-101 -86 0
101 -66 86 0
-102 3 0
-102 50 0
102 -3 -50 0
-103 91 0
-103 -102 0
103 -91 102 0
-104 -36 0
-104 -3 0
104 36 3 0
-105 47 0
-105 -1 0
105 -47 1 0
-106 -77 0
-106 82 0
106 77 -82 0
-107 34 0
-107 51 0
107 -34 -51 0
-108 -101 -40 0
-108 101 40 0
108 101 -40 0
108 -101 40 0
-109 -57 0
-109 -38 0
109 57 38 0
-110 -53 24 0
-110 53 -24 0
110 53 24 0
110 -53 -24 0
-111 -69 0
-111 -41 0
111 69 41 0
-112 106 0
-112 -46 0
112 -106 46 0
-113 -39 0
-113 2 0
113 39 -2 0
-114 74 0
-114 -65 0
114 -74 65 0
-115 113 0
-115 -21 0
115 -113 21 0
-116 -35 0
-116 77 0
116 35 -77 0
-117 99 0
-117 110 0
117 -99 -110 0
-118 -44 0
-118 -66 0
118 44 66 0
-119 -108 114 0
-119 108 -114 0
119 108 114 0
119 -108 -114 0
-120 -1 0
-120 -58 0
120 1 58 0
-121 -11 0
-121 112 0
121 11 -112 0
-122 70 -2 0
-122 -70 2 0
122 -70 -2 0
122 70 2 0
-123 -35 0
-123 -68 0
123 35 68 0
-124 58 0
-124 -74 0
124 -58 74 0
-125 38 0
-125 14 0
125 -38 -14 0
-126 122 0
-126 46 0
126 -122 -46 0
-127 66 0
-127 58 0
127 -66 -58 0
-128 32 0
-128 70 0
128 -32 -70 0
-129 25 56 0
-129 -25 -56 0
129 -25 56 0
129 25 -56 0
-130 -74 120 0
-130 74 -120 0
130 74 120 0
130 -74 -120 0
-131 101 0
-131 -116 0
131 -101 116 0
-132 88 0
-132 32 0
132 -88 -32 0
-133 10 0
-133 76 0
133 -10 -76 0
-134 97 0
-134 -127 0
134 -97 127 0
-135 13 0
-135 119 0
135 -13 -119 0
-136 115 0
-136 88 0
136 -115 -88 0
-137 131 0
-137 -85 0
137 -131 85 0
-138 -30 0
-138 -36 0
138 30 36 0
-139 67 0
-139 -83 0
139 -67 83 0
-140 -22 0
-140 -19 0
140 22 19 0
-141 -5 138 0
-141 5 -138 0
141 5 138 0
141 -5 -138 0
-142 80 0
-142 68 0
142 -80 -68 0
-143 -32 0
-143 72 0
143 32 -72 0
-144 141 0
-144 -120 0
144 -141 120 0
-145 82 0
-145 31 0
145 -82 -31 0
-146 -54 0
-146 38 0
146 54 -38 0
-147 -146 0
-147 -125 0
147 146 125 0
-148 145 100 0
-148 -145 -100 0
148 -145 100 0
148 145 -100 0
-149 -41 0
-149 27 0
149 41 -27 0
-150 -95 0
-150 -128 0
150 95 128 0
-151 -116 0
-151 -33 0
151 116 33 0
-152 123 0
-152 122 0
152 -123 -122 0
-153 -90 0
-153 -71 0
153 90 71 0
-154 -91 0
-154 46 0
154 91 -46 0
-155 -35 0
-155 133 0
155 35 -133 0
-156 66 0
-156 -146 0
156 -66 146 0
-157 125 0
-157 110 0
157 -125 -110 0
-158 154 0
-158 107 0
158 -154 -107 0
-159 15 0
-159 100 0
159 -15 -100 0
-160 157 -99 0
-160 -157 99 0
160 -157 -99 0
160 157 99 0
-161 -44 26 0
-161 44 -26 0
161 44 26 0
161 -44 -26 0
-162 -132 0
-162 155 0
162 132 -155 0
-163 158 0
-163 152 0
163 -158 -152 0
-164 -142 0
-164 100 0
164 142 -100 0
-165 -85 0
-165 86 0
165 85 -86 0
-166 -99 -81 0
-166 99 81 0
166 99 -81 0
166 -99 81 0
-167 7 -52 0
-167 -7 52 0
167 -7 -52 0
167 7 52 0
-168 -4 63 0
-168 4 -63 0
168 4 63 0
168 -4 -63 0
-169 -152 0
-169 116 0
169 152 -116 0
-170 -162 0
-170 134 0
170 162 -134 0
-171 -69 0
-171 -47 0
171 69 47 0
-172 -77 38 0
-172 77 -38 0
172 77 38 0
172 -77 -38 0
-173 170 0
-173 14 0
173 -170 -14 0
-174 -55 0
-174 21 0
174 55 -21 0
-175 163 0
-175 41 0
175 -163 -41 0
-176 6 0
-176 -72 0
176 -6 72 0
-177 -168 0
-177 -73 0
177 168 73 0
-178 97 0
-178 151 0
178 -97 -151 0
-179 124 0
-179 -104 0
179 -124 104 0
-180 -79 0
-180 -33 0
180 79 33 0
-181 159 0
-181 -10 0
181 -159 10 0
-182 -158 0
-182 132 0
182 158 -132 0
-183 137 72 0
-183 -137 -72 0
183 -137 72 0
183 137 -72 0
-184 59 0
-184 -106 0
184 -59 106 0
-185 -119 81 0
-185 119 -81 0
185 119 81 0
185 -119 -81 0
-186 150 0
-186 -183 0
186 -150 183 0
-187 -57 11 0
-187 57 -11 0
187 57 11 0
187 -57 -11 0
-188 -106 0
-188 112 0
188 106 -112 0
-189 -112 0
-189 -152 0
189 112 152 0
-190 -126 0
-190 -8 0
190 126 8 0
-191 -173 0
-191 -159 0
191 173 159 0
-192 44 0
-192 -31 0
192 -44 31 0
-193 -161 -169 0
-193 161 169 0
193 161 -169 0
193 -161 169 0
-194 139 0
-194 -119 0
194 -139 119 0
-195 -121 0
-195 153 0
195 121 -153 0
-196 -159 2 0
-196 159 -2 0
196 159 2 0
196 -159 -2 0
-197 83 0
-197 -61 0
197 -83 61 0
-198 -76 -95 0
-198 76 95 0
198 76 -95 0
198 -76 95 0
-199 -21 0
-199 -120 0
199 21 120 0
-200 -25 0
-200 68 0
200 25 -68 0
-201 -163 0
-201 -22 0
201 163 22 0
-202 133 92 0
-202 -133 -92 0
202 -133 92 0
202 133 -92 0
-203 -109 0
-203 -132 0
203 109 132 0
-204 -24 0
-204 -111 0
204 24 111 0
-205 -37 0
-205 118 0
205 37 -118 0
-206 -119 0
-206 -106 0
206 119 106 0
-207 96 146 0
-207 -96 -146 0
207 -96 146 0
207 96 -146 0
-208 -205 0
-208 -78 0
208 205 78 0
-209 -83 0
-209 -122 0
209 83 122 0
-210 162 0
-210 29 0
210 -162 -29 0
-211 -158 -40 0
-211 158 40 0
211 158 -40 0
211 -158 40 0
-212 43 0
-212 -55 0
212 -43 55 0
-213 -71 0
-213 132 0
213 71 -132 0
-214 -210 0
-214 33 0
214 210 -33 0
-215 116 0
-215 -3 0
215 -116 3 0
-216 34 27 0
-216 -34 -27 0
216 -34 27 0
216 34 -27 0
-217 41 0
-217 56 0
217 -41 -56 0
-218 -47 -163 0
-218 47 163 0
218 47 -163 0
218 -47 163 0
-219 -90 0
-219 -15 0
219 90 15 0
-220 163 0
-220 160 0
220 -163 -160 0
-221 2 0
-221 -216 0
221 -2 216 0
-222 201 0
-222 198 0
222 -201 -198 0
-223 11 0
-223 -158 0
223 -11 158 0
-224 169 -115 0
-224 -169 115 0
224 -169 -115 0
224 169 115 0
-225 -45 0
-225 5 0
225 45 -5 0
-226 -139 0
-226 68 0
226 139 -68 0
-227 -43 0
-227 129 0
227 43 -129 0
-228 11 0
-228 112 0
228 -11 -112 0
-229 -143 0
-229 -218 0
229 143 218 0
-230 140 0
-230 197 0
230 -140 -197 0
-231 -203 0
-231 -82 0
231 203 82 0
-232 176 0
-232 94 0
232 -176 -94 0
-233 213 208 0
-233 -213 -208 0
233 -213 208 0
233 213 -208 0
-234 -151 0
-234 37 0
234 151 -37 0
-235 1 -65 0
-235 -1 65 0
235 -1 -65 0
235 1 65 0
-236 206 -151 0
-236 -206 151 0
236 -206 -151 0
236 206 151 0
-237 172 0
-237 185 0
237 -172 -185 0
-238 1 0
-238 75 0
238 -1 -75 0
-239 -102 -48 0
-239 102 48 0
239 102 -48 0
239 -102 48 0
-240 29 0
-240 -216 0
240 -29 216 0
-241 20 0
-241 108 0
241 -20 -108 0
-242 236 0
-242 -38 0
242 -236 38 0
-243 5 0
-243 -21 0
243 -5 21 0
-244 -149 -210 0
-244 149 210 0
244 149 -210 0
244 -149 210 0
-245 165 0
-245 61 0
245 -165 -61 0
-246 -29 0
-246 214 0
246 29 -214 0
-247 -51 87 0
-247 51 -87 0
247 51 87 0
247 -51 -87 0
-248 -121 18 0
-248 121 -18 0
248 121 18 0
248 -121 -18 0
-249 64 0
-249 191 0
249 -64 -191 0
-250 44 0
-250 202 0
250 -44 -202 0
-251 162 0
-251 -161 0
251 -162 161 0
-252 -52 0
-252 -173 0
252 52 173 0
-253 250 0
-253 -110 0
253 -250 110 0
-254 89 0
-254 80 0
254 -89 -80 0
-255 -36 0
-255 200 0
255 36 -200 0
-256 -192 0
-256 -100 0
256 192 100 0
-257 -6 0
-257 5 0
257 6 -5 0
-258 -191 0
-258 -189 0
258 191 189 0
-259 121 0
-259 207 0
259 -121 -207 0
-260 -250 0
-260 109 0
260 250 -109 0
-261 -153 0
-261 -131 0
261 153 131 0
-262 -91 251 0
-262 91 -251 0
262 91 251 0
262 -91 -251 0
-263 -153 159 0
-263 153 -159 0
263 153 159 0
263 -153 -159 0
-264 72 0
-264 -240 0
264 -72 240 0
-265 -75 0
-265 152 0
265 75 -152 0
-266 220 -188 0
-266 -220 188 0
266 -220 -188 0
266 220 188 0
-267 -36 0
-267 -173 0
267 36 173 0
-268 -66 100 0
-268 66 -100 0
268 66 100 0
268 -66 -100 0
-269 158 0
-269 -227 0
269 -158 227 0
-270 -161 76 0
-270 161 -76 0
270 161 76 0
270 -161 -76 0
-271 257 0
-271 -236 0
271 -257 236 0
-272 -2 0
-272 216 0
272 2 -216 0
-273 -194 0
-273 -19 0
273 194 19 0
-274 -14 0
-274 30 0
274 14 -30 0
-275 248 0
-275 160 0
275 -248 -160 0
-276 -250 0
-276 140 0
276 250 -140 0
-277 206 0
-277 -223 0
277 -206 223 0
-278 84 0
-278 -6 0
278 -84 6 0
-279 217 0
-279 -45 0
279 -217 45 0
-280 -204 0
-280 198 0
280 204 -198 0
-281 -45 0
-281 268 0
281 45 -268 0
-282 50 0
-282 -179 0
282 -50 179 0
-283 209 -95 0
-283 -209 95 0
283 -209 -95 0
283 209 95 0
-284 -101 223 0
-284 101 -223 0
284 101 223 0
284 -101 -223 0
-285 268 0
-285 218 0
285 -268 -218 0
-286 273 0
-286 44 0
286 -273 -44 0
-287 -228 186 0
-287 228 -186 0
287 228 186 0
287 -228 -186 0
-288 -146 93 0
-288 146 -93 0
288 146 93 0
288 -146 -93 0
-289 -62 0
-289 37 0
289 62 -37 0
-290 128 0
-290 -184 0
290 -128 184 0
-291 150 0
-291 -66 0
291 -150 66 0
-292 -36 0
-292 280 0
292 36 -280 0
-293 -157 0
-293 -66 0
293 157 66 0
-294 -49 0
-294 171 0
294 49 -171 0
-295 108 0
-295 100 0
295 -108 -100 0
-296 151 0
-296 -148 0
296 -151 148 0
-297 -160 0
-297 -113 0
297 160 113 0
-298 -200 0
-298 -117 0
298 200 117 0
-299 -21 0
-299 98 0
299 21 -98 0
-300 126 0
-300 213 0
300 -126 -213 0
-301 171 228 0
-301 -171 -228 0
301 -171 228 0
301 171 -228 0
-302 124 0
-302 -268 0
302 -124 268 0
-303 -7 0
-303 192 0
303 7 -192 0
-304 106 -142 0
-304 -106 142 0
304 -106 -142 0
304 106 142 0
-305 45 6 0
-305 -45 -6 0
305 -45 6 0
305 45 -6 0
-306 94 0
-306 150 0
306 -94 -150 0
-307 -201 0
-307 300 0
307 201 -300 0
-308 254 0
-308 -185 0
308 -254 185 0
-309 -83 148 0
-309 83 -148 0
309 83 148 0
309 -83 -148 0
-310 232 0
-310 -22 0
310 -232 22 0
-311 109 0
-311 24 0
311 -109 -24 0
-312 102 0
-312 -113 0
312 -102 113 0
-313 -156 0
-313 -217 0
313 156 217 0
-314 -224 85 0
-314 224 -85 0
314 224 85 0
314 -224 -85 0
-315 135 126 0
-315 -135 -126 0
315 -135 126 0
315 135 -126 0
-316 271 238 0
-316 -271 -238 0
316 -271 238 0
316 271 -238 0
-317 132 0
-317 155 0
317 -132 -155 0
-318 -269 -298 0
-318 269 298 0
318 269 -298 0
318 -269 298 0
-319 -23 0
-319 40 0
319 23 -40 0
-320 -306 0
-320 -295 0
320 306 295 0
-321 -10 0
-321 30 0
321 10 -30 0
-322 -227 -136 0
-322 227 136 0
322 227 -136 0
322 -227 136 0
-323 -74 0
-323 -96 0
323 74 96 0
-324 -109 0
-324 -200 0
324 109 200 0
-325 16 0
-325 106 0
325 -16 -106 0
-326 -254 0
-326 64 0
326 254 -64 0
-327 -288 0
-327 -23 0
327 288 23 0
-328 192 0
-328 -103 0
328 -192 103 0
-329 -7 0
-329 206 0
329 7 -206 0
-330 -307 -212 0
-330 307 212 0
330 307 -212 0
330 -307 212 0
-331 170 0
-331 191 0
331 -170 -191 0
-332 289 202 0
-332 -289 -202 0
332 -289 202 0
332 289 -202 0
-333 -183 0
-333 112 0
333 183 -112 0
-334 -237 -327 0
-334 237 327 0
334 237 -327 0
334 -237 327 0
-335 -239 0
-335 319 0
335 239 -319 0
-336 308 0
-336 59 0
336 -308 -59 0
-337 151 162 0
-337 -151 -162 0
337 -151 162 0
337 151 -162 0
-338 193 0
-338 312 0
338 -193 -312 0
-339 262 271 0
-339 -262 -271 0
339 -262 271 0
339 262 -271 0
-340 12 94 0
-340 -12 -94 0
340 -12 94 0
340 12 -94 0
-341 19 0
-341 271 0
341 -19 -271 0
-342 294 0
-342 227 0
342 -294 -227 0
-343 -98 0
-343 114 0
343 98 -114 0
-344 147 -104 0
-344 -147 104 0
344 -147 -104 0
344 147 104 0
-345 141 0
-345 126 0
345 -141 -126 0
-346 -247 13 0
-346 247 -13 0
346 247 13 0
346 -247 -13 0
-347 -192 0
-347 -290 0
347 192 290 0
-348 -315 0
-348 -106 0
348 315 106 0
-349 -13 0
-349 -71 0
349 13 71 0
-350 -341 0
-350 267 0
350 341 -267 0
-351 195 -340 0
-351 -195 340 0
351 -195 -340 0
351 195 340 0
-352 -266 -238 0
-352 266 238 0
352 266 -238 0
352 -266 238 0
-353 347 0
-353 262 0
353 -347 -262 0
-354 -131 0
-354 318 0
354 131 -318 0
-355 247 0
-355 -221 0
355 -247 221 0
-356 345 0
-356 -307 0
356 -345 307 0
-357 263 0
-357 167 0
357 -263 -167 0
-358 124 0
-358 -189 0
358 -124 189 0
-359 -31 0
-359 -163 0
359 31 163 0
-360 349 0
-360 -339 0
360 -349 339 0
-361 -137 0
-361 -130 0
361 137 130 0
-362 7 0
-362 340 0
362 -7 -340 0
-363 -274 7 0
-363 274 -7 0
363 274 7 0
363 -274 -7 0
-364 -322 255 0
-364 322 -255 0
364 322 255 0
364 -322 -255 0
-365 236 0
-365 -18 0
365 -236 18 0
-366 262 0
-366 45 0
366 -262 -45 0
-367 328 0
-367 150 0
367 -328 -150 0
-368 -329 -204 0
-368 329 204 0
368 329 -204 0
368 -329 204 0
-369 1 0
-369 268 0
369 -1 -268 0
-370 62 0
-370 -40 0
370 -62 40 0
-371 257 0
-371 -180 0
371 -257 180 0
-372 13 -70 0
-372 -13 70 0
372 -13 -70 0
372 13 70 0
-373 -40 0
-373 251 0
373 40 -251 0
-374 321 0
-374 255 0
374 -321 -255 0
-375 33 0
-375 -266 0
375 -33 266 0
-376 176 0
-376 203 0
376 -176 -203 0
-377 -241 0
-377 263 0
377 241 -263 0
-378 -23 0
-378 -276 0
378 23 276 0
-379 -336 0
-379 -81 0
379 336 81 0
-380 132 0
-380 219 0
380 -132 -219 0
-381 -301 0
-381 14 0
381 301 -14 0
-382 260 0
-382 319 0
382 -260 -319 0
-383 -65 0
-383 290 0
383 65 -290 0
-384 -346 171 0
-384 346 -171 0
384 346 171 0
384 -346 -171 0
-385 -127 0
-385 329 0
385 127 -329 0
-386 -15 106 0
-386 15 -106 0
386 15 106 0
386 -15 -106 0
-387 305 0
-387 50 0
387 -305 -50 0
-388 -234 0
-388 -19 0
388 234 19 0
-389 -84 0
-389 -377 0
389 84 377 0
-390 62 140 0
-390 -62 -140 0
390 -62 140 0
390 62 -140 0
-391 193 0
-391 -235 0
391 -193 235 0
-392 217 0
-392 -288 0
392 -217 288 0
-393 -25 0
-393 -55 0
393 25 55 0
-394 212 0
-394 -321 0
394 -212 321 0
-395 54 0
-395 -349 0
395 -54 349 0
-396 55 0
-396 -204 0
396 -55 204 0
-397 -88 0
-397 169 0
397 88 -169 0
-398 -286 0
-398 -109 0
398 286 109 0
-399 -138 0
-399 -127 0
399 138 127 0
-400 -394 0
-400 86 0
400 394 -86 0
-401 -98 0
-401 -179 0
401 98 179 0
-402 -217 0
-402 -315 0
402 217 315 0
-403 -106 279 0
-403 106 -279 0
403 106 279 0
403 -106 -279 0
-404 240 163 0
-404 -240 -163 0
404 -240 163 0
404 240 -163 0
-405 78 0
-405 270 0
405 -78 -270 0
-406 319 0
-406 -157 0
406 -319 157 0
-407 -29 0
-407 294 0
407 29 -294 0
-408 341 0
-408 -91 0
408 -341 91 0
-409 135 0
-409 -407 0
409 -135 407 0
-410 -362 0
-410 -1 0
410 362 1 0
-411 -10 0
-411 -285 0
411 10 285 0
-412 -88 0
-412 -329 0
412 88 329 0
-413 336 0
-413 -276 0
413 -336 276 0
-414 -365 0
-414 -86 0
414 365 86 0
-415 -122 0
-415 246 0
415 122 -246 0
-416 -105 0
-416 90 0
416 105 -90 0
-417 108 0
-417 -217 0
417 -108 217 0
-418 -51 0
-418 184 0
418 51 -184 0
-419 308 0
-419 -378 0
419 -308 378 0
-420 8 0
-420 -296 0
420 -8 296 0
-421 44 0
-421 32 0
421 -44 -32 0
-422 -39 0
-422 332 0
422 39 -332 0
-423 -90 0
-423 209 0
423 90 -209 0
-424 377 0
-424 150 0
424 -377 -150 0
-425 326 0
-425 342 0
425 -326 -342 0
-426 287 72 0
-426 -287 -72 0
426 -287 72 0
426 287 -72 0
-427 280 0
-427 425 0
427 -280 -425 0
-428 -11 0
-428 -276 0
428 11 276 0
-429 324 0
-429 -277 0
429 -324 277 0
-430 172 0
-430 59 0
430 -172 -59 0
-431 392 0
-431 -309 0
431 -392 309 0
-432 -204 0
-432 -141 0
432 204 141 0
-433 219 0
-433 -428 0
433 -219 428 0
-434 -219 -23 0
-434 219 23 0
434 219 -23 0
434 -219 23 0
-435 -59 411 0
-435 59 -411 0
435 59 411 0
435 -59 -411 0
-436 370 0
-436 -126 0
436 -370 126 0
-437 -83 0
-437 -427 0
437 83 427 0
-438 -290 0
-438 280 0
438 290 -280 0
-439 -8 0
-439 376 0
439 8 -376 0
-440 190 -359 0
-440 -190 359 0
440 -190 -359 0
440 190 359 0
-441 407 0
-441 288 0
441 -407 -288 0
-442 -425 313 0
-442 425 -313 0
442 425 313 0
442 -425 -313 0
-443 -46 -380 0
-443 46 380 0
443 46 -380 0
443 -46 380 0
-444 7 0
-444 -72 0
444 -7 72 0
-445 426 -85 0
-445 -426 85 0
445 -426 -85 0
445 426 85 0
-446 58 0
-446 -383 0
446 -58 383 0
-447 -79 -301 0
-447 79 301 0
447 79 -301 0
447 -79 301 0
-448 -378 0
-448 -102 0
448 378 102 0
-449 -93 0
-449 -71 0
449 93 71 0
-450 292 0
-450 277 0
450 -292 -277 0
-451 -45 -443 0
-451 45 443 0
451 45 -443 0
451 -45 443 0
-452 -26 -300 0
-452 26 300 0
452 26 -300 0
452 -26 300 0
-453 -88 0
-453 -452 0
453 88 452 0
-454 -269 0
-454 -197 0
454 269 197 0
-455 -394 0
-455 -360 0
455 394 360 0
-456 223 0
-456 -104 0
456 -223 104 0
-457 -195 350 0
-457 195 -350 0
457 195 350 0
457 -195 -350 0
-458 -365 0
-458 168 0
458 365 -168 0
-459 -234 0
-459 14 0
459 234 -14 0
-460 273 -83 0
-460 -273 83 0
460 -273 -83 0
460 273 83 0
-461 -257 0
-461 163 0
461 257 -163 0
-462 180 -389 0
-462 -180 389 0
462 -180 -389 0
462 180 389 0
-463 105 0
-463 -254 0
463 -105 254 0
-464 -327 0
-464 -20 0
464 327 20 0
-465 197 87 0
-465 -197 -87 0
465 -197 87 0
465 197 -87 0
-466 -338 0
-466 46 0
466 338 -46 0
-467 464 463 0
-467 -464 -463 0
467 -464 463 0
467 464 -463 0
-468 -288 30 0
-468 288 -30 0
468 288 30 0
468 -288 -30 0
-469 -277 244 0
-469 277 -244 0
469 277 244 0
469 -277 -244 0
-470 283 0
-470 -18 0
470 -283 18 0
-471 -4 401 0
-471 4 -401 0
471 4 401 0
471 -4 -401 0
-472 2 0
-472 386 0
472 -2 -386 0
-473 -217 -156 0
-473 217 156 0
473 217 -156 0
473 -217 156 0
-474 -143 0
-474 450 0
474 143 -450 0
-475 202 0
-475 -173 0
475 -202 173 0
-476 -352 0
-476 166 0
476 352 -166 0
-477 51 307 0
-477 -51 -307 0
477 -51 307 0
477 51 -307 0
-478 14 0
-478 396 0
478 -14 -396 0
-479 -352 -12 0
-479 352 12 0
479 352 -12 0
479 -352 12 0
-480 348 0
-480 -282 0
480 -348 282 0
-481 -434 0
-481 311 0
481 434 -311 0
-482 56 0
-482 431 0
482 -56 -431 0
-483 451 380 0
-483 -451 -380 0
483 -451 380 0
483 451 -380 0
-484 137 0
-484 -246 0
484 -137 246 0
-485 -267 0
-485 -41 0
485 267 41 0
-486 -442 0
-486 -484 0
486 442 484 0
-487 -353 0
-487 359 0
487 353 -359 0
-488 -453 211 0
-488 453 -211 0
488 453 211 0
488 -453 -211 0
-489 -211 0
-489 -396 0
489 211 396 0
-490 -112 460 0
-490 112 -460 0
490 112 460 0
490 -112 -460 0
-491 -311 0
-491 18 0
491 311 -18 0
-492 -322 -119 0
-492 322 119 0
492 322 -119 0
492 -322 119 0
-493 27 0
-493 85 0
493 -27 -85 0
-494 247 0
-494 -21 0
494 -247 21 0
-495 -60 0
-495 -337 0
495 60 337 0
-496 -414 -44 0
-496 414 44 0
496 414 -44 0
496 -414 44 0
-497 -171 0
-497 -182 0
497 171 182 0
-498 -111 0
-498 -235 0
498 111 235 0
-499 -239 0
-499 297 0
499 239 -297 0
-500 -219 0
-500 -88 0
500 219 88 0
-501 374 -101 0
-501 -374 101 0
501 -374 -101 0
501 374 101 0
-502 -226 0
-502 -93 0
502 226 93 0
-503 -154 0
-503 -11 0
503 154 11 0
-504 120 -220 0
-504 -120 220 0
504 -120 -220 0
504 120 220 0
-505 238 0
-505 -284 0
505 -238 284 0
-506 -153 0
-506 -58 0
506 153 58 0
-507 363 0
-507 -472 0
507 -363 472 0
-508 -170 0
-508 -452 0
508 170 452 0
-509 315 0
-509 -285 0
509 -315 285 0
-510 -495 -389 0
-510 495 389 0
510 495 -389 0
510 -495 389 0
-511 57 0
-511 -508 0
511 -57 508 0
-512 -424 0
-512 274 0
512 424 -274 0
-513 488 0
-513 -212 0
513 -488 212 0
-514 269 -394 0
-514 -269 394 0
514 -269 -394 0
514 269 394 0
-515 449 389 0
-515 -449 -389 0
515 -449 389 0
515 449 -389 0
-516 -145 0
-516 267 0
516 145 -267 0
-517 -241 0
-517 -109 0
517 241 109 0
-518 -422 -161 0
-518 422 161 0
518 422 -161 0
518 -422 161 0
-519 -220 0
-519 27 0
519 220 -27 0
-520 -341 276 0
-520 341 -276 0
520 341 276 0
520 -341 -276 0
-521 -37 -407 0
-521 37 407 0
521 37 -407 0
521 -37 407 0
-522 -511 0
-522 -318 0
522 511 318 0
-523 -332 -238 0
-523 332 238 0
523 332 -238 0
523 -332 238 0
-524 -514 0
-524 -210 0
524 514 210 0
-525 44 -83 0
-525 -44 83 0
525 -44 -83 0
525 44 83 0
-526 -109 0
-526 276 0
526 109 -276 0
-527 -338 0
-527 262 0
527 338 -262 0
-528 -386 415 0
-528 386 -415 0
528 386 415 0
528 -386 -415 0
-529 -428 0
-529 51 0
529 428 -51 0
-530 -241 0
-530 396 0
530 241 -396 0
-531 236 0
-531 -301 0
531 -236 301 0
-532 375 0
-532 174 0
532 -375 -174 0
-533 469 -323 0
-533 -469 323 0
533 -469 -323 0
533 469 323 0
-534 -383 0
-534 451 0
534 383 -451 0
-535 -339 0
-535 -296 0
535 339 296 0
-536 313 0
-536 -12 0
536 -313 12 0
-537 117 0
-537 -257 0
537 -117 257 0
-538 505 0
-538 380 0
538 -505 -380 0
-539 215 0
-539 198 0
539 -215 -198 0
-540 332 92 0
-540 -332 -92 0
540 -332 92 0
540 332 -92 0
-541 -220 0
-541 386 0
541 220 -386 0
-542 350 0
-542 -473 0
542 -350 473 0
-543 506 53 0
-543 -506 -53 0
543 -506 53 0
543 506 -53 0
-544 169 0
-544 -522 0
544 -169 522 0
-545 90 0
-545 537 0
545 -90 -537 0
-546 -518 0
-546 -230 0
546 518 230 0
-547 293 0
-547 248 0
547 -293 -248 0
-548 -278 0
-548 -248 0
548 278 248 0
-549 -527 0
-549 507 0
549 527 -507 0
-550 -171 0
-550 259 0
550 171 -259 0
-551 -244 0
-551 -431 0
551 244 431 0
-552 464 0
-552 -433 0
552 -464 433 0
-553 -319 0
-553 -61 0
553 319 61 0
-554 78 0
-554 -159 0
554 -78 159 0
-555 -46 269 0
-555 46 -269 0
555 46 269 0
555 -46 -269 0
-556 418 0
-556 151 0
556 -418 -151 0
-557 -45 0
-557 511 0
557 45 -511 0
-558 208 0
-558 -498 0
558 -208 498 0
-559 297 0
-559 -344 0
559 -297 344 0
-560 307 0
-560 288 0
560 -307 -288 0
-561 -515 0
-561 -285 0
561 515 285 0
-562 473 37 0
-562 -473 -37 0
562 -473 37 0
562 473 -37 0
-563 -467 -256 0
-563 467 256 0
563 467 -256 0
563 -467 256 0
-564 -231 0
-564 -158 0
564 231 158 0
-565 -500 0
-565 -210 0
565 500 210 0
-566 412 0
-566 365 0
566 -412 -365 0
-567 -491 246 0
-567 491 -246 0
567 491 246 0
567 -491 -246 0
-568 188 -498 0
-568 -188 498 0
568 -188 -498 0
568 188 498 0
-569 129 -19 0
-569 -129 19 0
569 -129 -19 0
569 129 19 0
-570 474 0
-570 -397 0
570 -474 397 0
-571 -329 0
-571 -366 0
571 329 366 0
-572 -549 0
-572 -402 0
572 549 402 0
-573 -36 0
-573 -92 0
573 36 92 0
-574 381 0
-574 -337 0
574 -381 337 0
-575 115 -454 0
-575 -115 454 0
575 -115 -454 0
575 115 454 0
-576 300 0
-576 -32 0
576 -300 32 0
-577 321 0
-577 437 0
577 -321 -437 0
-578 144 0
-578 347 0
578 -144 -347 0
-579 -430 0
-579 429 0
579 430 -429 0
-580 -564 0
-580 143 0
580 564 -143 0
-581 -579 0
-581 153 0
581 579 -153 0
-582 493 0
-582 405 0
582 -493 -405 0
-583 -90 0
-583 -291 0
583 90 291 0
-584 -8 -263 0
-584 8 263 0
584 8 -263 0
584 -8 263 0
-585 -53 0
-585 489 0
585 53 -489 0
-586 -213 -6 0
-586 213 6 0
586 213 -6 0
586 -213 6 0
-587 -576 -237 0
-587 576 237 0
587 576 -237 0
587 -576 237 0
-588 419 -360 0
-588 -419 360 0
588 -419 -360 0
588 419 360 0
-589 -114 0
-589 530 0
589 114 -530 0
-590 -585 0
-590 -57 0
590 585 57 0
-591 28 34 0
-591 -28 -34 0
591 -28 34 0
591 28 -34 0
-592 438 0
-592 568 0
592 -438 -568 0
-593 -436 0
-593 -218 0
593 436 218 0
-594 -333 514 0
-594 333 -514 0
594 333 514 0
594 -333 -514 0
-595 419 0
-595 -527 0
595 -419 527 0
-596 39 -410 0
-596 -39 410 0
596 -39 -410 0
596 39 410 0
-597 -225 0
-597 386 0
597 225 -386 0
-598 508 0
-598 156 0
598 -508 -156 0
-599 6 0
-599 -587 0
599 -6 587 0
-600 -415 0
-600 -288 0
600 415 288 0
-601 561 0
-601 -408 0
601 -561 408 0
-602 291 -450 0
-602 -291 450 0
602 -291 -450 0
602 291 450 0
-603 140 0
-603 -127 0
603 -140 127 0
-604 -369 0
-604 -555 0
604 369 555 0
-605 -413 -337 0
-605 413 337 0
605 413 -337 0
605 -413 337 0
-606 120 -437 0
-606 -120 437 0
606 -120 -437 0
606 120 437 0
-607 317 0
-607 604 0
607 -317 -604 0
-608 -495 0
-608 138 0
608 495 -138 0
-609 -429 0
-609 388 0
609 429 -388 0
-610 427 38 0
-610 -427 -38 0
610 -427 38 0
610 427 -38 0
-611 376 0
-611 -292 0
611 -376 292 0
-612 289 0
-612 -131 0
612 -289 131 0
-613 134 0
-613 -331 0
613 -134 331 0
-614 -196 0
-614 -331 0
614 196 331 0
-615 -164 517 0
-615 164 -517 0
615 164 517 0
615 -164 -517 0
-616 -226 0
-616 11 0
616 226 -11 0
-617 -123 0
-617 -161 0
617 123 161 0
-618 6 0
-618 -470 0
618 -6 470 0
-619 591 0
-619 -151 0
619 -591 151 0
-620 -566 0
-620 -158 0
620 566 158 0
-621 448 259 0
-621 -448 -259 0
621 -448 259 0
621 448 -259 0
-622 308 0
-622 487 0
622 -308 -487 0
-623 288 0
-623 29 0
623 -288 -29 0
-624 57 0
-624 345 0
624 -57 -345 0
-625 95 0
-625 -512 0
625 -95 512 0
-626 -398 0
-626 -378 0
626 398 378 0
-627 558 0
-627 -626 0
627 -558 626 0
-628 619 0
-628 519 0
628 -619 -519 0
-629 -130 -12 0
-629 130 12 0
629 130 -12 0
629 -130 12 0
-630 200 0
-630 111 0
630 -200 -111 0
-631 -304 0
-631 110 0
631 304 -110 0
-632 351 0
-632 -322 0
632 -351 322 0
-633 -462 0
-633 461 0
633 462 -461 0
-634 258 0
-634 -464 0
634 -258 464 0
-635 -189 445 0
-635 189 -445 0
635 189 445 0
635 -189 -445 0
-636 -78 0
-636 -355 0
636 78 355 0
-637 -594 0
-637 124 0
637 594 -124 0
-638 -194 0
-638 465 0
638 194 -465 0
-639 562 0
-639 350 0
639 -562 -350 0
-640 344 0
-640 614 0
640 -344 -614 0
-641 -344 185 0
-641 344 -185 0
641 344 185 0
641 -344 -185 0
-642 18 0
-642 573 0
642 -18 -573 0
-643 -94 0
-643 -185 0
643 94 185 0
-644 -132 0
-644 62 0
644 132 -62 0
-645 320 0
-645 603 0
645 -320 -603 0
-646 -3 0
-646 158 0
646 3 -158 0
-647 -385 0
-647 288 0
647 385 -288 0
-648 -217 0
-648 347 0
648 217 -347 0
-649 -187 0
-649 8 0
649 187 -8 0
-650 494 0
-650 54 0
650 -494 -54 0
-651 -632 450 0
-651 632 -450 0
651 632 450 0
651 -632 -450 0
-652 82 0
-652 251 0
652 -82 -251 0
-653 -421 40 0
-653 421 -40 0
653 421 40 0
653 -421 -40 0
-654 -149 0
-654 549 0
654 149 -549 0
-655 300 0
-655 -517 0
655 -300 517 0
-656 -356 0
-656 -27 0
656 356 27 0
-657 -51 0
-657 472 0
657 51 -472 0
-658 37 0
-658 261 0
658 -37 -261 0
-659 -406 0
-659 224 0
659 406 -224 0
-660 264 0
-660 301 0
660 -264 -301 0
-661 -254 261 0
-661 254 -261 0
661 254 261 0
661 -254 -261 0
-662 -547 0
-662 408 0
662 547 -408 0
-663 140 0
-663 -358 0
663 -140 358 0
-664 -491 0
-664 465 0
664 491 -465 0
-665 -392 0
-665 455 0
665 392 -455 0
-666 416 0
-666 356 0
666 -416 -356 0
-667 -340 0
-667 624 0
667 340 -624 0
-668 -342 -297 0
-668 342 297 0
668 342 -297 0
668 -342 297 0
-669 170 0
-669 442 0
669 -170 -442 0
-670 584 0
-670 -561 0
670 -584 561 0
-671 610 0
-671 288 0
671 -610 -288 0
-672 142 0
-672 44 0
672 -142 -44 0
-673 490 -4 0
-673 -490 4 0
673 -490 -4 0
673 490 4 0
-674 266 -672 0
-674 -266 672 0
674 -266 -672 0
674 266 672 0
-675 -499 0
-675 -141 0
675 499 141 0
-676 37 0
-676 -624 0
676 -37 624 0
-677 -342 57 0
-677 342 -57 0
677 342 57 0
677 -342 -57 0
-678 -177 0
-678 223 0
678 177 -223 0
-679 646 0
-679 -455 0
679 -646 455 0
-680 -356 -214 0
-680 356 214 0
680 356 -214 0
680 -356 214 0
-681 -89 0
-681 -113 0
681 89 113 0
-682 -333 21 0
-682 333 -21 0
682 333 21 0
682 -333 -21 0
-683 203 0
-683 80 0
683 -203 -80 0
-684 -512 0
-684 -561 0
684 512 561 0
-685 -138 0
-685 6 0
685 138 -6 0
-686 -418 0
-686 158 0
686 418 -158 0
-687 -108 0
-687 446 0
687 108 -446 0
-688 -465 0
-688 -257 0
688 465 257 0
-689 -341 -110 0
-689 341 110 0
689 341 -110 0
689 -341 110 0
-690 -348 0
-690 652 0
690 348 -652 0
-691 534 120 0
-691 -534 -120 0
691 -534 120 0
691 534 -120 0
-692 -352 -153 0
-692 352 153 0
692 352 -153 0
692 -352 153 0
-693 -248 0
-693 -567 0
693 248 567 0
-694 466 0
-694 -678 0
694 -466 678 0
-695 33 0
-695 -391 0
695 -33 391 0
-696 283 0
-696 -185 0
696 -283 185 0
-697 532 0
-697 435 0
697 -532 -435 0
-698 640 98 0
-698 -640 -98 0
698 -640 98 0
698 640 -98 0
-699 -678 0
-699 -131 0
699 678 131 0
-700 -360 0
-700 271 0
700 360 -271 0
-701 548 0
-701 -683 0
701 -548 683 0
-702 17 0
-702 -495 0
702 -17 495 0
-703 -466 0
-703 -333 0
703 466 333 0
-704 284 0
-704 204 0
704 -284 -204 0
-705 -241 0
-705 -537 0
705 241 537 0
-706 -472 0
-706 -647 0
706 472 647 0
-707 -314 0
-707 -317 0
707 314 317 0
-708 59 0
-708 -116 0
708 -59 116 0
-709 323 0
-709 -175 0
709 -323 175 0
-710 426 -666 0
-710 -426 666 0
710 -426 -666 0
710 426 666 0
-711 537 362 0
-711 -537 -362 0
711 -537 362 0
711 537 -362 0
-712 72 0
-712 287 0
712 -72 -287 0
-713 79 0
-713 -536 0
713 -79 536 0
-714 666 0
-714 59 0
714 -666 -59 0
-715 -463 0
-715 633 0
715 463 -633 0
-716 187 467 0
-716 -187 -467 0
716 -187 467 0
716 187 -467 0
-717 383 0
-717 -641 0
717 -383 641 0
-718 263 0
-718 -257 0
718 -263 257 0
-719 -586 591 0
-719 586 -591 0
719 586 591 0
719 -586 -591 0
-720 -485 0
-720 -132 0
720 485 132 0
-721 706 0
-721 375 0
721 -706 -375 0
-722 66 166 0
-722 -66 -166 0
722 -66 166 0
722 66 -166 0
-723 526 0
-723 -365 0
723 -526 365 0
-724 -403 452 0
-724 403 -452 0
724 403 452 0
724 -403 -452 0
-725 562 316 0
-725 -562 -316 0
725 -562 316 0
725 562 -316 0
-726 -582 0
-726 -221 0
726 582 221 0
-727 133 546 0
-727 -133 -546 0
727 -133 546 0
727 133 -546 0
-728 -604 0
-728 69 0
728 604 -69 0
-729 -556 0
-729 -720 0
729 556 720 0
-730 -641 0
-730 -610 0
730 641 610 0
-731 12 99 0
-731 -12 -99 0
731 -12 99 0
731 12 -99 0
-732 -313 674 0
-732 313 -674 0
732 313 674 0
732 -313 -674 0
-733 -68 0
-733 251 0
733 68 -251 0
-734 251 0
-734 -670 0
734 -251 670 0
-735 136 0
-735 340 0
735 -136 -340 0
-736 -512 -541 0
-736 512 541 0
736 512 -541 0
736 -512 541 0
-737 -388 0
-737 133 0
737 388 -133 0
-738 507 0
-738 -629 0
738 -507 629 0
-739 656 0
-739 -654 0
739 -656 654 0
-740 97 -490 0
-740 -97 490 0
740 -97 -490 0
740 97 490 0
-741 -574 -274 0
-741 574 274 0
741 574 -274 0
741 -574 274 0
-742 -631 0
-742 274 0
742 631 -274 0
-743 -627 0
-743 -293 0
743 627 293 0
-744 110 0
-744 40 0
744 -110 -40 0
-745 14 0
-745 -422 0
745 -14 422 0
-746 689 0
-746 46 0
746 -689 -46 0
-747 -64 0
-747 -181 0
747 64 181 0
-748 -715 600 0
-748 715 -600 0
748 715 600 0
748 -715 -600 0
-749 -737 0
-749 263 0
749 737 -263 0
-750 119 0
-750 -56 0
750 -119 56 0
-751 -444 0
-751 -179 0
751 444 179 0
-752 41 0
-752 238 0
752 -41 -238 0
-753 361 0
-753 208 0
753 -361 -208 0
-754 -82 638 0
-754 82 -638 0
754 82 638 0
754 -82 -638 0
-755 -505 576 0
-755 505 -576 0
755 505 576 0
755 -505 -576 0
-756 415 412 0
-756 -415 -412 0
756 -415 412 0
756 415 -412 0
-757 -607 0
-757 -338 0
757 607 338 0
-758 -671 -257 0
-758 671 257 0
758 671 -257 0
758 -671 257 0
-759 748 0
-759 528 0
759 -748 -528 0
-760 -10 -444 0
-760 10 444 0
760 10 -444 0
760 -10 444 0
-761 187 0
-761 -243 0
761 -187 243 0
-762 502 0
-762 506 0
762 -502 -506 0
-763 -200 0
-763 127 0
763 200 -127 0
-764 631 0
-764 158 0
764 -631 -158 0
-765 444 0
-765 454 0
765 -444 -454 0
-766 42 451 0
-766 -42 -451 0
766 -42 451 0
766 42 -451 0
-767 713 -215 0
-767 -713 215 0
767 -713 -215 0
767 713 215 0
-768 685 0
-768 -588 0
768 -685 588 0
-769 -304 0
-769 590 0
769 304 -590 0
-770 214 0
-770 -393 0
770 -214 393 0
-771 -149 -408 0
-771 149 408 0
771 149 -408 0
771 -149 408 0
-772 -245 0
-772 -674 0
772 245 674 0
-773 433 0
-773 224 0
773 -433 -224 0
-774 -14 0
-774 -311 0
774 14 311 0
-775 -666 0
-775 84 0
775 666 -84 0
-776 -340 0
-776 293 0
776 340 -293 0
-777 733 0
-777 -18 0
777 -733 18 0
-778 638 0
-778 -204 0
778 -638 204 0
-779 -667 0
-779 -108 0
779 667 108 0
-780 255 0
-780 -97 0
780 -255 97 0
-781 -773 0
-781 2 0
781 773 -2 0
-782 -498 0
-782 111 0
782 498 -111 0
-783 404 -600 0
-783 -404 600 0
783 -404 -600 0
783 404 600 0
-784 737 0
-784 -184 0
784 -737 184 0
-785 -401 0
-785 694 0
785 401 -694 0
-786 -368 0
-786 780 0
786 368 -780 0
-787 753 0
-787 -587 0
787 -753 587 0
-788 -269 0
-788 -466 0
788 269 466 0
-789 -680 614 0
-789 680 -614 0
789 680 614 0
789 -680 -614 0
-790 -566 0
-790 765 0
790 566 -765 0
-791 62 0
-791 208 0
791 -62 -208 0
-792 -183 -435 0
-792 183 435 0
792 183 -435 0
792 -183 435 0
-793 -674 0
-793 74 0
793 674 -74 0
-794 -546 0
-794 -374 0
794 546 374 0
-795 538 0
-795 225 0
795 -538 -225 0
-796 -245 0
-796 554 0
796 245 -554 0
-797 -142 0
-797 -99 0
797 142 99 0
-798 112 0
-798 -470 0
798 -112 470 0
-799 -537 0
-799 -391 0
799 537 391 0
-800 154 0
-800 766 0
800 -154 -766 0
-801 -636 -642 0
-801 636 642 0
801 636 -642 0
801 -636 642 0
-802 -332 0
-802 -371 0
802 332 371 0
-803 -142 -388 0
-803 142 388 0
803 142 -388 0
803 -142 388 0
-804 537 -54 0
-804 -537 54 0
804 -537 -54 0
804 537 54 0
-805 -200 0
-805 740 0
805 200 -740 0
-806 -525 0
-806 283 0
806 525 -283 0
-807 -377 -67 0
-807 377 67 0
807 377 -67 0
807 -377 67 0
-808 643 -774 0
-808 -643 774 0
808 -643 -774 0
808 643 774 0
-809 -124 544 0
-809 124 -544 0
809 124 544 0
809 -124 -544 0
-810 -772 -686 0
-810 772 686 0
810 772 -686 0
810 -772 686 0
-811 -759 0
-811 564 0
811 759 -564 0
-812 -788 105 0
-812 788 -105 0
812 788 105 0
812 -788 -105 0
-813 347 0
-813 -283 0
813 -347 283 0
-814 -35 0
-814 662 0
814 35 -662 0
-815 -82 523 0
-815 82 -523 0
815 82 523 0
815 -82 -523 0
-816 594 -659 0
-816 -594 659 0
816 -594 -659 0
816 594 659 0
-817 -425 -661 0
-817 425 661 0
817 425 -661 0
817 -425 661 0
-818 -394 654 0
-818 394 -654 0
818 394 654 0
818 -394 -654 0
-819 -586 0
-819 537 0
819 586 -537 0
-820 -54 0
-820 -646 0
820 54 646 0
-821 363 0
-821 -305 0
821 -363 305 0
-822 -794 0
-822 245 0
822 794 -245 0
-823 -419 0
-823 -416 0
823 419 416 0
-824 173 0
-824 -109 0
824 -173 109 0
-825 59 -217 0
-825 -59 217 0
825 -59 -217 0
825 59 217 0
-826 736 -804 0
-826 -736 804 0
826 -736 -804 0
826 736 804 0
-827 437 288 0
-827 -437 -288 0
827 -437 288 0
827 437 -288 0
-828 -228 0
-828 -235 0
828 228 235 0
-829 -77 0
-829 -486 0
829 77 486 0
-830 -477 0
-830 -431 0
830 477 431 0
-831 -758 91 0
-831 758 -91 0
831 758 91 0
831 -758 -91 0
-832 707 0
-832 518 0
832 -707 -518 0
-833 254 0
-833 153 0
833 -254 -153 0
-834 792 0
-834 323 0
834 -792 -323 0
-835 -454 0
-835 -486 0
835 454 486 0
-836 -473 0
-836 -254 0
836 473 254 0
-837 200 0
-837 -640 0
837 -200 640 0
-838 -62 0
-838 -390 0
838 62 390 0
-839 -460 0
-839 -170 0
839 460 170 0
-840 -574 0
-840 548 0
840 574 -548 0
-841 -158 0
-841 257 0
841 158 -257 0
-842 744 0
-842 -813 0
842 -744 813 0
-843 -97 0
-843 -153 0
843 97 153 0
-844 104 0
-844 137 0
844 -104 -137 0
-845 550 0
-845 28 0
845 -550 -28 0
-846 -354 0
-846 699 0
846 354 -699 0
-847 -165 0
-847 -12 0
847 165 12 0
-848 204 0
-848 294 0
848 -204 -294 0
-849 -303 0
-849 -679 0
849 303 679 0
-850 375 0
-850 764 0
850 -375 -764 0
-851 -597 0
-851 -408 0
851 597 408 0
-852 118 0
-852 506 0
852 -118 -506 0
-853 181 0
-853 807 0
853 -181 -807 0
-854 24 0
-854 299 0
854 -24 -299 0
-855 -144 0
-855 126 0
855 144 -126 0
-856 -834 0
-856 -824 0
856 834 824 0
-857 779 0
-857 -808 0
857 -779 808 0
-858 114 0
-858 242 0
858 -114 -242 0
-859 174 0
-859 284 0
859 -174 -284 0
-860 -94 0
-860 422 0
860 94 -422 0
-861 9 0
-861 102 0
861 -9 -102 0
-862 136 207 0
-862 -136 -207 0
862 -136 207 0
862 136 -207 0
-863 198 0
-863 37 0
863 -198 -37 0
-864 472 0
-864 549 0
864 -472 -549 0
-865 171 629 0
-865 -171 -629 0
865 -171 629 0
865 171 -629 0
-866 -755 0
-866 243 0
866 755 -243 0
-867 -783 176 0
-867 783 -176 0
867 783 176 0
867 -783 -176 0
-868 180 0
-868 106 0
868 -180 -106 0
-869 -591 0
-869 -571 0
869 591 571 0
-870 -728 134 0
-870 728 -134 0
870 728 134 0
870 -728 -134 0
-871 657 0
-871 -121 0
871 -657 121 0
-872 -519 0
-872 467 0
872 519 -467 0
-873 -615 0
-873 -224 0
873 615 224 0
-874 400 267 0
-874 -400 -267 0
874 -400 267 0
874 400 -267 0
-875 196 -497 0
-875 -196 497 0
875 -196 -497 0
875 196 497 0
-876 -342 0
-876 15 0
876 342 -15 0
-877 -721 0
-877 -310 0
877 721 310 0
-878 -554 0
-878 341 0
878 554 -341 0
-879 520 0
-879 697 0
879 -520 -697 0
-880 200 0
-880 -45 0
880 -200 45 0
-881 603 0
-881 545 0
881 -603 -545 0
-882 -781 -876 0
-882 781 876 0
882 781 -876 0
882 -781 876 0
-883 -515 0
-883 -560 0
883 515 560 0
-884 -587 0
-884 -441 0
884 587 441 0
-885 429 47 0
-885 -429 -47 0
885 -429 47 0
885 429 -47 0
-886 417 0
-886 209 0
886 -417 -209 0
-887 110 0
-887 -778 0
887 -110 778 0
-888 422 835 0
-888 -422 -835 0
888 -422 835 0
888 422 -835 0
-889 319 0
-889 -26 0
889 -319 26 0
-890 -640 0
-890 89 0
890 640 -89 0
-891 55 0
-891 -120 0
891 -55 120 0
-892 -584 0
-892 -616 0
892 584 616 0
-893 -158 -768 0
-893 158 768 0
893 158 -768 0
893 -158 768 0
-894 623 -452 0
-894 -623 452 0
894 -623 -452 0
894 623 452 0
-895 826 -199 0
-895 -826 199 0
895 -826 -199 0
895 826 199 0
-896 175 0
-896 -64 0
896 -175 64 0
-897 -847 0
-897 -435 0
897 847 435 0
-898 150 -119 0
-898 -150 119 0
898 -150 -119 0
898 150 119 0
-899 -762 -84 0
-899 762 84 0
899 762 -84 0
899 -762 84 0
-900 -158 0
-900 256 0
900 158 -256 0
-901 -128 0
-901 94 0
901 128 -94 0
-902 856 395 0
-902 -856 -395 0
902 -856 395 0
902 856 -395 0
-903 -356 153 0
-903 356 -153 0
903 356 153 0
903 -356 -153 0
-904 -73 839 0
-904 73 -839 0
904 73 839 0
904 -73 -839 0
-905 823 0
-905 345 0
905 -823 -345 0
-906 259 0
-906 777 0
906 -259 -777 0
-907 -489 0
-907 -203 0
907 489 203 0
-908 -26 0
-908 201 0
908 26 -201 0
-909 795 0
-909 -4 0
909 -795 4 0
-910 -642 0
-910 823 0
910 642 -823 0
-911 -425 0
-911 -190 0
911 425 190 0
-912 426 0
-912 -907 0
912 -426 907 0
-913 554 0
-913 557 0
913 -554 -557 0
-914 697 0
-914 -505 0
914 -697 505 0
-915 51 -612 0
-915 -51 612 0
915 -51 -612 0
915 51 612 0
-916 582 0
-916 -775 0
916 -582 775 0
-917 261 0
-917 -309 0
917 -261 309 0
-918 187 0
-918 -770 0
918 -187 770 0
-919 397 0
-919 -826 0
919 -397 826 0
-920 -361 0
-920 158 0
920 361 -158 0
-921 -63 0
-921 112 0
921 63 -112 0
-922 -500 -657 0
-922 500 657 0
922 500 -657 0
922 -500 657 0
-923 -366 0
-923 -691 0
923 366 691 0
-924 756 0
-924 -477 0
924 -756 477 0
-925 697 0
-925 -578 0
925 -697 578 0
-926 161 354 0
-926 -161 -354 0
926 -161 354 0
926 161 -354 0
-927 840 0
-927 478 0
927 -840 -478 0
-928 -1 0
-928 -724 0
928 1 724 0
-929 719 0
-929 -339 0
929 -719 339 0
-930 -922 0
-930 -425 0
930 922 425 0
-931 467 0
-931 299 0
931 -467 -299 0
-932 627 0
-932 -203 0
932 -627 203 0
-933 -274 98 0
-933 274 -98 0
933 274 98 0
933 -274 -98 0
-934 -145 -135 0
-934 145 135 0
934 145 -135 0
934 -145 135 0
-935 162 0
-935 -921 0
935 -162 921 0
-936 341 -760 0
-936 -341 760 0
936 -341 -760 0
936 341 760 0
-937 465 471 0
-937 -465 -471 0
937 -465 471 0
937 465 -471 0
-938 216 146 0
-938 -216 -146 0
938 -216 146 0
938 216 -146 0
-939 452 0
-939 -108 0
939 -452 108 0
-940 -167 0
-940 -811 0
940 167 811 0
-941 -887 0
-941 940 0
941 887 -940 0
-942 494 0
-942 -337 0
942 -494 337 0
-943 271 0
-943 807 0
943 -271 -807 0
-944 -87 773 0
-944 87 -773 0
944 87 773 0
944 -87 -773 0
-945 185 0
-945 -382 0
945 -185 382 0
-946 596 -326 0
-946 -596 326 0
946 -596 -326 0
946 596 326 0
-947 -385 0
-947 -135 0
947 385 135 0
-948 -341 0
-948 681 0
948 341 -681 0
-949 -421 0
-949 614 0
949 421 -614 0
-950 -743 -783 0
-950 743 783 0
950 743 -783 0
950 -743 783 0
-951 218 0
-951 871 0
951 -218 -871 0
-952 393 0
-952 709 0
952 -393 -709 0
-953 301 0
-953 -209 0
953 -301 209 0
-954 -547 349 0
-954 547 -349 0
954 547 349 0
954 -547 -349 0
-955 189 0
-955 -941 0
955 -189 941 0
-956 163 0
-956 500 0
956 -163 -500 0
-957 16 0
-957 -597 0
957 -16 597 0
-958 -269 0
-958 -917 0
958 269 917 0
-959 312 0
-959 868 0
959 -312 -868 0
-960 356 0
-960 885 0
960 -356 -885 0
-961 813 183 0
-961 -813 -183 0
961 -813 183 0
961 813 -183 0
-962 -118 -787 0
-962 118 787 0
962 118 -787 0
962 -118 787 0
-963 -405 0
-963 -870 0
963 405 870 0
-964 -472 0
-964 168 0
964 472 -168 0
-965 -229 0
-965 795 0
965 229 -795 0
-966 -154 0
-966 -884 0
966 154 884 0
-967 -386 376 0
-967 386 -376 0
967 386 376 0
967 -386 -376 0
-968 -779 116 0
-968 779 -116 0
968 779 116 0
968 -779 -116 0
-969 -541 0
-969 -881 0
969 541 881 0
-970 326 0
-970 -893 0
970 -326 893 0
-971 -865 0
-971 -863 0
971 865 863 0
-972 -147 0
-972 303 0
972 147 -303 0
-973 -496 -260 0
-973 496 260 0
973 496 -260 0
973 -496 260 0
-974 37 0
-974 357 0
974 -37 -357 0
-975 764 0
-975 -179 0
975 -764 179 0
-976 -58 633 0
-976 58 -633 0
976 58 633 0
976 -58 -633 0
-977 592 0
-977 -667 0
977 -592 667 0
-978 611 -822 0
-978 -611 822 0
978 -611 -822 0
978 611 822 0
-979 -744 0
-979 775 0
979 744 -775 0
-980 -425 -344 0
-980 425 344 0
980 425 -344 0
980 -425 344 0
-981 185 0
-981 -435 0
981 -185 435 0
-982 715 888 0
-982 -715 -888 0
982 -715 888 0
982 715 -888 0
-983 34 670 0
-983 -34 -670 0
983 -34 670 0
983 34 -670 0
-984 644 0
-984 -551 0
984 -644 551 0
-985 288 0
-985 -423 0
985 -288 423 0
-986 824 0
-986 664 0
986 -824 -664 0
-987 -505 276 0
-987 505 -276 0
987 505 276 0
987 -505 -276 0
-988 -573 0
-988 503 0
988 573 -503 0
-989 711 0
-989 157 0
989 -711 -157 0
-990 -695 -122 0
-990 695 122 0
990 695 -122 0
990 -695 122 0
-991 -550 0
-991 -142 0
991 550 142 0
-992 99 0
-992 -185 0
992 -99 185 0
-993 738 -564 0
-993 -738 564 0
993 -738 -564 0
993 738 564 0
-994 -593 0
-994 -921 0
994 593 921 0
-995 -968 0
-995 563 0
995 968 -563 0
-996 691 0
-996 -235 0
996 -691 235 0
-997 -883 0
-997 -990 0
997 883 990 0
-998 189 0
-998 824 0
998 -189 -824 0
-999 791 0
-999 268 0
999 -791 -268 0
-1000 -196 0
-1000 525 0
1000 196 -525 0
-1001 849 0
-1001 -869 0
1001 -849 869 0
-1002 174 0
-1002 583 0
1002 -174 -583 0
-1003 -866 0
-1003 -774 0
1003 866 774 0
-1004 335 0
-1004 223 0
1004 -335 -223 0
-1005 533 0
-1005 358 0
1005 -533 -358 0
-1006 -170 0
-1006 -501 0
1006 170 501 0
-1007 -486 528 0
-1007 486 -528 0
1007 486 528 0
1007 -486 -528 0
-1008 235 -37 0
-1008 -235 37 0
1008 -235 -37 0
1008 235 37 0
-1009 -713 0
-1009 -681 0
1009 713 681 0
-1010 796 0
-1010 773 0
1010 -796 -773 0
-1011 720 0
-1011 -237 0
1011 -720 237 0
-1012 205 270 0
-1012 -205 -270 0
1012 -205 270 0
1012 205 -270 0
-1013 -614 -924 0
-1013 614 924 0
1013 614 -924 0
1013 -614 924 0
-1014 -86 -828 0
-1014 86 828 0
1014 86 -828 0
1014 -86 828 0
-1015 183 0
-1015 155 0
1015 -183 -155 0
-1016 -511 0
-1016 260 0
1016 511 -260 0
-1017 319 0
-1017 498 0
1017 -319 -498 0
-1018 -978 330 0
-1018 978 -330 0
1018 978 330 0
1018 -978 -330 0
-1019 -102 0
-1019 601 0
1019 102 -601 0
-1020 -524 370 0
-1020 524 -370 0
1020 524 370 0
1020 -524 -370 0
-1021 664 0
-1021 -652 0
1021 -664 652 0
-1022 63 0
-1022 900 0
1022 -63 -900 0
-1023 571 -307 0
-1023 -571 307 0
1023 -571 -307 0
1023 571 307 0
-1024 -264 0
-1024 573 0
1024 264 -573 0
-1025 -344 0
-1025 367 0
1025 344 -367 0
-1026 1024 0
-1026 -902 0
1026 -1024 902 0
-1027 -868 0
-1027 444 0
1027 868 -444 0
-1028 654 0
-1028 -236 0
1028 -654 236 0
-1029 -953 0
-1029 489 0
1029 953 -489 0
-1030 14 0
-1030 723 0
1030 -14 -723 0
-1031 446 0
-1031 -194 0
1031 -446 194 0
-1032 58 0
-1032 385 0
1032 -58 -385 0
-1033 -687 0
-1033 1003 0
1033 687 -1003 0
-1034 -86 0
-1034 955 0
1034 86 -955 0
-1035 -554 0
-1035 -14 0
1035 554 14 0
-1036 -580 0
-1036 -750 0
1036 580 750 0
-1037 -793 0
-1037 -36 0
1037 793 36 0
-1038 474 0
-1038 -630 0
1038 -474 630 0
-1039 -981 0
-1039 951 0
1039 981 -951 0
-1040 -318 0
-1040 -701 0
1040 318 701 0
-1041 359 0
-1041 401 0
1041 -359 -401 0
-1042 275 0
-1042 -29 0
1042 -275 29 0
-1043 -667 0
-1043 636 0
1043 667 -636 0
-1044 270 0
-1044 491 0
1044 -270 -491 0
-1045 -694 -659 0
-1045 694 659 0
1045 694 -659 0
1045 -694 659 0
-1046 427 0
-1046 848 0
1046 -427 -848 0
-1047 -351 0
-1047 238 0
1047 351 -238 0
-1048 -16 0
-1048 -392 0
1048 16 392 0
-1049 849 0
-1049 62 0
1049 -849 -62 0
-1050 -971 0
-1050 359 0
1050 971 -359 0
-1051 -237 605 0
-1051 237 -605 0
1051 237 605 0
1051 -237 -605 0
-1052 636 0
-1052 255 0
1052 -636 -255 0
-1053 -390 0
-1053 -375 0
1053 390 375 0
-1054 401 0
-1054 -268 0
1054 -401 268 0
-1055 -890 0
-1055 234 0
1055 890 -234 0
-1056 348 0
-1056 130 0
1056 -348 -130 0
-1057 894 0
-1057 957 0
1057 -894 -957 0
-1058 819 0
-1058 367 0
1058 -819 -367 0
-1059 -1020 736 0
-1059 1020 -736 0
1059 1020 736 0
1059 -1020 -736 0
-1060 469 0
-1060 640 0
1060 -469 -640 0
-1061 119 0
-1061 564 0
1061 -119 -564 0
-1062 -267 0
-1062 761 0
1062 267 -761 0
-1063 600 0
-1063 953 0
1063 -600 -953 0
-1064 783 0
-1064 -86 0
1064 -783 86 0
-1065 -796 0
-1065 -108 0
1065 796 108 0
-1066 427 0
-1066 1045 0
1066 -427 -1045 0
-1067 446 0
-1067 -619 0
1067 -446 619 0
-1068 -449 0
-1068 -571 0
1068 449 571 0
-1069 -233 -313 0
-1069 233 313 0
1069 233 -313 0
1069 -233 313 0
-1070 -833 0
-1070 -35 0
1070 833 35 0
-1071 561 0
-1071 998 0
1071 -561 -998 0
-1072 420 0
-1072 -411 0
1072 -420 411 0
-1073 -632 -273 0
-1073 632 273 0
1073 632 -273 0
1073 -632 273 0
-1074 -38 -1043 0
-1074 38 1043 0
1074 38 -1043 0
1074 -38 1043 0
-1075 807 0
-1075 777 0
1075 -807 -777 0
-1076 26 628 0
-1076 -26 -628 0
1076 -26 628 0
1076 26 -628 0
-1077 25 0
-1077 559 0
1077 -25 -559 0
-1078 436 0
-1078 1025 0
1078 -436 -1025 0
-1079 -548 0
-1079 432 0
1079 548 -432 0
-1080 -256 0
-1080 132 0
1080 256 -132 0
-1081 -935 0
-1081 372 0
1081 935 -372 0
-1082 -853 0
-1082 496 0
1082 853 -496 0
-1083 982 0
-1083 373 0
1083 -982 -373 0
-1084 428 726 0
-1084 -428 -726 0
1084 -428 726 0
1084 428 -726 0
-1085 837 225 0
-1085 -837 -225 0
1085 -837 225 0
1085 837 -225 0
-1086 -325 0
-1086 983 0
1086 325 -983 0
-1087 689 0
-1087 -894 0
1087 -689 894 0
-1088 117 0
-1088 845 0
1088 -117 -845 0
-1089 1078 0
-1089 -685 0
1089 -1078 685 0
-1090 1019 0
-1090 -429 0
1090 -1019 429 0
-1091 -488 0
-1091 -376 0
1091 488 376 0
-1092 883 -532 0
-1092 -883 532 0
1092 -883 -532 0
1092 883 532 0
-1093 962 -139 0
-1093 -962 139 0
1093 -962 -139 0
1093 962 139 0
-1094 -212 0
-1094 -1069 0
1094 212 1069 0
-1095 -44 0
-1095 -900 0
1095 44 900 0
-1096 -821 0
-1096 593 0
1096 821 -593 0
-1097 -58 -275 0
-1097 58 275 0
1097 58 -275 0
1097 -58 275 0
-1098 -535 0
-1098 -620 0
1098 535 620 0
-1099 -319 0
-1099 -364 0
1099 319 364 0
-1100 736 993 0
-1100 -736 -993 0
1100 -736 993 0
1100 736 -993 0
-1101 -583 0
-1101 780 0
1101 583 -780 0
-1102 133 0
-1102 839 0
1102 -133 -839 0
-1103 691 572 0
-1103 -691 -572 0
1103 -691 572 0
1103 691 -572 0
-1104 -1011 861 0
-1104 1011 -861 0
1104 1011 861 0
1104 -1011 -861 0
-1105 -61 0
-1105 340 0
1105 61 -340 0
-1106 1053 0
-1106 491 0
1106 -1053 -491 0
-1107 -601 -400 0
-1107 601 400 0
1107 601 -400 0
1107 -601 400 0
-1108 1033 -540 0
-1108 -1033 540 0
1108 -1033 -540 0
1108 1033 540 0
-1109 -620 0
-1109 -158 0
1109 620 158 0
-1110 220 0
-1110 387 0
1110 -220 -387 0
-1111 437 0
-1111 -760 0
1111 -437 760 0
-1112 -520 0
-1112 -622 0
1112 520 622 0
-1113 -538 0
-1113 184 0
1113 538 -184 0
-1114 1086 0
-1114 1055 0
1114 -1086 -1055 0
-1115 985 0
-1115 1035 0
1115 -985 -1035 0
-1116 -392 0
-1116 -629 0
1116 392 629 0
-1117 75 0
-1117 496 0
1117 -75 -496 0
-1118 -311 0
-1118 -27 0
1118 311 27 0
-1119 815 124 0
-1119 -815 -124 0
1119 -815 124 0
1119 815 -124 0
-1120 -931 165 0
-1120 931 -165 0
1120 931 165 0
1120 -931 -165 0
-1121 687 0
-1121 -1057 0
1121 -687 1057 0
-1122 102 0
-1122 274 0
1122 -102 -274 0
-1123 726 0
-1123 469 0
1123 -726 -469 0
-1124 112 768 0
-1124 -112 -768 0
1124 -112 768 0
1124 112 -768 0
-1125 -991 766 0
-1125 991 -766 0
1125 991 766 0
1125 -991 -766 0
-1126 -701 -310 0
-1126 701 310 0
1126 701 -310 0
1126 -701 310 0
-1127 420 0
-1127 1076 0
1127 -420 -1076 0
-1128 25 0
-1128 -1110 0
1128 -25 1110 0
-1129 -719 0
-1129 16 0
1129 719 -16 0
-1130 -859 0
-1130 -1020 0
1130 859 1020 0
-1131 289 0
-1131 130 0
1131 -289 -130 0
-1132 -229 0
-1132 360 0
1132 229 -360 0
-1133 611 0
-1133 -656 0
1133 -611 656 0
-1134 595 0
-1134 483 0
1134 -595 -483 0
-1135 836 -632 0
-1135 -836 632 0
1135 -836 -632 0
1135 836 632 0
-1136 666 0
-1136 925 0
1136 -666 -925 0
-1137 45 -1064 0
-1137 -45 1064 0
1137 -45 -1064 0
1137 45 1064 0
-1138 695 1039 0
-1138 -695 -1039 0
1138 -695 1039 0
1138 695 -1039 0
-1139 877 -712 0
-1139 -877 712 0
1139 -877 -712 0
1139 877 712 0
-1140 -6 0
-1140 -171 0
1140 6 171 0
-1141 41 0
-1141 -947 0
1141 -41 947 0
-1142 386 0
-1142 -790 0
1142 -386 790 0
-1143 -626 0
-1143 801 0
1143 626 -801 0
-1144 -13 0
-1144 -261 0
1144 13 261 0
-1145 137 0
-1145 -975 0
1145 -137 975 0
-1146 -622 0
-1146 -1014 0
1146 622 1014 0
-1147 -247 0
-1147 732 0
1147 247 -732 0
-1148 834 0
-1148 -421 0
1148 -834 421 0
-1149 960 0
-1149 821 0
1149 -960 -821 0
-1150 -801 0
-1150 -1055 0
1150 801 1055 0
-1151 -437 -84 0
-1151 437 84 0
1151 437 -84 0
1151 -437 84 0
-1152 -191 0
-1152 283 0
1152 191 -283 0
-1153 151 0
-1153 -534 0
1153 -151 534 0
-1154 -614 0
-1154 -644 0
1154 614 644 0
-1155 -773 508 0
-1155 773 -508 0
1155 773 508 0
1155 -773 -508 0
-1156 -167 -579 0
-1156 167 579 0
1156 167 -579 0
1156 -167 579 0
-1157 -135 -360 0
-1157 135 360 0
1157 135 -360 0
1157 -135 360 0
-1158 330 220 0
-1158 -330 -220 0
1158 -330 220 0
1158 330 -220 0
-1159 189 0
-1159 1101 0
1159 -189 -1101 0
-1160 -1068 0
-1160 941 0
1160 1068 -941 0
-1161 -716 0
-1161 196 0
1161 716 -196 0
-1162 411 0
-1162 -28 0
1162 -411 28 0
-1163 -182 0
-1163 -817 0
1163 182 817 0
-1164 -994 0
-1164 254 0
1164 994 -254 0
-1165 -423 0
-1165 -1039 0
1165 423 1039 0
-1166 -64 0
-1166 -57 0
1166 64 57 0
-1167 477 342 0
-1167 -477 -342 0
1167 -477 342 0
1167 477 -342 0
-1168 949 0
-1168 699 0
1168 -949 -699 0
-1169 -205 0
-1169 750 0
1169 205 -750 0
-1170 -15 0
-1170 589 0
1170 15 -589 0
-1171 697 0
-1171 -708 0
1171 -697 708 0
-1172 376 0
-1172 -104 0
1172 -376 104 0
-1173 -772 -527 0
-1173 772 527 0
1173 772 -527 0
1173 -772 527 0
-1174 1151 0
-1174 -593 0
1174 -1151 593 0
-1175 -713 0
-1175 733 0
1175 713 -733 0
-1176 483 0
-1176 428 0
1176 -483 -428 0
-1177 948 0
-1177 1008 0
1177 -948 -1008 0
-1178 -1131 0
-1178 -1155 0
1178 1131 1155 0
-1179 -262 0
-1179 -496 0
1179 262 496 0
-1180 559 -951 0
-1180 -559 951 0
1180 -559 -951 0
1180 559 951 0
-1181 820 0
-1181 1074 0
1181 -820 -1074 0
-1182 381 0
-1182 -1156 0
1182 -381 1156 0
-1183 -590 1125 0
-1183 590 -1125 0
1183 590 1125 0
1183 -590 -1125 0
-1184 -65 673 0
-1184 65 -673 0
1184 65 673 0
1184 -65 -673 0
-1185 -1002 0
-1185 -113 0
1185 1002 113 0
-1186 473 0
-1186 -732 0
1186 -473 732 0
-1187 -631 0
-1187 919 0
1187 631 -919 0
-1188 -601 0
-1188 798 0
1188 601 -798 0
-1189 549 0
-1189 -484 0
1189 -549 484 0
-1190 -248 561 0
-1190 248 -561 0
1190 248 561 0
1190 -248 -561 0
-1191 -505 0
-1191 -183 0
1191 505 183 0
-1192 1116 0
-1192 -971 0
1192 -1116 971 0
-1193 -424 0
-1193 -805 0
1193 424 805 0
-1194 951 -140 0
-1194 -951 140 0
1194 -951 -140 0
1194 951 140 0
-1195 616 0
-1195 144 0
1195 -616 -144 0
-1196 -19 0
-1196 937 0
1196 19 -937 0
-1197 190 0
-1197 667 0
1197 -190 -667 0
-1198 -750 1011 0
-1198 750 -1011 0
1198 750 1011 0
1198 -750 -1011 0
-1199 954 0
-1199 -209 0
1199 -954 209 0
-1200 983 0
-1200 769 0
1200 -983 -769 0
-1201 622 0
-1201 -701 0
1201 -622 701 0
-1202 -637 0
-1202 997 0
1202 637 -997 0
-1203 440 0
-1203 -697 0
1203 -440 697 0
-1204 207 0
-1204 -527 0
1204 -207 527 0
-1205 915 0
-1205 -886 0
1205 -915 886 0
-1206 774 0
-1206 634 0
1206 -774 -634 0
-1207 -879 0
-1207 223 0
1207 879 -223 0
-1208 540 0
-1208 901 0
1208 -540 -901 0
-1209 519 170 0
-1209 -519 -170 0
1209 -519 170 0
1209 519 -170 0
-1210 -237 0
-1210 1117 0
1210 237 -1117 0
-1211 -100 0
-1211 -970 0
1211 100 970 0
-1212 927 0
-1212 483 0
1212 -927 -483 0
-1213 156 -465 0
-1213 -156 465 0
1213 -156 -465 0
1213 156 465 0
-1214 603 0
-1214 -614 0
1214 -603 614 0
-1215 -1150 0
-1215 837 0
1215 1150 -837 0
-1216 -8 0
-1216 -986 0
1216 8 986 0
-1217 -750 -1123 0
-1217 750 1123 0
1217 750 -1123 0
1217 -750 1123 0
-1218 1059 0
-1218 432 0
1218 -1059 -432 0
-1219 -590 0
-1219 970 0
1219 590 -970 0
-1220 -508 0
-1220 287 0
1220 508 -287 0
-1221 802 0
-1221 -1043 0
1221 -802 1043 0
-1222 -851 0
-1222 572 0
1222 851 -572 0
-1223 328 0
-1223 489 0
1223 -328 -489 0
-1224 333 -781 0
-1224 -333 781 0
1224 -333 -781 0
1224 333 781 0
-1225 -1173 0
-1225 1149 0
1225 1173 -1149 0
-1226 -454 0
-1226 -1082 0
1226 454 1082 0
-1227 128 802 0
-1227 -128 -802 0
1227 -128 802 0
1227 128 -802 0
-1228 -723 -934 0
-1228 723 934 0
1228 723 -934 0
1228 -723 934 0
-1229 312 0
-1229 -657 0
1229 -312 657 0
-1230 543 -408 0
-1230 -543 408 0
1230 -543 -408 0
1230 543 408 0
-1231 -693 -129 0
-1231 693 129 0
1231 693 -129 0
1231 -693 129 0
-1232 27 0
-1232 223 0
1232 -27 -223 0
-1233 336 -586 0
-1233 -336 586 0
1233 -336 -586 0
1233 336 586 0
-1234 725 -291 0
-1234 -725 291 0
1234 -725 -291 0
1234 725 291 0
-1235 752 0
-1235 838 0
1235 -752 -838 0
-1236 188 0
-1236 -1128 0
1236 -188 1128 0
-1237 -651 0
-1237 781 0
1237 651 -781 0
-1238 826 0
-1238 595 0
1238 -826 -595 0
-1239 -428 0
-1239 -943 0
1239 428 943 0
-1240 -1002 1017 0
-1240 1002 -1017 0
1240 1002 1017 0
1240 -1002 -1017 0
-1241 -1191 0
-1241 -595 0
1241 1191 595 0
-1242 1211 0
-1242 53 0
1242 -1211 -53 0
-1243 731 0
-1243 209 0
1243 -731 -209 0
-1244 -1109 0
-1244 -632 0
1244 1109 632 0
-1245 -669 0
-1245 -1077 0
1245 669 1077 0
-1246 -818 -515 0
-1246 818 515 0
1246 818 -515 0
1246 -818 515 0
-1247 -815 0
-1247 861 0
1247 815 -861 0
-1248 489 0
-1248 -439 0
1248 -489 439 0
-1249 847 0
-1249 470 0
1249 -847 -470 0
-1250 -1018 0
-1250 -236 0
1250 1018 236 0
-1251 285 0
-1251 -168 0
1251 -285 168 0
-1252 -848 -411 0
-1252 848 411 0
1252 848 -411 0
1252 -848 411 0
-1253 -559 0
-1253 679 0
1253 559 -679 0
-1254 1198 0
-1254 -981 0
1254 -1198 981 0
-1255 214 266 0
-1255 -214 -266 0
1255 -214 266 0
1255 214 -266 0
-1256 -926 0
-1256 593 0
1256 926 -593 0
-1257 -548 0
-1257 593 0
1257 548 -593 0
-1258 -276 0
-1258 -539 0
1258 276 539 0
-1259 -217 0
-1259 -235 0
1259 217 235 0
-1260 481 0
-1260 -117 0
1260 -481 117 0
-1261 270 -1163 0
-1261 -270 1163 0
1261 -270 -1163 0
1261 270 1163 0
-1262 -1223 0
-1262 97 0
1262 1223 -97 0
-1263 739 0
-1263 -720 0
1263 -739 720 0
-1264 967 0
-1264 -362 0
1264 -967 362 0
-1265 73 0
-1265 768 0
1265 -73 -768 0
-1266 406 713 0
-1266 -406 -713 0
1266 -406 713 0
1266 406 -713 0
-1267 -288 0
-1267 -139 0
1267 288 139 0
-1268 -483 0
-1268 110 0
1268 483 -110 0
-1269 -68 0
-1269 -28 0
1269 68 28 0
-1270 -1161 0
-1270 862 0
1270 1161 -862 0
-1271 -217 -832 0
-1271 217 832 0
1271 217 -832 0
1271 -217 832 0
-1272 705 -585 0
-1272 -705 585 0
1272 -705 -585 0
1272 705 585 0
-1273 627 0
-1273 14 0
1273 -627 -14 0
-1274 752 -285 0
-1274 -752 285 0
1274 -752 -285 0
1274 752 285 0
-1275 -1029 0
-1275 8 0
1275 1029 -8 0
-1276 -946 194 0
-1276 946 -194 0
1276 946 194 0
1276 -946 -194 0
-1277 481 0
-1277 877 0
1277 -481 -877 0
-1278 1190 1086 0
-1278 -1190 -1086 0
1278 -1190 1086 0
1278 1190 -1086 0
-1279 -172 0
-1279 -829 0
1279 172 829 0
-1280 732 0
-1280 -1048 0
1280 -732 1048 0
-1281 786 0
-1281 543 0
1281 -786 -543 0
-1282 -998 0
-1282 1247 0
1282 998 -1247 0
-1283 848 0
-1283 -141 0
1283 -848 141 0
-1284 -1269 0
-1284 -958 0
1284 1269 958 0
-1285 -1045 0
-1285 109 0
1285 1045 -109 0
-1286 459 0
-1286 847 0
1286 -459 -847 0
-1287 14 626 0
-1287 -14 -626 0
1287 -14 626 0
1287 14 -626 0
-1288 -929 669 0
-1288 929 -669 0
1288 929 669 0
1288 -929 -669 0
-1289 -197 0
-1289 450 0
1289 197 -450 0
-1290 619 0
-1290 259 0
1290 -619 -259 0
-1291 1022 -603 0
-1291 -1022 603 0
1291 -1022 -603 0
1291 1022 603 0
-1292 106 -63 0
-1292 -106 63 0
1292 -106 -63 0
1292 106 63 0
-1293 -578 254 0
-1293 578 -254 0
1293 578 254 0
1293 -578 -254 0
-1294 -185 0
-1294 -574 0
1294 185 574 0
-1295 1146 0
-1295 -415 0
1295 -1146 415 0
-1296 -88 0
-1296 127 0
1296 88 -127 0
-1297 1256 0
-1297 -322 0
1297 -1256 322 0
-1298 46 0
-1298 -485 0
1298 -46 485 0
-1299 -351 0
-1299 -51 0
1299 351 51 0
-1300 425 0
-1300 316 0
1300 -425 -316 0
-1301 -166 0
-1301 969 0
1301 166 -969 0
-1302 -258 0
-1302 650 0
1302 258 -650 0
-1303 342 0
-1303 273 0
1303 -342 -273 0
-1304 1294 -296 0
-1304 -1294 296 0
1304 -1294 -296 0
1304 1294 296 0
-1305 1143 0
-1305 -1161 0
1305 -1143 1161 0
-1306 -1120 0
-1306 -665 0
1306 1120 665 0
-1307 1165 0
-1307 395 0
1307 -1165 -395 0
-1308 1125 0
-1308 -670 0
1308 -1125 670 0
-1309 -42 -549 0
-1309 42 549 0
1309 42 -549 0
1309 -42 549 0
-1310 744 0
-1310 724 0
1310 -744 -724 0
-1311 -794 0
-1311 -738 0
1311 794 738 0
-1312 -576 -1197 0
-1312 576 1197 0
1312 576 -1197 0
1312 -576 1197 0
-1313 613 0
-1313 -263 0
1313 -613 263 0
-1314 -953 0
-1314 1146 0
1314 953 -1146 0
-1315 17 256 0
-1315 -17 -256 0
1315 -17 256 0
1315 17 -256 0
-1316 -152 0
-1316 1193 0
1316 152 -1193 0
-1317 751 -503 0
-1317 -751 503 0
1317 -751 -503 0
1317 751 503 0
-1318 -509 0
-1318 209 0
1318 509 -209 0
-1319 102 0
-1319 605 0
1319 -102 -605 0
-1320 791 0
-1320 197 0
1320 -791 -197 0
-1321 156 0
-1321 763 0
1321 -156 -763 0
-1322 686 816 0
-1322 -686 -816 0
1322 -686 816 0
1322 686 -816 0
-1323 -1258 0
-1323 -793 0
1323 1258 793 0
-1324 -20 -228 0
-1324 20 228 0
1324 20 -228 0
1324 -20 228 0
-1325 -796 1147 0
-1325 796 -1147 0
1325 796 1147 0
1325 -796 -1147 0
-1326 -1138 0
-1326 -179 0
1326 1138 179 0
-1327 -82 0
-1327 1191 0
1327 82 -1191 0
-1328 -349 -876 0
-1328 349 876 0
1328 349 -876 0
1328 -349 876 0
-1329 -690 912 0
-1329 690 -912 0
1329 690 912 0
1329 -690 -912 0
-1330 -231 0
-1330 153 0
1330 231 -153 0
-1331 992 0
-1331 991 0
1331 -992 -991 0
-1332 1225 0
-1332 1324 0
1332 -1225 -1324 0
-1333 341 0
-1333 1236 0
1333 -341 -1236 0
-1334 -700 0
-1334 56 0
1334 700 -56 0
-1335 90 369 0
-1335 -90 -369 0
1335 -90 369 0
1335 90 -369 0
-1336 610 0
-1336 270 0
1336 -610 -270 0
-1337 496 0
-1337 -1191 0
1337 -496 1191 0
-1338 -1188 -635 0
-1338 1188 635 0
1338 1188 -635 0
1338 -1188 635 0
-1339 1198 0
-1339 1016 0
1339 -1198 -1016 0
-1340 -148 -272 0
-1340 148 272 0
1340 148 -272 0
1340 -148 272 0
-1341 44 0
-1341 -1140 0
1341 -44 1140 0
-1342 -820 588 0
-1342 820 -588 0
1342 820 588 0
1342 -820 -588 0
-1343 -877 -653 0
-1343 877 653 0
1343 877 -653 0
1343 -877 653 0
-1344 -261 0
-1344 -1299 0
1344 261 1299 0
-1345 260 -175 0
-1345 -260 175 0
1345 -260 -175 0
1345 260 175 0
-1346 1108 1315 0
-1346 -1108 -1315 0
1346 -1108 1315 0
1346 1108 -1315 0
-1347 1060 0
-1347 -70 0
1347 -1060 70 0
-1348 -237 0
-1348 1171 0
1348 237 -1171 0
-1349 1083 0
-1349 400 0
1349 -1083 -400 0
-1350 1093 0
-1350 -636 0
1350 -1093 636 0
-1351 -450 0
-1351 -152 0
1351 450 152 0
-1352 1025 0
-1352 -528 0
1352 -1025 528 0
-1353 1256 0
-1353 332 0
1353 -1256 -332 0
-1354 -228 0
-1354 -191 0
1354 228 191 0
-1355 72 0
-1355 -544 0
1355 -72 544 0
-1356 982 0
-1356 -1279 0
1356 -982 1279 0
-1357 15 1159 0
-1357 -15 -1159 0
1357 -15 1159 0
1357 15 -1159 0
-1358 1285 0
-1358 1319 0
1358 -1285 -1319 0
-1359 -1104 0
-1359 177 0
1359 1104 -177 0
-1360 1290 0
-1360 -955 0
1360 -1290 955 0
-1361 715 0
-1361 553 0
1361 -715 -553 0
-1362 -1173 0
-1362 -609 0
1362 1173 609 0
-1363 -1299 0
-1363 1121 0
1363 1299 -1121 0
-1364 -735 0
-1364 76 0
1364 735 -76 0
-1365 762 -657 0
-1365 -762 657 0
1365 -762 -657 0
1365 762 657 0
-1366 1157 -1161 0
-1366 -1157 1161 0
1366 -1157 -1161 0
1366 1157 1161 0
-1367 -595 0
-1367 646 0
1367 595 -646 0
-1368 -264 0
-1368 -1191 0
1368 264 1191 0
-1369 883 0
-1369 859 0
1369 -883 -859 0
-1370 871 316 0
-1370 -871 -316 0
1370 -871 316 0
1370 871 -316 0
-1371 58 120 0
-1371 -58 -120 0
1371 -58 120 0
1371 58 -120 0
-1372 -1072 0
-1372 1270 0
1372 1072 -1270 0
-1373 687 0
-1373 59 0
1373 -687 -59 0
-1374 523 0
-1374 186 0
1374 -523 -186 0
-1375 317 0
-1375 -596 0
1375 -317 596 0
-1376 -1040 -323 0
-1376 1040 323 0
1376 1040 -323 0
1376 -1040 323 0
-1377 525 390 0
-1377 -525 -390 0
1377 -525 390 0
1377 525 -390 0
-1378 537 679 0
-1378 -537 -679 0
1378 -537 679 0
1378 537 -679 0
-1379 -678 0
-1379 -1074 0
1379 678 1074 0
-1380 -267 0
-1380 996 0
1380 267 -996 0
-1381 -1301 0
-1381 -1147 0
1381 1301 1147 0
-1382 -749 0
-1382 -1111 0
1382 749 1111 0
-1383 -545 764 0
-1383 545 -764 0
1383 545 764 0
1383 -545 -764 0
-1384 733 78 0
-1384 -733 -78 0
1384 -733 78 0
1384 733 -78 0
-1385 808 0
-1385 326 0
1385 -808 -326 0
-1386 1223 0
-1386 -321 0
1386 -1223 321 0
-1387 79 0
-1387 -249 0
1387 -79 249 0
-1388 1141 0
-1388 -448 0
1388 -1141 448 0
-1389 903 -374 0
-1389 -903 374 0
1389 -903 -374 0
1389 903 374 0
-1390 301 0
-1390 1286 0
1390 -301 -1286 0
-1391 -494 -135 0
-1391 494 135 0
1391 494 -135 0
1391 -494 135 0
-1392 -560 0
-1392 356 0
1392 560 -356 0
-1393 -864 435 0
-1393 864 -435 0
1393 864 435 0
1393 -864 -435 0
-1394 792 0
-1394 947 0
1394 -792 -947 0
-1395 -1211 -1156 0
-1395 1211 1156 0
1395 1211 -1156 0
1395 -1211 1156 0
-1396 -1320 0
-1396 -100 0
1396 1320 100 0
-1397 -1359 -618 0
-1397 1359 618 0
1397 1359 -618 0
1397 -1359 618 0
-1398 -619 395 0
-1398 619 -395 0
1398 619 395 0
1398 -619 -395 0
-1399 1373 0
-1399 -187 0
1399 -1373 187 0
-1400 946 0
-1400 943 0
1400 -946 -943 0
-1401 -270 0
-1401 -1281 0
1401 270 1281 0
-1402 455 0
-1402 -186 0
1402 -455 186 0
-1403 436 -1294 0
-1403 -436 1294 0
1403 -436 -1294 0
1403 436 1294 0
-1404 -267 0
-1404 866 0
1404 267 -866 0
-1405 817 0
-1405 -414 0
1405 -817 414 0
-1406 625 0
-1406 170 0
1406 -625 -170 0
-1407 163 403 0
-1407 -163 -403 0
1407 -163 403 0
1407 163 -403 0
-1408 173 0
-1408 1003 0
1408 -173 -1003 0
-1409 700 0
-1409 202 0
1409 -700 -202 0
-1410 -599 0
-1410 -178 0
1410 599 178 0
-1411 1174 0
-1411 -850 0
1411 -1174 850 0
-1412 436 285 0
-1412 -436 -285 0
1412 -436 285 0
1412 436 -285 0
-1413 1125 0
-1413 -821 0
1413 -1125 821 0
-1414 1126 0
-1414 -1255 0
1414 -1126 1255 0
-1415 -1328 0
-1415 -1391 0
1415 1328 1391 0
-1416 1231 0
-1416 -962 0
1416 -1231 962 0
-1417 -435 0
-1417 -342 0
1417 435 342 0
-1418 1135 0
-1418 952 0
1418 -1135 -952 0
-1419 -807 -164 0
-1419 807 164 0
1419 807 -164 0
1419 -807 164 0
-1420 1112 0
-1420 1029 0
1420 -1112 -1029 0
-1421 690 0
-1421 806 0
1421 -690 -806 0
-1422 -1021 0
-1422 -308 0
1422 1021 308 0
-1423 -1077 1275 0
-1423 1077 -1275 0
1423 1077 1275 0
1423 -1077 -1275 0
-1424 -951 1154 0
-1424 951 -1154 0
1424 951 1154 0
1424 -951 -1154 0
-1425 -257 0
-1425 -913 0
1425 257 913 0
-1426 239 0
-1426 -870 0
1426 -239 870 0
-1427 -628 0
-1427 -631 0
1427 628 631 0
-1428 156 0
-1428 -196 0
1428 -156 196 0
-1429 410 -1354 0
-1429 -410 1354 0
1429 -410 -1354 0
1429 410 1354 0
-1430 -907 0
-1430 -1173 0
1430 907 1173 0
-1431 888 0
-1431 -1056 0
1431 -888 1056 0
-1432 -906 0
-1432 -318 0
1432 906 318 0
-1433 5 -366 0
-1433 -5 366 0
1433 -5 -366 0
1433 5 366 0
-1434 -148 0
-1434 629 0
1434 148 -629 0
-1435 83 -889 0
-1435 -83 889 0
1435 -83 -889 0
1435 83 889 0
-1436 1207 0
-1436 1299 0
1436 -1207 -1299 0
-1437 -291 22 0
-1437 291 -22 0
1437 291 22 0
1437 -291 -22 0
-1438 533 0
-1438 -890 0
1438 -533 890 0
-1439 -74 0
-1439 -1369 0
1439 74 1369 0
-1440 -728 0
-1440 -502 0
1440 728 502 0
-1441 948 0
-1441 1430 0
1441 -948 -1430 0
-1442 709 0
-1442 -324 0
1442 -709 324 0
-1443 -1234 0
-1443 -60 0
1443 1234 60 0
-1444 196 0
-1444 -816 0
1444 -196 816 0
-1445 -1248 1311 0
-1445 1248 -1311 0
1445 1248 1311 0
1445 -1248 -1311 0
-1446 93 839 0
-1446 -93 -839 0
1446 -93 839 0
1446 93 -839 0
-1447 780 0
-1447 -1354 0
1447 -780 1354 0
-1448 486 0
-1448 599 0
1448 -486 -599 0
-1449 -358 0
-1449 -104 0
1449 358 104 0
-1450 -539 0
-1450 535 0
1450 539 -535 0
-1451 180 0
-1451 255 0
1451 -180 -255 0
-1452 -354 -639 0
-1452 354 639 0
1452 354 -639 0
1452 -354 639 0
-1453 -672 0
-1453 838 0
1453 672 -838 0
-1454 -60 0
-1454 1050 0
1454 60 -1050 0
-1455 -844 0
-1455 1443 0
1455 844 -1443 0
-1456 64 0
-1456 1450 0
1456 -64 -1450 0
-1457 -932 290 0
-1457 932 -290 0
1457 932 290 0
1457 -932 -290 0
-1458 -1024 0
-1458 892 0
1458 1024 -892 0
-1459 -1152 0
-1459 531 0
1459 1152 -531 0
-1460 459 0
-1460 -1309 0
1460 -459 1309 0
-1461 378 375 0
-1461 -378 -375 0
1461 -378 375 0
1461 378 -375 0
-1462 53 0
-1462 -6 0
1462 -53 6 0
-1463 -634 535 0
-1463 634 -535 0
1463 634 535 0
1463 -634 -535 0
-1464 669 0
-1464 -1235 0
1464 -669 1235 0
-1465 1070 0
-1465 751 0
1465 -1070 -751 0
-1466 -898 0
-1466 -212 0
1466 898 212 0
-1467 775 0
-1467 560 0
1467 -775 -560 0
-1468 -1037 0
-1468 347 0
1468 1037 -347 0
-1469 1248 -426 0
-1469 -1248 426 0
1469 -1248 -426 0
1469 1248 426 0
-1470 -716 0
-1470 855 0
1470 716 -855 0
-1471 -194 -1321 0
-1471 194 1321 0
1471 194 -1321 0
1471 -194 1321 0
-1472 -415 0
-1472 86 0
1472 415 -86 0
-1473 -986 0
-1473 -447 0
1473 986 447 0
-1474 -444 0
-1474 -654 0
1474 444 654 0
-1475 -820 0
-1475 -328 0
1475 820 328 0
-1476 -953 0
-1476 -798 0
1476 953 798 0
-1477 -832 34 0
-1477 832 -34 0
1477 832 34 0
1477 -832 -34 0
-1478 -682 0
-1478 -1097 0
1478 682 1097 0
-1479 450 0
-1479 569 0
1479 -450 -569 0
-1480 103 0
-1480 -211 0
1480 -103 211 0
-1481 1472 0
-1481 25 0
1481 -1472 -25 0
-1482 -248 0
-1482 328 0
1482 248 -328 0
-1483 -474 0
-1483 1189 0
1483 474 -1189 0
-1484 146 0
-1484 342 0
1484 -146 -342 0
-1485 14 0
-1485 -881 0
1485 -14 881 0
-1486 1288 0
-1486 221 0
1486 -1288 -221 0
-1487 871 0
-1487 -64 0
1487 -871 64 0
-1488 851 0
-1488 -202 0
1488 -851 202 0
-1489 -1428 0
-1489 512 0
1489 1428 -512 0
-1490 920 -1443 0
-1490 -920 1443 0
1490 -920 -1443 0
1490 920 1443 0
-1491 1426 0
-1491 385 0
1491 -1426 -385 0
-1492 -469 1339 0
-1492 469 -1339 0
1492 469 1339 0
1492 -469 -1339 0
-1493 1475 0
-1493 -526 0
1493 -1475 526 0
-1494 771 0
-1494 -1422 0
1494 -771 1422 0
-1495 402 0
-1495 1232 0
1495 -402 -1232 0
-1496 1244 1409 0
-1496 -1244 -1409 0
1496 -1244 1409 0
1496 1244 -1409 0
-1497 777 0
-1497 -348 0
1497 -777 348 0
-1498 -865 0
-1498 -288 0
1498 865 288 0
-1499 120 934 0
-1499 -120 -934 0
1499 -120 934 0
1499 120 -934 0
-1500 1472 0
-1500 -1275 0
1500 -1472 1275 0
-1501 -751 135 0
-1501 751 -135 0
1501 751 135 0
1501 -751 -135 0
-1502 -1251 0
-1502 -1479 0
1502 1251 1479 0
-1503 1421 0
-1503 310 0
1503 -1421 -310 0
-1504 1432 0
-1504 -189 0
1504 -1432 189 0
-1505 -1184 0
-1505 -465 0
1505 1184 465 0
-1506 255 0
-1506 -1388 0
1506 -255 1388 0
-1507 -355 -961 0
-1507 355 961 0
1507 355 -961 0
1507 -355 961 0
-1508 281 0
-1508 197 0
1508 -281 -197 0
-1509 -826 0
-1509 1255 0
1509 826 -1255 0
-1510 960 0
-1510 -1180 0
1510 -960 1180 0
-1511 256 0
-1511 621 0
1511 -256 -621 0
-1512 131 -642 0
-1512 -131 642 0
1512 -131 -642 0
1512 131 642 0
-1513 355 773 0
-1513 -355 -773 0
1513 -355 773 0
1513 355 -773 0
-1514 1385 0
-1514 1273 0
1514 -1385 -1273 0
-1515 44 0
-1515 1097 0
1515 -44 -1097 0
-1516 534 0
-1516 264 0
1516 -534 -264 0
-1517 1071 0
-1517 1357 0
1517 -1071 -1357 0
-1518 -1380 0
-1518 -912 0
1518 1380 912 0
-1519 -1508 0
-1519 -1082 0
1519 1508 1082 0
-1520 1169 0
-1520 -647 0
1520 -1169 647 0
-1521 -284 0
-1521 1189 0
1521 284 -1189 0
-1522 -1341 0
-1522 -158 0
1522 1341 158 0
-1523 -1122 0
-1523 -835 0
1523 1122 835 0
-1524 1277 0
-1524 629 0
1524 -1277 -629 0
-1525 1040 0
-1525 -1129 0
1525 -1040 1129 0
-1526 -1514 0
-1526 1512 0
1526 1514 -1512 0
-1527 -344 0
-1527 1379 0
1527 344 -1379 0
-1528 -1261 0
-1528 -1179 0
1528 1261 1179 0
-1529 638 0
-1529 -552 0
1529 -638 552 0
-1530 1259 41 0
-1530 -1259 -41 0
1530 -1259 41 0
1530 1259 -41 0
-1531 -598 1358 0
-1531 598 -1358 0
1531 598 1358 0
1531 -598 -1358 0
-1532 -1229 0
-1532 -369 0
1532 1229 369 0
-1533 -38 0
-1533 -1253 0
1533 38 1253 0
-1534 -807 0
-1534 -1309 0
1534 807 1309 0
-1535 1144 0
-1535 -127 0
1535 -1144 127 0
-1536 -163 0
-1536 1509 0
1536 163 -1509 0
-1537 1336 0
-1537 -291 0
1537 -1336 291 0
-1538 322 0
-1538 1360 0
1538 -322 -1360 0
-1539 343 0
-1539 572 0
1539 -343 -572 0
-1540 -29 -98 0
-1540 29 98 0
1540 29 -98 0
1540 -29 98 0
-1541 -54 0
-1541 -272 0
1541 54 272 0
-1542 1522 -1440 0
-1542 -1522 1440 0
1542 -1522 -1440 0
1542 1522 1440 0
-1543 -57 0
-1543 752 0
1543 57 -752 0
-1544 -709 0
-1544 265 0
1544 709 -265 0
-1545 1359 0
-1545 437 0
1545 -1359 -437 0
-1546 -695 0
-1546 -1531 0
1546 695 1531 0
-1547 73 960 0
-1547 -73 -960 0
1547 -73 960 0
1547 73 -960 0
-1548 -816 0
-1548 1517 0
1548 816 -1517 0
-1549 1547 0
-1549 624 0
1549 -1547 -624 0
-1550 -615 0
-1550 -404 0
1550 615 404 0
-1551 -1017 0
-1551 520 0
1551 1017 -520 0
-1552 1422 -1366 0
-1552 -1422 1366 0
1552 -1422 -1366 0
1552 1422 1366 0
-1553 164 1159 0
-1553 -164 -1159 0
1553 -164 1159 0
1553 164 -1159 0
-1554 -405 679 0
-1554 405 -679 0
1554 405 679 0
1554 -405 -679 0
-1555 243 260 0
-1555 -243 -260 0
1555 -243 260 0
1555 243 -260 0
-1556 -687 0
-1556 199 0
1556 687 -199 0
-1557 -1204 0
-1557 279 0
1557 1204 -279 0
-1558 626 0
-1558 -806 0
1558 -626 806 0
-1559 -1334 0
-1559 212 0
1559 1334 -212 0
-1560 902 -883 0
-1560 -902 883 0
1560 -902 -883 0
1560 902 883 0
-1561 -1469 0
-1561 553 0
1561 1469 -553 0
-1562 654 0
-1562 1227 0
1562 -654 -1227 0
-1563 631 0
-1563 1156 0
1563 -631 -1156 0
-1564 -4 1250 0
-1564 4 -1250 0
1564 4 1250 0
1564 -4 -1250 0
-1565 485 0
-1565 -284 0
1565 -485 284 0
-1566 -526 0
-1566 -272 0
1566 526 272 0
-1567 1260 0
-1567 1015 0
1567 -1260 -1015 0
-1568 -782 -143 0
-1568 782 143 0
1568 782 -143 0
1568 -782 143 0
-1569 884 1049 0
-1569 -884 -1049 0
1569 -884 1049 0
1569 884 -1049 0
-1570 1173 0
-1570 1362 0
1570 -1173 -1362 0
-1571 1287 0
-1571 -1367 0
1571 -1287 1367 0
-1572 -885 0
-1572 -1431 0
1572 885 1431 0
-1573 1295 0
-1573 1557 0
1573 -1295 -1557 0
-1574 1190 0
-1574 -965 0
1574 -1190 965 0
-1575 65 -430 0
-1575 -65 430 0
1575 -65 -430 0
1575 65 430 0
-1576 -526 0
-1576 882 0
1576 526 -882 0
-1577 -741 0
-1577 -823 0
1577 741 823 0
-1578 -102 0
-1578 876 0
1578 102 -876 0
-1579 -341 0
-1579 -24 0
1579 341 24 0
-1580 234 0
-1580 240 0
1580 -234 -240 0
-1581 1376 -1054 0
-1581 -1376 1054 0
1581 -1376 -1054 0
1581 1376 1054 0
-1582 -252 -699 0
-1582 252 699 0
1582 252 -699 0
1582 -252 699 0
-1583 1557 0
-1583 -330 0
1583 -1557 330 0
-1584 205 0
-1584 -72 0
1584 -205 72 0
-1585 1491 0
-1585 1274 0
1585 -1491 -1274 0
-1586 972 0
-1586 99 0
1586 -972 -99 0
-1587 655 0
-1587 1175 0
1587 -655 -1175 0
-1588 863 0
-1588 -908 0
1588 -863 908 0
-1589 692 0
-1589 346 0
1589 -692 -346 0
-1590 1359 0
-1590 1286 0
1590 -1359 -1286 0
-1591 1275 681 0
-1591 -1275 -681 0
1591 -1275 681 0
1591 1275 -681 0
-1592 -616 0
-1592 337 0
1592 616 -337 0
-1593 81 0
-1593 -784 0
1593 -81 784 0
-1594 -1587 0
-1594 309 0
1594 1587 -309 0
-1595 -887 0
-1595 324 0
1595 887 -324 0
-1596 -5 1537 0
-1596 5 -1537 0
1596 5 1537 0
1596 -5 -1537 0
-1597 -162 0
-1597 -101 0
1597 162 101 0
-1598 1247 0
-1598 1021 0
1598 -1247 -1021 0
-1599 -637 0
-1599 548 0
1599 637 -548 0
-1600 436 131 0
-1600 -436 -131 0
1600 -436 131 0
1600 436 -131 0
-1601 723 -205 0
-1601 -723 205 0
1601 -723 -205 0
1601 723 205 0
-1602 467 -1237 0
-1602 -467 1237 0
1602 -467 -1237 0
1602 467 1237 0
-1603 330 1302 0
-1603 -330 -1302 0
1603 -330 1302 0
1603 330 -1302 0
-1604 -646 0
-1604 880 0
1604 646 -880 0
-1605 -1018 0
-1605 -821 0
1605 1018 821 0
-1606 -642 0
-1606 -49 0
1606 642 49 0
-1607 1330 0
-1607 1485 0
1607 -1330 -1485 0
-1608 -482 0
-1608 1537 0
1608 482 -1537 0
-1609 -858 43 0
-1609 858 -43 0
1609 858 43 0
1609 -858 -43 0
-1610 -429 1597 0
-1610 429 -1597 0
1610 429 1597 0
1610 -429 -1597 0
-1611 -234 358 0
-1611 234 -358 0
1611 234 358 0
1611 -234 -358 0
-1612 -198 0
-1612 859 0
1612 198 -859 0
-1613 573 0
-1613 -34 0
1613 -573 34 0
-1614 519 -843 0
-1614 -519 843 0
1614 -519 -843 0
1614 519 843 0
-1615 -519 0
-1615 1405 0
1615 519 -1405 0
-1616 -588 0
-1616 385 0
1616 588 -385 0
-1617 1403 0
-1617 369 0
1617 -1403 -369 0
-1618 -367 0
-1618 -906 0
1618 367 906 0
-1619 1452 0
-1619 1595 0
1619 -1452 -1595 0
-1620 -1052 0
-1620 -997 0
1620 1052 997 0
-1621 -360 0
-1621 -1176 0
1621 360 1176 0
-1622 1045 0
-1622 -1133 0
1622 -1045 1133 0
-1623 -941 0
-1623 -31 0
1623 941 31 0
-1624 1549 0
-1624 1572 0
1624 -1549 -1572 0
-1625 1611 0
-1625 -989 0
1625 -1611 989 0
-1626 322 0
-1626 -629 0
1626 -322 629 0
-1627 1238 0
-1627 90 0
1627 -1238 -90 0
-1628 263 0
-1628 11 0
1628 -263 -11 0
-1629 -310 0
-1629 657 0
1629 310 -657 0
-1630 -394 396 0
-1630 394 -396 0
1630 394 396 0
1630 -394 -396 0
-1631 847 1478 0
-1631 -847 -1478 0
1631 -847 1478 0
1631 847 -1478 0
-1632 1518 0
-1632 481 0
1632 -1518 -481 0
-1633 815 0
-1633 148 0
1633 -815 -148 0
-1634 60 0
-1634 554 0
1634 -60 -554 0
-1635 -1542 0
-1635 -834 0
1635 1542 834 0
-1636 -218 -1610 0
-1636 218 1610 0
1636 218 -1610 0
1636 -218 1610 0
-1637 397 -212 0
-1637 -397 212 0
1637 -397 -212 0
1637 397 212 0
-1638 -1554 -760 0
-1638 1554 760 0
1638 1554 -760 0
1638 -1554 760 0
-1639 24 0
-1639 -263 0
1639 -24 263 0
-1640 161 0
-1640 715 0
1640 -161 -715 0
-1641 -868 0
-1641 -748 0
1641 868 748 0
-1642 -814 0
-1642 -770 0
1642 814 770 0
-1643 -997 0
-1643 -1176 0
1643 997 1176 0
-1644 -43 0
-1644 1239 0
1644 43 -1239 0
-1645 1148 0
-1645 649 0
1645 -1148 -649 0
-1646 772 0
-1646 621 0
1646 -772 -621 0
-1647 11 0
-1647 122 0
1647 -11 -122 0
-1648 1531 0
-1648 -1377 0
1648 -1531 1377 0
-1649 -91 0
-1649 478 0
1649 91 -478 0
-1650 90 -266 0
-1650 -90 266 0
1650 -90 -266 0
1650 90 266 0
-1651 -1029 0
-1651 966 0
1651 1029 -966 0
-1652 70 923 0
-1652 -70 -923 0
1652 -70 923 0
1652 70 -923 0
-1653 571 -521 0
-1653 -571 521 0
1653 -571 -521 0
1653 571 521 0
-1654 1126 0
-1654 -127 0
1654 -1126 127 0
-1655 717 0
-1655 -514 0
1655 -717 514 0
-1656 814 0
-1656 -568 0
1656 -814 568 0
-1657 599 0
-1657 -895 0
1657 -599 895 0
-1658 -69 0
-1658 1508 0
1658 69 -1508 0
-1659 -1405 0
-1659 -613 0
1659 1405 613 0
-1660 -725 0
-1660 1334 0
1660 725 -1334 0
-1661 518 0
-1661 -326 0
1661 -518 326 0
-1662 -1171 0
-1662 1192 0
1662 1171 -1192 0
-1663 756 0
-1663 799 0
1663 -756 -799 0
-1664 -697 0
-1664 539 0
1664 697 -539 0
-1665 -68 -1116 0
-1665 68 1116 0
1665 68 -1116 0
1665 -68 1116 0
-1666 -1486 -704 0
-1666 1486 704 0
1666 1486 -704 0
1666 -1486 704 0
-1667 668 -1257 0
-1667 -668 1257 0
1667 -668 -1257 0
1667 668 1257 0
-1668 151 0
-1668 -798 0
1668 -151 798 0
-1669 -723 0
-1669 955 0
1669 723 -955 0
-1670 165 947 0
-1670 -165 -947 0
1670 -165 947 0
1670 165 -947 0
-1671 1246 -1632 0
-1671 -1246 1632 0
1671 -1246 -1632 0
1671 1246 1632 0
-1672 -1583 0
-1672 -854 0
1672 1583 854 0
-1673 1277 0
-1673 -507 0
1673 -1277 507 0
-1674 -541 796 0
-1674 541 -796 0
1674 541 796 0
1674 -541 -796 0
-1675 -292 0
-1675 6 0
1675 292 -6 0
-1676 -1122 0
-1676 787 0
1676 1122 -787 0
-1677 -1647 0
-1677 113 0
1677 1647 -113 0
-1678 -339 1171 0
-1678 339 -1171 0
1678 339 1171 0
1678 -339 -1171 0
-1679 -1045 1363 0
-1679 1045 -1363 0
1679 1045 1363 0
1679 -1045 -1363 0
-1680 -698 0
-1680 923 0
1680 698 -923 0
-1681 -1261 0
-1681 1533 0
1681 1261 -1533 0
-1682 508 1326 0
-1682 -508 -1326 0
1682 -508 1326 0
1682 508 -1326 0
-1683 -1402 0
-1683 -486 0
1683 1402 486 0
-1684 364 541 0
-1684 -364 -541 0
1684 -364 541 0
1684 364 -541 0
-1685 -453 0
-1685 -624 0
1685 453 624 0
-1686 319 0
-1686 -619 0
1686 -319 619 0
-1687 1462 -630 0
-1687 -1462 630 0
1687 -1462 -630 0
1687 1462 630 0
-1688 -1465 152 0
-1688 1465 -152 0
1688 1465 152 0
1688 -1465 -152 0
-1689 539 0
-1689 917 0
1689 -539 -917 0
-1690 -873 0
-1690 1199 0
1690 873 -1199 0
-1691 573 0
-1691 1541 0
1691 -573 -1541 0
-1692 -1137 0
-1692 1119 0
1692 1137 -1119 0
-1693 788 0
-1693 -1198 0
1693 -788 1198 0
-1694 -1111 770 0
-1694 1111 -770 0
1694 1111 770 0
1694 -1111 -770 0
-1695 986 47 0
-1695 -986 -47 0
1695 -986 47 0
1695 986 -47 0
-1696 -1167 1219 0
-1696 1167 -1219 0
1696 1167 1219 0
1696 -1167 -1219 0
-1697 -1003 -27 0
-1697 1003 27 0
1697 1003 -27 0
1697 -1003 27 0
-1698 -738 -528 0
-1698 738 528 0
1698 738 -528 0
1698 -738 528 0
-1699 1609 0
-1699 1303 0
1699 -1609 -1303 0
-1700 -1166 811 0
-1700 1166 -811 0
1700 1166 811 0
1700 -1166 -811 0
-1701 28 0
-1701 -1152 0
1701 -28 1152 0
-1702 583 0
-1702 1430 0
1702 -583 -1430 0
-1703 1300 0
-1703 -821 0
1703 -1300 821 0
-1704 1184 0
-1704 650 0
1704 -1184 -650 0
-1705 129 0
-1705 1492 0
1705 -129 -1492 0
-1706 457 0
-1706 -400 0
1706 -457 400 0
-1707 -1489 -1564 0
-1707 1489 1564 0
1707 1489 -1564 0
1707 -1489 1564 0
-1708 666 0
-1708 -341 0
1708 -666 341 0
-1709 1574 207 0
-1709 -1574 -207 0
1709 -1574 207 0
1709 1574 -207 0
-1710 497 0
-1710 -1252 0
1710 -497 1252 0
-1711 85 0
-1711 -735 0
1711 -85 735 0
-1712 -1615 0
-1712 1166 0
1712 1615 -1166 0
-1713 -486 741 0
-1713 486 -741 0
1713 486 741 0
1713 -486 -741 0
-1714 -1652 0
-1714 -794 0
1714 1652 794 0
-1715 419 -25 0
-1715 -419 25 0
1715 -419 -25 0
1715 419 25 0
-1716 559 0
-1716 332 0
1716 -559 -332 0
-1717 689 1454 0
-1717 -689 -1454 0
1717 -689 1454 0
1717 689 -1454 0
-1718 672 0
-1718 1027 0
1718 -672 -1027 0
-1719 1334 186 0
-1719 -1334 -186 0
1719 -1334 186 0
1719 1334 -186 0
-1720 -811 0
-1720 -794 0
1720 811 794 0
-1721 -577 0
-1721 917 0
1721 577 -917 0
-1722 1409 0
-1722 65 0
1722 -1409 -65 0
-1723 1606 0
-1723 1513 0
1723 -1606 -1513 0
-1724 -1264 0
-1724 1083 0
1724 1264 -1083 0
-1725 1658 0
-1725 -1122 0
1725 -1658 1122 0
-1726 -1511 0
-1726 1331 0
1726 1511 -1331 0
-1727 186 0
-1727 715 0
1727 -186 -715 0
-1728 1139 -824 0
-1728 -1139 824 0
1728 -1139 -824 0
1728 1139 824 0
-1729 -1221 0
-1729 1709 0
1729 1221 -1709 0
-1730 507 0
-1730 -953 0
1730 -507 953 0
-1731 -522 0
-1731 1200 0
1731 522 -1200 0
-1732 -690 0
-1732 -109 0
1732 690 109 0
-1733 481 0
-1733 276 0
1733 -481 -276 0
-1734 1639 0
-1734 293 0
1734 -1639 -293 0
-1735 -661 425 0
-1735 661 -425 0
1735 661 425 0
1735 -661 -425 0
-1736 1722 -443 0
-1736 -1722 443 0
1736 -1722 -443 0
1736 1722 443 0
-1737 -184 0
-1737 25 0
1737 184 -25 0
-1738 677 0
-1738 -928 0
1738 -677 928 0
-1739 -617 651 0
-1739 617 -651 0
1739 617 651 0
1739 -617 -651 0
-1740 1116 0
-1740 1312 0
1740 -1116 -1312 0
-1741 1032 1603 0
-1741 -1032 -1603 0
1741 -1032 1603 0
1741 1032 -1603 0
-1742 143 0
-1742 -690 0
1742 -143 690 0
-1743 -1685 0
-1743 -1359 0
1743 1685 1359 0
-1744 -1067 0
-1744 -672 0
1744 1067 672 0
-1745 941 0
-1745 -757 0
1745 -941 757 0
-1746 1138 0
-1746 -1096 0
1746 -1138 1096 0
-1747 929 0
-1747 -857 0
1747 -929 857 0
-1748 -1418 0
-1748 -1416 0
1748 1418 1416 0
-1749 1268 0
-1749 1484 0
1749 -1268 -1484 0
-1750 1417 0
-1750 151 0
1750 -1417 -151 0
-1751 -221 0
-1751 797 0
1751 221 -797 0
-1752 837 1579 0
-1752 -837 -1579 0
1752 -837 1579 0
1752 837 -1579 0
-1753 1494 0
-1753 -685 0
1753 -1494 685 0
-1754 86 0
-1754 1541 0
1754 -86 -1541 0
-1755 -338 0
-1755 -87 0
1755 338 87 0
-1756 -89 235 0
-1756 89 -235 0
1756 89 235 0
1756 -89 -235 0
-1757 -289 0
-1757 -324 0
1757 289 324 0
-1758 -1033 0
-1758 -1710 0
1758 1033 1710 0
-1759 610 0
-1759 1342 0
1759 -610 -1342 0
-1760 -893 1036 0
-1760 893 -1036 0
1760 893 1036 0
1760 -893 -1036 0
-1761 -77 -97 0
-1761 77 97 0
1761 77 -97 0
1761 -77 97 0
-1762 -1217 328 0
-1762 1217 -328 0
1762 1217 328 0
1762 -1217 -328 0
-1763 213 0
-1763 -21 0
1763 -213 21 0
-1764 809 0
-1764 -727 0
1764 -809 727 0
-1765 302 0
-1765 -88 0
1765 -302 88 0
-1766 189 0
-1766 -282 0
1766 -189 282 0
-1767 952 0
-1767 -540 0
1767 -952 540 0
-1768 -751 0
-1768 347 0
1768 751 -347 0
-1769 -1350 0
-1769 -643 0
1769 1350 643 0
-1770 -933 0
-1770 -1544 0
1770 933 1544 0
-1771 -1312 -1438 0
-1771 1312 1438 0
1771 1312 -1438 0
1771 -1312 1438 0
-1772 1761 0
-1772 -1442 0
1772 -1761 1442 0
-1773 -663 0
-1773 -1023 0
1773 663 1023 0
-1774 670 1171 0
-1774 -670 -1171 0
1774 -670 1171 0
1774 670 -1171 0
-1775 -1234 0
-1775 -1767 0
1775 1234 1767 0
-1776 731 0
-1776 752 0
1776 -731 -752 0
-1777 1419 501 0
-1777 -1419 -501 0
1777 -1419 501 0
1777 1419 -501 0
-1778 -994 0
-1778 -485 0
1778 994 485 0
-1779 624 0
-1779 1674 0
1779 -624 -1674 0
-1780 -1467 -1331 0
-1780 1467 1331 0
1780 1467 -1331 0
1780 -1467 1331 0
-1781 399 0
-1781 1222 0
1781 -399 -1222 0
-1782 -342 -1750 0
-1782 342 1750 0
1782 342 -1750 0
1782 -342 1750 0
-1783 -119 106 0
-1783 119 -106 0
1783 119 106 0
1783 -119 -106 0
-1784 4 -19 0
-1784 -4 19 0
1784 -4 -19 0
1784 4 19 0
-1785 -966 0
-1785 -900 0
1785 966 900 0
-1786 -1733 -456 0
-1786 1733 456 0
1786 1733 -456 0
1786 -1733 456 0
-1787 481 0
-1787 1786 0
1787 -481 -1786 0
-1788 -1310 0
-1788 -483 0
1788 1310 483 0
-1789 505 0
-1789 -1634 0
1789 -505 1634 0
-1790 -276 0
-1790 -561 0
1790 276 561 0
-1791 -1101 0
-1791 -927 0
1791 1101 927 0
-1792 1392 0
-1792 -23 0
1792 -1392 23 0
-1793 -780 349 0
-1793 780 -349 0
1793 780 349 0
1793 -780 -349 0
-1794 1066 0
-1794 -51 0
1794 -1066 51 0
-1795 49 1670 0
-1795 -49 -1670 0
1795 -49 1670 0
1795 49 -1670 0
-1796 386 0
-1796 -1212 0
1796 -386 1212 0
-1797 1789 -618 0
-1797 -1789 618 0
1797 -1789 -618 0
1797 1789 618 0
-1798 -1251 0
-1798 -1700 0
1798 1251 1700 0
-1799 8 0
-1799 1510 0
1799 -8 -1510 0
-1800 -433 0
-1800 560 0
1800 433 -560 0
-1801 -457 0
-1801 832 0
1801 457 -832 0
-1802 1246 367 0
-1802 -1246 -367 0
1802 -1246 367 0
1802 1246 -367 0
-1803 774 -1133 0
-1803 -774 1133 0
1803 -774 -1133 0
1803 774 1133 0
-1804 -942 0
-1804 192 0
1804 942 -192 0
-1805 709 0
-1805 -1006 0
1805 -709 1006 0
-1806 -670 0
-1806 1349 0
1806 670 -1349 0
-1807 572 0
-1807 1356 0
1807 -572 -1356 0
-1808 -528 -1229 0
-1808 528 1229 0
1808 528 -1229 0
1808 -528 1229 0
-1809 -1761 -124 0
-1809 1761 124 0
1809 1761 -124 0
1809 -1761 124 0
-1810 869 0
-1810 91 0
1810 -869 -91 0
-1811 1765 0
-1811 1231 0
1811 -1765 -1231 0
-1812 1197 -387 0
-1812 -1197 387 0
1812 -1197 -387 0
1812 1197 387 0
-1813 324 0
-1813 138 0
1813 -324 -138 0
-1814 -189 0
-1814 1391 0
1814 189 -1391 0
-1815 -1020 -251 0
-1815 1020 251 0
1815 1020 -251 0
1815 -1020 251 0
-1816 -1724 0
-1816 461 0
1816 1724 -461 0
-1817 -1158 0
-1817 -921 0
1817 1158 921 0
-1818 -97 489 0
-1818 97 -489 0
1818 97 489 0
1818 -97 -489 0
-1819 1475 0
-1819 1103 0
1819 -1475 -1103 0
-1820 -1611 0
-1820 -142 0
1820 1611 142 0
-1821 -1147 0
-1821 -1525 0
1821 1147 1525 0
-1822 -1414 0
-1822 -605 0
1822 1414 605 0
-1823 1154 582 0
-1823 -1154 -582 0
1823 -1154 582 0
1823 1154 -582 0
-1824 1603 298 0
-1824 -1603 -298 0
1824 -1603 298 0
1824 1603 -298 0
-1825 -1646 0
-1825 -1515 0
1825 1646 1515 0
-1826 1265 263 0
-1826 -1265 -263 0
1826 -1265 263 0
1826 1265 -263 0
-1827 1373 -231 0
-1827 -1373 231 0
1827 -1373 -231 0
1827 1373 231 0
-1828 -1630 246 0
-1828 1630 -246 0
1828 1630 246 0
1828 -1630 -246 0
-1829 932 0
-1829 1163 0
1829 -932 -1163 0
-1830 980 0
-1830 -1139 0
1830 -980 1139 0
-1831 -1431 0
-1831 1560 0
1831 1431 -1560 0
-1832 289 0
-1832 247 0
1832 -289 -247 0
-1833 -600 1390 0
-1833 600 -1390 0
1833 600 1390 0
1833 -600 -1390 0
-1834 173 0
-1834 600 0
1834 -173 -600 0
-1835 -101 0
-1835 -1321 0
1835 101 1321 0
-1836 -602 0
-1836 951 0
1836 602 -951 0
-1837 662 0
-1837 -1754 0
1837 -662 1754 0
-1838 661 -214 0
-1838 -661 214 0
1838 -661 -214 0
1838 661 214 0
-1839 204 0
-1839 -917 0
1839 -204 917 0
-1840 -1536 0
-1840 -1355 0
1840 1536 1355 0
-1841 -1606 -83 0
-1841 1606 83 0
1841 1606 -83 0
1841 -1606 83 0
-1842 1192 0
-1842 1487 0
1842 -1192 -1487 0
-1843 -1830 0
-1843 -1401 0
1843 1830 1401 0
-1844 -1420 0
-1844 211 0
1844 1420 -211 0
-1845 -305 0
-1845 -1031 0
1845 305 1031 0
-1846 -177 0
-1846 1321 0
1846 177 -1321 0
-1847 -1550 0
-1847 -1336 0
1847 1550 1336 0
-1848 -1291 0
-1848 1602 0
1848 1291 -1602 0
-1849 1227 0
-1849 -1772 0
1849 -1227 1772 0
-1850 -1833 -966 0
-1850 1833 966 0
1850 1833 -966 0
1850 -1833 966 0
-1851 47 0
-1851 -899 0
1851 -47 899 0
-1852 661 0
-1852 -894 0
1852 -661 894 0
-1853 1603 0
-1853 -1747 0
1853 -1603 1747 0
-1854 1003 0
-1854 583 0
1854 -1003 -583 0
-1855 -1281 0
-1855 -463 0
1855 1281 463 0
-1856 -1311 0
-1856 -100 0
1856 1311 100 0
-1857 -403 0
-1857 -1555 0
1857 403 1555 0
-1858 -357 0
-1858 1773 0
1858 357 -1773 0
-1859 -1285 0
-1859 -423 0
1859 1285 423 0
-1860 -394 1251 0
-1860 394 -1251 0
1860 394 1251 0
1860 -394 -1251 0
-1861 -476 0
-1861 1411 0
1861 476 -1411 0
-1862 -750 0
-1862 -1409 0
1862 750 1409 0
-1863 1135 1569 0
-1863 -1135 -1569 0
1863 -1135 1569 0
1863 1135 -1569 0
-1864 -1811 0
-1864 -925 0
1864 1811 925 0
-1865 1147 0
-1865 589 0
1865 -1147 -589 0
-1866 -316 0
-1866 -465 0
1866 316 465 0
-1867 -688 0
-1867 391 0
1867 688 -391 0
-1868 -634 0
-1868 -1148 0
1868 634 1148 0
-1869 -419 1356 0
-1869 419 -1356 0
1869 419 1356 0
1869 -419 -1356 0
-1870 134 -736 0
-1870 -134 736 0
1870 -134 -736 0
1870 134 736 0
-1871 -569 0
-1871 748 0
1871 569 -748 0
-1872 748 0
-1872 -921 0
1872 -748 921 0
-1873 77 0
-1873 -994 0
1873 -77 994 0
-1874 320 0
-1874 554 0
1874 -320 -554 0
-1875 1632 0
-1875 -812 0
1875 -1632 812 0
-1876 496 961 0
-1876 -496 -961 0
1876 -496 961 0
1876 496 -961 0
-1877 -1689 224 0
-1877 1689 -224 0
1877 1689 224 0
1877 -1689 -224 0
-1878 -1401 1227 0
-1878 1401 -1227 0
1878 1401 1227 0
1878 -1401 -1227 0
-1879 1423 0
-1879 586 0
1879 -1423 -586 0
-1880 -1174 0
-1880 -1340 0
1880 1174 1340 0
-1881 1156 -917 0
-1881 -1156 917 0
1881 -1156 -917 0
1881 1156 917 0
-1882 -785 0
-1882 1012 0
1882 785 -1012 0
-1883 -1260 0
-1883 -1696 0
1883 1260 1696 0
-1884 -987 0
-1884 -600 0
1884 987 600 0
-1885 703 -946 0
-1885 -703 946 0
1885 -703 -946 0
1885 703 946 0
-1886 -1688 0
-1886 1175 0
1886 1688 -1175 0
-1887 1309 0
-1887 888 0
1887 -1309 -888 0
-1888 -659 0
-1888 627 0
1888 659 -627 0
-1889 1372 0
-1889 1057 0
1889 -1372 -1057 0
-1890 -1820 313 0
-1890 1820 -313 0
1890 1820 313 0
1890 -1820 -313 0
-1891 -250 0
-1891 -466 0
1891 250 466 0
-1892 1827 979 0
-1892 -1827 -979 0
1892 -1827 979 0
1892 1827 -979 0
-1893 404 0
-1893 1645 0
1893 -404 -1645 0
-1894 589 0
-1894 1536 0
1894 -589 -1536 0
-1895 1794 0
-1895 716 0
1895 -1794 -716 0
-1896 -81 0
-1896 -768 0
1896 81 768 0
-1897 -1564 -217 0
-1897 1564 217 0
1897 1564 -217 0
1897 -1564 217 0
-1898 -218 0
-1898 -599 0
1898 218 599 0
-1899 1112 0
-1899 739 0
1899 -1112 -739 0
-1900 885 -300 0
-1900 -885 300 0
1900 -885 -300 0
1900 885 300 0
-1901 1007 0
-1901 734 0
1901 -1007 -734 0
-1902 -1354 0
-1902 -172 0
1902 1354 172 0
-1903 1455 1494 0
-1903 -1455 -1494 0
1903 -1455 1494 0
1903 1455 -1494 0
-1904 -205 441 0
-1904 205 -441 0
1904 205 441 0
1904 -205 -441 0
-1905 1068 498 0
-1905 -1068 -498 0
1905 -1068 498 0
1905 1068 -498 0
-1906 1262 1606 0
-1906 -1262 -1606 0
1906 -1262 1606 0
1906 1262 -1606 0
-1907 1208 -344 0
-1907 -1208 344 0
1907 -1208 -344 0
1907 1208 344 0
-1908 1839 402 0
-1908 -1839 -402 0
1908 -1839 402 0
1908 1839 -402 0
-1909 -864 0
-1909 1801 0
1909 864 -1801 0
-1910 -1089 0
-1910 -171 0
1910 1089 171 0
-1911 -1093 0
-1911 755 0
1911 1093 -755 0
-1912 -1125 0
-1912 -1308 0
1912 1125 1308 0
-1913 550 0
-1913 857 0
1913 -550 -857 0
-1914 -809 -121 0
-1914 809 121 0
1914 809 -121 0
1914 -809 121 0
-1915 -494 0
-1915 -677 0
1915 494 677 0
-1916 -34 0
-1916 820 0
1916 34 -820 0
-1917 -1106 961 0
-1917 1106 -961 0
1917 1106 961 0
1917 -1106 -961 0
-1918 481 0
-1918 -1884 0
1918 -481 1884 0
-1919 1887 0
-1919 -1881 0
1919 -1887 1881 0
-1920 -1410 -378 0
-1920 1410 378 0
1920 1410 -378 0
1920 -1410 378 0
-1921 -1519 0
-1921 -1683 0
1921 1519 1683 0
-1922 -418 0
-1922 -1018 0
1922 418 1018 0
-1923 -1798 0
-1923 413 0
1923 1798 -413 0
-1924 621 0
-1924 -1277 0
1924 -621 1277 0
-1925 -1496 -841 0
-1925 1496 841 0
1925 1496 -841 0
1925 -1496 841 0
-1926 208 0
-1926 856 0
1926 -208 -856 0
-1927 -746 0
-1927 1445 0
1927 746 -1445 0
-1928 -1059 0
-1928 -1494 0
1928 1059 1494 0
-1929 69 0
-1929 1288 0
1929 -69 -1288 0
-1930 861 0
-1930 -1754 0
1930 -861 1754 0
-1931 75 0
-1931 345 0
1931 -75 -345 0
-1932 -526 0
-1932 -422 0
1932 526 422 0
-1933 -1767 1702 0
-1933 1767 -1702 0
1933 1767 1702 0
1933 -1767 -1702 0
-1934 606 854 0
-1934 -606 -854 0
1934 -606 854 0
1934 606 -854 0
-1935 932 -127 0
-1935 -932 127 0
1935 -932 -127 0
1935 932 127 0
-1936 1407 0
-1936 993 0
1936 -1407 -993 0
-1937 567 0
-1937 897 0
1937 -567 -897 0
-1938 75 0
-1938 727 0
1938 -75 -727 0
-1939 -604 197 0
-1939 604 -197 0
1939 604 197 0
1939 -604 -197 0
-1940 -1886 0
-1940 151 0
1940 1886 -151 0
-1941 -1500 0
-1941 695 0
1941 1500 -695 0
-1942 462 86 0
-1942 -462 -86 0
1942 -462 86 0
1942 462 -86 0
-1943 378 -841 0
-1943 -378 841 0
1943 -378 -841 0
1943 378 841 0
-1944 -1214 0
-1944 30 0
1944 1214 -30 0
-1945 613 0
-1945 1261 0
1945 -613 -1261 0
-1946 1365 166 0
-1946 -1365 -166 0
1946 -1365 166 0
1946 1365 -166 0
-1947 -849 0
-1947 906 0
1947 849 -906 0
-1948 -236 0
-1948 514 0
1948 236 -514 0
-1949 -1256 0
-1949 -593 0
1949 1256 593 0
-1950 1354 0
-1950 -1584 0
1950 -1354 1584 0
-1951 -1627 0
-1951 820 0
1951 1627 -820 0
-1952 -655 0
-1952 -966 0
1952 655 966 0
-1953 1460 0
-1953 -800 0
1953 -1460 800 0
-1954 728 0
-1954 350 0
1954 -728 -350 0
-1955 1064 0
-1955 155 0
1955 -1064 -155 0
-1956 -1157 0
-1956 373 0
1956 1157 -373 0
-1957 982 1626 0
-1957 -982 -1626 0
1957 -982 1626 0
1957 982 -1626 0
-1958 1871 0
-1958 -1828 0
1958 -1871 1828 0
-1959 1851 0
-1959 605 0
1959 -1851 -605 0
-1960 160 0
-1960 -974 0
1960 -160 974 0
-1961 607 0
-1961 -526 0
1961 -607 526 0
-1962 -1006 0
-1962 -1891 0
1962 1006 1891 0
-1963 656 0
-1963 1631 0
1963 -656 -1631 0
-1964 1776 0
-1964 -138 0
1964 -1776 138 0
-1965 -1207 0
-1965 -1011 0
1965 1207 1011 0
-1966 -1620 1367 0
-1966 1620 -1367 0
1966 1620 1367 0
1966 -1620 -1367 0
-1967 -1208 0
-1967 -925 0
1967 1208 925 0
-1968 761 0
-1968 687 0
1968 -761 -687 0
-1969 -507 0
-1969 -478 0
1969 507 478 0
-1970 1393 0
-1970 -1697 0
1970 -1393 1697 0
-1971 972 0
-1971 1439 0
1971 -972 -1439 0
-1972 -444 -904 0
-1972 444 904 0
1972 444 -904 0
1972 -444 904 0
-1973 -88 0
-1973 1920 0
1973 88 -1920 0
-1974 562 0
-1974 -596 0
1974 -562 596 0
-1975 1727 0
-1975 274 0
1975 -1727 -274 0
-1976 922 0
-1976 948 0
1976 -922 -948 0
-1977 766 0
-1977 1571 0
1977 -766 -1571 0
-1978 749 0
-1978 1584 0
1978 -749 -1584 0
-1979 538 0
-1979 -853 0
1979 -538 853 0
-1980 866 0
-1980 -993 0
1980 -866 993 0
-1981 880 0
-1981 -1347 0
1981 -880 1347 0
-1982 -1361 988 0
-1982 1361 -988 0
1982 1361 988 0
1982 -1361 -988 0
-1983 578 0
-1983 -736 0
1983 -578 736 0
-1984 -605 0
-1984 -1203 0
1984 605 1203 0
-1985 1648 0
-1985 1640 0
1985 -1648 -1640 0
-1986 -6 0
-1986 -850 0
1986 6 850 0
-1987 1885 0
-1987 -326 0
1987 -1885 326 0
-1988 1338 0
-1988 -501 0
1988 -1338 501 0
-1989 -445 0
-1989 -1769 0
1989 445 1769 0
-1990 1123 0
-1990 1645 0
1990 -1123 -1645 0
-1991 1611 438 0
-1991 -1611 -438 0
1991 -1611 438 0
1991 1611 -438 0
-1992 -433 0
-1992 -613 0
1992 433 613 0
-1993 1877 0
-1993 -1704 0
1993 -1877 1704 0
-1994 1596 0
-1994 -1969 0
1994 -1596 1969 0
-1995 1415 0
-1995 453 0
1995 -1415 -453 0
-1996 1151 0
-1996 -303 0
1996 -1151 303 0
-1997 1090 0
-1997 1117 0
1997 -1090 -1117 0
-1998 -1322 0
-1998 2 0
1998 1322 -2 0
-1999 1702 -1686 0
-1999 -1702 1686 0
1999 -1702 -1686 0
1999 1702 1686 0
-2000 -1882 0
-2000 -877 0
2000 1882 877 0
-2001 -678 0
-2001 1995 0
2001 678 -1995 0
-2002 410 0
-2002 1128 0
2002 -410 -1128 0
-2003 96 406 0
-2003 -96 -406 0
2003 -96 406 0
2003 96 -406 0
-2004 -207 0
-2004 -1169 0
2004 207 1169 0
-2005 -539 0
-2005 -1073 0
2005 539 1073 0
-2006 -226 0
-2006 492 0
2006 226 -492 0
-2007 -169 0
-2007 1785 0
2007 169 -1785 0
-2008 -346 0
-2008 -1253 0
2008 346 1253 0
-2009 -1586 0
-2009 4 0
2009 1586 -4 0
-2010 1065 0
-2010 652 0
2010 -1065 -652 0
-2011 1541 0
-2011 1254 0
2011 -1541 -1254 0
-2012 541 0
-2012 -1849 0
2012 -541 1849 0
-2013 -443 0
-2013 670 0
2013 443 -670 0
-2014 -1370 0
-2014 -1972 0
2014 1370 1972 0
-2015 1812 -1905 0
-2015 -1812 1905 0
2015 -1812 -1905 0
2015 1812 1905 0
-2016 -647 1920 0
-2016 647 -1920 0
2016 647 1920 0
2016 -647 -1920 0
-2017 938 -113 0
-2017 -938 113 0
2017 -938 -113 0
2017 938 113 0
-2018 655 826 0
-2018 -655 -826 0
2018 -655 826 0
2018 655 -826 0
-2019 1513 0
-2019 676 0
2019 -1513 -676 0
-2020 -609 -243 0
-2020 609 243 0
2020 609 -243 0
2020 -609 243 0
-2021 -345 -102 0
-2021 345 102 0
2021 345 -102 0
2021 -345 102 0
-2022 545 -1292 0
-2022 -545 1292 0
2022 -545 -1292 0
2022 545 1292 0
-2023 -1096 0
-2023 -1109 0
2023 1096 1109 0
-2024 1769 96 0
-2024 -1769 -96 0
2024 -1769 96 0
2024 1769 -96 0
-2025 1193 0
-2025 610 0
2025 -1193 -610 0
-2026 -1247 -1254 0
-2026 1247 1254 0
2026 1247 -1254 0
2026 -1247 1254 0
-2027 1587 0
-2027 -161 0
2027 -1587 161 0
-2028 -481 310 0
-2028 481 -310 0
2028 481 310 0
2028 -481 -310 0
-2029 -1859 0
-2029 862 0
2029 1859 -862 0
-2030 -1332 0
-2030 -83 0
2030 1332 83 0
-2031 1658 0
-2031 1785 0
2031 -1658 -1785 0
-2032 -1369 0
-2032 158 0
2032 1369 -158 0
-2033 1504 0
-2033 1995 0
2033 -1504 -1995 0
-2034 139 0
-2034 1957 0
2034 -139 -1957 0
-2035 916 691 0
-2035 -916 -691 0
2035 -916 691 0
2035 916 -691 0
-2036 -737 0
-2036 38 0
2036 737 -38 0
-2037 -301 0
-2037 -658 0
2037 301 658 0
-2038 230 0
-2038 -1713 0
2038 -230 1713 0
-2039 -1310 0
-2039 1356 0
2039 1310 -1356 0
-2040 -615 0
-2040 -1897 0
2040 615 1897 0
-2041 -231 0
-2041 -1711 0
2041 231 1711 0
-2042 -1466 2020 0
-2042 1466 -2020 0
2042 1466 2020 0
2042 -1466 -2020 0
-2043 -628 0
-2043 -615 0
2043 628 615 0
-2044 180 0
-2044 184 0
2044 -180 -184 0
-2045 422 0
-2045 -606 0
2045 -422 606 0
-2046 -534 0
-2046 -1822 0
2046 534 1822 0
-2047 -1026 0
-2047 756 0
2047 1026 -756 0
-2048 1900 0
-2048 -261 0
2048 -1900 261 0
-2049 1586 0
-2049 315 0
2049 -1586 -315 0
-2050 379 0
-2050 208 0
2050 -379 -208 0
-2051 -1686 0
-2051 1109 0
2051 1686 -1109 0
-2052 -301 0
-2052 -1490 0
2052 301 1490 0
-2053 1905 1293 0
-2053 -1905 -1293 0
2053 -1905 1293 0
2053 1905 -1293 0
-2054 596 0
-2054 -1506 0
2054 -596 1506 0
-2055 -1098 0
-2055 -1490 0
2055 1098 1490 0
-2056 -1834 -791 0
-2056 1834 791 0
2056 1834 -791 0
2056 -1834 791 0
-2057 -1190 -1875 0
-2057 1190 1875 0
2057 1190 -1875 0
2057 -1190 1875 0
-2058 -595 0
-2058 1299 0
2058 595 -1299 0
-2059 -2038 -1376 0
-2059 2038 1376 0
2059 2038 -1376 0
2059 -2038 1376 0
-1996 0
-1997 0
-1998 0
1999 0
-2000 0
-2001 0
-2002 0
-2003 0
-2004 0
2005 0
-2006 0
2007 0
-2008 0
2009 0
-2010 0
-2011 0
-2012 0
-2013 0
-2014 0
2015 0
-2016 0
-2017 0
-2018 0
-2019 0
-2020 0
2021 0
2022 0
2023 0
2024 0
-2025 0
2026 0
-2027 0
-2028 0
-2029 0
2030 0
-2031 0
2032 0
-2033 0
-2034 0
2035 0
-2036 0
-2037 0
-2038 0
-2039 0
-2040 0
2041 0
2042 0
-2043 0
-2044 0
-2045 0
-2046 0
2047 0
-2048 0
-2049 0
-2050 0
-2051 0
2052 0
-2053 0
2054 0
-2055 0
-2056 0
-2057 0
-2058 0
2059 0
