c mixed random circuit, inputs=96 gates=3500, last 96 signals pinned to a planted input assignment; input variables are 1..96
c generated by TurboCryptoSAT gen-benchmark - satisfiable by construction
p cnf 3594 11420
-97 60 0
-97 -14 0
97 -60 14 0
-98 -22 0
-98 21 0
98 22 -21 0
-99 -34 0
-99 -75 0
99 34 75 0
-100 4 0
-100 51 0
100 -4 -51 0
-101 92 -51 0
-101 -92 51 0
101 -92 -51 0
101 92 51 0
-102 -25 0
-102 -21 0
102 25 21 0
-103 53 0
-103 -57 0
103 -53 57 0
-104 27 0
-104 55 0
104 -27 -55 0
-105 -57 0
-105 -51 0
105 57 51 0
-106 13 0
-106 71 0
106 -13 -71 0
-107 2 96 0
-107 -2 -96 0
107 -2 96 0
107 2 -96 0
-108 104 8 0
-108 -104 -8 0
108 -104 8 0
108 104 -8 0
-109 -59 0
-109 -73 0
109 59 73 0
-110 -50 0
-110 -102 0
110 50 102 0
-111 -15 0
-111 93 0
111 15 -93 0
-112 35 0
-112 12 0
112 -35 -12 0
-113 35 0
-113 3 0
113 -35 -3 0
-114 18 -109 0
-114 -18 109 0
114 -18 -109 0
114 18 109 0
-115 30 -83 0
-115 -30 83 0
115 -30 -83 0
115 30 83 0
-116 -1 0
-116 75 0
116 1 -75 0
-117 85 0
-117 20 0
117 -85 -20 0
-118 95 0
-118 -14 0
118 -95 14 0
-119 -55 49 0
-119 55 -49 0
119 55 49 0
119 -55 -49 0
-120 107 0
-120 -112 0
120 -107 112 0
-121 108 0
-121 -120 0
121 -108 120 0
-122 -78 0
-122 -17 0
122 78 17 0
-123 11 -13 0
-123 -11 13 0
123 -11 -13 0
123 11 13 0
-124 -19 0
-124 98 0
124 19 -98 0
-125 120 0
-125 -106 0
125 -120 106 0
-126 109 0
-126 -51 0
126 -109 51 0
-127 40 16 0
-127 -40 -16 0
127 -40 16 0
127 40 -16 0
-128 -94 0
-128 -43 0
128 94 43 0
-129 73 0
-129 33 0
129 -73 -33 0
-130 -52 0
-130 -46 0
130 52 46 0
-131 14 0
-131 -1 0
131 -14 1 0
-132 -106 0
-132 -52 0
132 106 52 0
-133 -43 0
-133 -103 0
133 43 103 0
-134 48 0
-134 24 0
134 -48 -24 0
-135 5 0
-135 26 0
135 -5 -26 0
-136 -103 0
-136 21 0
136 103 -21 0
-137 111 0
-137 -46 0
137 -111 46 0
-138 -98 -66 0
-138 98 66 0
138 98 -66 0
138 -98 66 0
-139 45 0
-139 -38 0
139 -45 38 0
-140 -38 0
-140 -88 0
140 38 88 0
-141 -3 0
-141 42 0
141 3 -42 0
-142 -131 0
-142 66 0
142 131 -66 0
-143 -58 0
-143 -105 0
143 58 105 0
-144 -120 -35 0
-144 120 35 0
144 120 -35 0
144 -120 35 0
-145 -129 0
-145 36 0
145 129 -36 0
-146 -84 78 0
-146 84 -78 0
146 84 78 0
146 -84 -78 0
-147 -66 -128 0
-147 66 128 0
147 66 -128 0
147 -66 128 0
-148 113 0
-148 -18 0
148 -113 18 0
-149 -145 98 0
-149 145 -98 0
149 145 98 0
149 -145 -98 0
-150 108 0
-150 -82 0
150 -108 82 0
-151 108 0
-151 -140 0
151 -108 140 0
-152 140 0
-152 -122 0
152 -140 122 0
-153 15 0
-153 -151 0
153 -15 151 0
-154 68 0
-154 -147 0
154 -68 147 0
-155 52 34 0
-155 -52 -34 0
155 -52 34 0
155 52 -34 0
-156 -57 0
-156 12 0
156 57 -12 0
-157 -24 0
-157 -55 0
157 24 55 0
-158 155 0
-158 36 0
158 -155 -36 0
-159 112 0
-159 -108 0
159 -112 108 0
-160 -27 0
-160 124 0
160 27 -124 0
-161 120 -49 0
-161 -120 49 0
161 -120 -49 0
161 120 49 0
-162 -142 -68 0
-162 142 68 0
162 142 -68 0
162 -142 68 0
-163 29 0
-163 -49 0
163 -29 49 0
-164 -25 0
-164 63 0
164 25 -63 0
-165 -164 0
-165 -82 0
165 164 82 0
-166 -111 83 0
-166 111 -83 0
166 111 83 0
166 -111 -83 0
-167 105 0
-167 64 0
167 -105 -64 0
-168 -147 0
-168 -125 0
168 147 125 0
-169 77 0
-169 -9 0
169 -77 9 0
-170 50 0
-170 71 0
170 -50 -71 0
-171 91 37 0
-171 -91 -37 0
171 -91 37 0
171 91 -37 0
-172 152 0
-172 -18 0
172 -152 18 0
-173 -38 0
-173 -104 0
173 38 104 0
-174 -11 0
-174 5 0
174 11 -5 0
-175 -33 0
-175 -90 0
175 33 90 0
-176 75 63 0
-176 -75 -63 0
176 -75 63 0
176 75 -63 0
-177 106 0
-177 21 0
177 -106 -21 0
-178 90 0
-178 142 0
178 -90 -142 0
-179 30 0
-179 -162 0
179 -30 162 0
-180 20 0
-180 -169 0
180 -20 169 0
-181 -116 0
-181 -71 0
181 116 71 0
-182 88 0
-182 173 0
182 -88 -173 0
-183 -142 0
-183 178 0
183 142 -178 0
-184 -162 0
-184 -146 0
184 162 146 0
-185 -151 129 0
-185 151 -129 0
185 151 129 0
185 -151 -129 0
-186 58 0
-186 157 0
186 -58 -157 0
-187 35 0
-187 108 0
187 -35 -108 0
-188 111 -144 0
-188 -111 144 0
188 -111 -144 0
188 111 144 0
-189 -10 0
-189 43 0
189 10 -43 0
-190 -95 0
-190 51 0
190 95 -51 0
-191 -51 49 0
-191 51 -49 0
191 51 49 0
191 -51 -49 0
-192 44 0
-192 -130 0
192 -44 130 0
-193 169 0
-193 -113 0
193 -169 113 0
-194 148 0
-194 -56 0
194 -148 56 0
-195 -5 0
-195 156 0
195 5 -156 0
-196 -49 0
-196 -35 0
196 49 35 0
-197 -145 0
-197 -25 0
197 145 25 0
-198 -34 55 0
-198 34 -55 0
198 34 55 0
198 -34 -55 0
-199 -34 0
-199 -132 0
199 34 132 0
-200 -30 0
-200 82 0
200 30 -82 0
-201 171 0
-201 -189 0
201 -171 189 0
-202 -17 0
-202 -112 0
202 17 112 0
-203 -93 0
-203 20 0
203 93 -20 0
-204 134 0
-204 179 0
204 -134 -179 0
-205 132 -89 0
-205 -132 89 0
205 -132 -89 0
205 132 89 0
-206 38 0
-206 183 0
206 -38 -183 0
-207 141 0
-207 -205 0
207 -141 205 0
-208 122 0
-208 134 0
208 -122 -134 0
-209 -184 0
-209 -16 0
209 184 16 0
-210 27 0
-210 186 0
210 -27 -186 0
-211 82 -17 0
-211 -82 17 0
211 -82 -17 0
211 82 17 0
-212 -55 105 0
-212 55 -105 0
212 55 105 0
212 -55 -105 0
-213 180 0
-213 -205 0
213 -180 205 0
-214 206 0
-214 213 0
214 -206 -213 0
-215 140 0
-215 205 0
215 -140 -205 0
-216 210 -67 0
-216 -210 67 0
216 -210 -67 0
216 210 67 0
-217 -34 0
-217 -125 0
217 34 125 0
-218 -172 0
-218 110 0
218 172 -110 0
-219 -179 0
-219 -53 0
219 179 53 0
-220 -120 0
-220 55 0
220 120 -55 0
-221 22 0
-221 -104 0
221 -22 104 0
-222 219 0
-222 214 0
222 -219 -214 0
-223 172 0
-223 -100 0
223 -172 100 0
-224 180 6 0
-224 -180 -6 0
224 -180 6 0
224 180 -6 0
-225 -47 0
-225 209 0
225 47 -209 0
-226 63 120 0
-226 -63 -120 0
226 -63 120 0
226 63 -120 0
-227 -179 0
-227 6 0
227 179 -6 0
-228 -22 0
-228 -225 0
228 22 225 0
-229 -124 0
-229 -205 0
229 124 205 0
-230 23 0
-230 160 0
230 -23 -160 0
-231 141 172 0
-231 -141 -172 0
231 -141 172 0
231 141 -172 0
-232 80 0
-232 -114 0
232 -80 114 0
-233 196 0
-233 108 0
233 -196 -108 0
-234 112 0
-234 161 0
234 -112 -161 0
-235 211 -167 0
-235 -211 167 0
235 -211 -167 0
235 211 167 0
-236 -18 0
-236 58 0
236 18 -58 0
-237 42 0
-237 205 0
237 -42 -205 0
-238 -2 0
-238 129 0
238 2 -129 0
-239 59 0
-239 -126 0
239 -59 126 0
-240 90 159 0
-240 -90 -159 0
240 -90 159 0
240 90 -159 0
-241 130 0
-241 -205 0
241 -130 205 0
-242 211 0
-242 -11 0
242 -211 11 0
-243 -103 0
-243 113 0
243 103 -113 0
-244 44 -61 0
-244 -44 61 0
244 -44 -61 0
244 44 61 0
-245 149 -185 0
-245 -149 185 0
245 -149 -185 0
245 149 185 0
-246 -123 0
-246 -107 0
246 123 107 0
-247 83 0
-247 -163 0
247 -83 163 0
-248 71 0
-248 37 0
248 -71 -37 0
-249 183 -125 0
-249 -183 125 0
249 -183 -125 0
249 183 125 0
-250 -114 -228 0
-250 114 228 0
250 114 -228 0
250 -114 228 0
-251 -36 0
-251 66 0
251 36 -66 0
-252 -146 -109 0
-252 146 109 0
252 146 -109 0
252 -146 109 0
-253 -82 -67 0
-253 82 67 0
253 82 -67 0
253 -82 67 0
-254 101 0
-254 -23 0
254 -101 23 0
-255 233 -164 0
-255 -233 164 0
255 -233 -164 0
255 233 164 0
-256 -218 0
-256 -179 0
256 218 179 0
-257 8 0
-257 -201 0
257 -8 201 0
-258 -131 0
-258 -115 0
258 131 115 0
-259 -120 77 0
-259 120 -77 0
259 120 77 0
259 -120 -77 0
-260 246 0
-260 112 0
260 -246 -112 0
-261 -41 0
-261 -46 0
261 41 46 0
-262 100 0
-262 -167 0
262 -100 167 0
-263 -12 256 0
-263 12 -256 0
263 12 256 0
263 -12 -256 0
-264 235 0
-264 143 0
264 -235 -143 0
-265 108 0
-265 -41 0
265 -108 41 0
-266 -7 0
-266 -152 0
266 7 152 0
-267 64 0
-267 -198 0
267 -64 198 0
-268 -161 0
-268 -164 0
268 161 164 0
-269 63 -203 0
-269 -63 203 0
269 -63 -203 0
269 63 203 0
-270 -176 0
-270 -119 0
270 176 119 0
-271 -141 -233 0
-271 141 233 0
271 141 -233 0
271 -141 233 0
-272 236 -195 0
-272 -236 195 0
272 -236 -195 0
272 236 195 0
-273 -237 0
-273 70 0
273 237 -70 0
-274 236 -146 0
-274 -236 146 0
274 -236 -146 0
274 236 146 0
-275 40 0
-275 148 0
275 -40 -148 0
-276 -134 0
-276 135 0
276 134 -135 0
-277 187 0
-277 -55 0
277 -187 55 0
-278 -113 0
-278 -24 0
278 113 24 0
-279 -198 -222 0
-279 198 222 0
279 198 -222 0
279 -198 222 0
-280 170 0
-280 104 0
280 -170 -104 0
-281 -241 0
-281 -67 0
281 241 67 0
-282 -246 0
-282 22 0
282 246 -22 0
-283 -135 167 0
-283 135 -167 0
283 135 167 0
283 -135 -167 0
-284 270 0
-284 -95 0
284 -270 95 0
-285 -28 0
-285 36 0
285 28 -36 0
-286 143 0
-286 -25 0
286 -143 25 0
-287 -58 0
-287 205 0
287 58 -205 0
-288 -192 0
-288 230 0
288 192 -230 0
-289 -37 30 0
-289 37 -30 0
289 37 30 0
289 -37 -30 0
-290 285 0
-290 -194 0
290 -285 194 0
-291 -181 0
-291 46 0
291 181 -46 0
-292 -253 -91 0
-292 253 91 0
292 253 -91 0
292 -253 91 0
-293 239 0
-293 90 0
293 -239 -90 0
-294 -56 0
-294 114 0
294 56 -114 0
-295 -181 146 0
-295 181 -146 0
295 181 146 0
295 -181 -146 0
-296 4 180 0
-296 -4 -180 0
296 -4 180 0
296 4 -180 0
-297 196 0
-297 -193 0
297 -196 193 0
-298 -267 0
-298 1 0
298 267 -1 0
-299 250 39 0
-299 -250 -39 0
299 -250 39 0
299 250 -39 0
-300 144 0
-300 -128 0
300 -144 128 0
-301 273 0
-301 294 0
301 -273 -294 0
-302 -94 -214 0
-302 94 214 0
302 94 -214 0
302 -94 214 0
-303 195 99 0
-303 -195 -99 0
303 -195 99 0
303 195 -99 0
-304 65 0
-304 14 0
304 -65 -14 0
-305 142 0
-305 -223 0
305 -142 223 0
-306 -75 0
-306 285 0
306 75 -285 0
-307 -1 0
-307 221 0
307 1 -221 0
-308 -276 0
-308 172 0
308 276 -172 0
-309 -253 0
-309 266 0
309 253 -266 0
-310 133 0
-310 26 0
310 -133 -26 0
-311 -83 0
-311 -173 0
311 83 173 0
-312 193 -264 0
-312 -193 264 0
312 -193 -264 0
312 193 264 0
-313 -107 0
-313 47 0
313 107 -47 0
-314 255 0
-314 63 0
314 -255 -63 0
-315 -265 0
-315 163 0
315 265 -163 0
-316 309 148 0
-316 -309 -148 0
316 -309 148 0
316 309 -148 0
-317 -164 0
-317 -138 0
317 164 138 0
-318 -179 0
-318 -89 0
318 179 89 0
-319 58 0
-319 -89 0
319 -58 89 0
-320 63 0
-320 -286 0
320 -63 286 0
-321 -191 0
-321 -285 0
321 191 285 0
-322 -117 0
-322 257 0
322 117 -257 0
-323 162 -40 0
-323 -162 40 0
323 -162 -40 0
323 162 40 0
-324 33 0
-324 -261 0
324 -33 261 0
-325 198 -323 0
-325 -198 323 0
325 -198 -323 0
325 198 323 0
-326 16 0
-326 -247 0
326 -16 247 0
-327 283 -100 0
-327 -283 100 0
327 -283 -100 0
327 283 100 0
-328 163 0
-328 -187 0
328 -163 187 0
-329 -202 0
-329 -121 0
329 202 121 0
-330 -213 0
-330 172 0
330 213 -172 0
-331 88 0
-331 -15 0
331 -88 15 0
-332 -91 -63 0
-332 91 63 0
332 91 -63 0
332 -91 63 0
-333 156 0
-333 -218 0
333 -156 218 0
-334 -287 0
-334 257 0
334 287 -257 0
-335 165 0
-335 29 0
335 -165 -29 0
-336 -111 0
-336 139 0
336 111 -139 0
-337 -304 0
-337 164 0
337 304 -164 0
-338 -24 -130 0
-338 24 130 0
338 24 -130 0
338 -24 130 0
-339 -172 0
-339 213 0
339 172 -213 0
-340 337 0
-340 274 0
340 -337 -274 0
-341 -317 -44 0
-341 317 44 0
341 317 -44 0
341 -317 44 0
-342 -171 0
-342 19 0
342 171 -19 0
-343 -272 0
-343 223 0
343 272 -223 0
-344 156 0
-344 -323 0
344 -156 323 0
-345 -9 0
-345 277 0
345 9 -277 0
-346 -298 0
-346 236 0
346 298 -236 0
-347 109 0
-347 278 0
347 -109 -278 0
-348 -181 0
-348 340 0
348 181 -340 0
-349 -125 0
-349 -321 0
349 125 321 0
-350 -204 0
-350 168 0
350 204 -168 0
-351 -29 0
-351 -86 0
351 29 86 0
-352 -13 0
-352 279 0
352 13 -279 0
-353 316 0
-353 -226 0
353 -316 226 0
-354 -353 0
-354 -67 0
354 353 67 0
-355 -42 0
-355 350 0
355 42 -350 0
-356 -354 0
-356 304 0
356 354 -304 0
-357 64 4 0
-357 -64 -4 0
357 -64 4 0
357 64 -4 0
-358 -256 345 0
-358 256 -345 0
358 256 345 0
358 -256 -345 0
-359 231 0
-359 -282 0
359 -231 282 0
-360 -101 0
-360 -221 0
360 101 221 0
-361 -53 0
-361 352 0
361 53 -352 0
-362 338 -360 0
-362 -338 360 0
362 -338 -360 0
362 338 360 0
-363 47 0
-363 347 0
363 -47 -347 0
-364 337 0
-364 238 0
364 -337 -238 0
-365 315 -165 0
-365 -315 165 0
365 -315 -165 0
365 315 165 0
-366 35 0
-366 -110 0
366 -35 110 0
-367 -244 0
-367 -111 0
367 244 111 0
-368 -129 0
-368 -13 0
368 129 13 0
-369 -241 0
-369 -229 0
369 241 229 0
-370 64 248 0
-370 -64 -248 0
370 -64 248 0
370 64 -248 0
-371 -19 -364 0
-371 19 364 0
371 19 -364 0
371 -19 364 0
-372 195 0
-372 173 0
372 -195 -173 0
-373 -249 152 0
-373 249 -152 0
373 249 152 0
373 -249 -152 0
-374 251 0
-374 -309 0
374 -251 309 0
-375 147 0
-375 -353 0
375 -147 353 0
-376 -309 0
-376 -260 0
376 309 260 0
-377 302 0
-377 136 0
377 -302 -136 0
-378 94 0
-378 174 0
378 -94 -174 0
-379 64 0
-379 56 0
379 -64 -56 0
-380 -50 0
-380 -248 0
380 50 248 0
-381 188 0
-381 -264 0
381 -188 264 0
-382 361 118 0
-382 -361 -118 0
382 -361 118 0
382 361 -118 0
-383 304 0
-383 -215 0
383 -304 215 0
-384 -155 0
-384 -238 0
384 155 238 0
-385 41 0
-385 28 0
385 -41 -28 0
-386 -133 0
-386 -273 0
386 133 273 0
-387 325 124 0
-387 -325 -124 0
387 -325 124 0
387 325 -124 0
-388 -158 193 0
-388 158 -193 0
388 158 193 0
388 -158 -193 0
-389 252 0
-389 5 0
389 -252 -5 0
-390 167 0
-390 -291 0
390 -167 291 0
-391 266 0
-391 -317 0
391 -266 317 0
-392 149 0
-392 -168 0
392 -149 168 0
-393 37 0
-393 390 0
393 -37 -390 0
-394 -74 -311 0
-394 74 311 0
394 74 -311 0
394 -74 311 0
-395 336 -332 0
-395 -336 332 0
395 -336 -332 0
395 336 332 0
-396 141 -278 0
-396 -141 278 0
396 -141 -278 0
396 141 278 0
-397 159 -211 0
-397 -159 211 0
397 -159 -211 0
397 159 211 0
-398 211 0
-398 274 0
398 -211 -274 0
-399 -349 0
-399 -338 0
399 349 338 0
-400 -226 0
-400 201 0
400 226 -201 0
-401 49 0
-401 349 0
401 -49 -349 0
-402 -53 0
-402 -3 0
402 53 3 0
-403 68 0
-403 184 0
403 -68 -184 0
-404 310 0
-404 149 0
404 -310 -149 0
-405 247 31 0
-405 -247 -31 0
405 -247 31 0
405 247 -31 0
-406 -57 0
-406 322 0
406 57 -322 0
-407 92 0
-407 -60 0
407 -92 60 0
-408 -19 0
-408 162 0
408 19 -162 0
-409 -218 0
-409 -184 0
409 218 184 0
-410 -71 0
-410 263 0
410 71 -263 0
-411 -2 0
-411 -169 0
411 2 169 0
-412 -39 0
-412 64 0
412 39 -64 0
-413 -233 0
-413 200 0
413 233 -200 0
-414 -307 0
-414 55 0
414 307 -55 0
-415 -392 0
-415 -194 0
415 392 194 0
-416 181 152 0
-416 -181 -152 0
416 -181 152 0
416 181 -152 0
-417 -86 0
-417 -31 0
417 86 31 0
-418 -317 0
-418 271 0
418 317 -271 0
-419 278 -72 0
-419 -278 72 0
419 -278 -72 0
419 278 72 0
-420 167 0
-420 -194 0
420 -167 194 0
-421 94 0
-421 329 0
421 -94 -329 0
-422 156 0
-422 38 0
422 -156 -38 0
-423 -57 -361 0
-423 57 361 0
423 57 -361 0
423 -57 361 0
-424 293 0
-424 127 0
424 -293 -127 0
-425 25 0
-425 2 0
425 -25 -2 0
-426 223 0
-426 121 0
426 -223 -121 0
-427 -283 -270 0
-427 283 270 0
427 283 -270 0
427 -283 270 0
-428 141 0
-428 -222 0
428 -141 222 0
-429 -260 0
-429 -333 0
429 260 333 0
-430 182 0
-430 418 0
430 -182 -418 0
-431 238 0
-431 -309 0
431 -238 309 0
-432 227 0
-432 -83 0
432 -227 83 0
-433 -309 -389 0
-433 309 389 0
433 309 -389 0
433 -309 389 0
-434 386 -197 0
-434 -386 197 0
434 -386 -197 0
434 386 197 0
-435 350 0
-435 203 0
435 -350 -203 0
-436 303 0
-436 64 0
436 -303 -64 0
-437 -91 0
-437 83 0
437 91 -83 0
-438 251 0
-438 115 0
438 -251 -115 0
-439 -431 0
-439 295 0
439 431 -295 0
-440 133 0
-440 23 0
440 -133 -23 0
-441 -47 0
-441 -51 0
441 47 51 0
-442 -276 0
-442 -336 0
442 276 336 0
-443 397 -11 0
-443 -397 11 0
443 -397 -11 0
443 397 11 0
-444 309 0
-444 -420 0
444 -309 420 0
-445 -220 0
-445 285 0
445 220 -285 0
-446 326 0
-446 -315 0
446 -326 315 0
-447 -409 0
-447 72 0
447 409 -72 0
-448 132 0
-448 195 0
448 -132 -195 0
-449 -355 0
-449 435 0
449 355 -435 0
-450 -203 0
-450 -391 0
450 203 391 0
-451 335 0
-451 215 0
451 -335 -215 0
-452 -298 0
-452 60 0
452 298 -60 0
-453 -92 0
-453 217 0
453 92 -217 0
-454 -160 0
-454 301 0
454 160 -301 0
-455 -29 0
-455 370 0
455 29 -370 0
-456 37 0
-456 -309 0
456 -37 309 0
-457 249 0
-457 -35 0
457 -249 35 0
-458 -210 0
-458 -148 0
458 210 148 0
-459 -368 0
-459 -447 0
459 368 447 0
-460 417 0
-460 -102 0
460 -417 102 0
-461 142 0
-461 -330 0
461 -142 330 0
-462 444 0
-462 -84 0
462 -444 84 0
-463 160 0
-463 423 0
463 -160 -423 0
-464 57 312 0
-464 -57 -312 0
464 -57 312 0
464 57 -312 0
-465 322 0
-465 437 0
465 -322 -437 0
-466 275 0
-466 -395 0
466 -275 395 0
-467 -202 0
-467 455 0
467 202 -455 0
-468 -52 0
-468 188 0
468 52 -188 0
-469 388 0
-469 -67 0
469 -388 67 0
-470 19 0
-470 448 0
470 -19 -448 0
-471 -396 -159 0
-471 396 159 0
471 396 -159 0
471 -396 159 0
-472 434 0
-472 -288 0
472 -434 288 0
-473 -326 0
-473 174 0
473 326 -174 0
-474 -299 0
-474 9 0
474 299 -9 0
-475 -411 0
-475 -363 0
475 411 363 0
-476 -401 0
-476 199 0
476 401 -199 0
-477 -123 0
-477 469 0
477 123 -469 0
-478 -205 0
-478 318 0
478 205 -318 0
-479 45 251 0
-479 -45 -251 0
479 -45 251 0
479 45 -251 0
-480 -148 0
-480 188 0
480 148 -188 0
-481 249 -36 0
-481 -249 36 0
481 -249 -36 0
481 249 36 0
-482 -105 0
-482 -270 0
482 105 270 0
-483 -398 0
-483 -349 0
483 398 349 0
-484 -379 0
-484 143 0
484 379 -143 0
-485 -277 0
-485 -56 0
485 277 56 0
-486 389 474 0
-486 -389 -474 0
486 -389 474 0
486 389 -474 0
-487 254 0
-487 -359 0
487 -254 359 0
-488 -305 -72 0
-488 305 72 0
488 305 -72 0
488 -305 72 0
-489 223 -141 0
-489 -223 141 0
489 -223 -141 0
489 223 141 0
-490 -313 0
-490 -339 0
490 313 339 0
-491 79 0
-491 -111 0
491 -79 111 0
-492 -488 0
-492 387 0
492 488 -387 0
-493 -226 0
-493 331 0
493 226 -331 0
-494 -356 0
-494 -365 0
494 356 365 0
-495 -187 0
-495 308 0
495 187 -308 0
-496 281 0
-496 -479 0
496 -281 479 0
-497 196 0
-497 409 0
497 -196 -409 0
-498 -96 0
-498 -131 0
498 96 131 0
-499 98 -229 0
-499 -98 229 0
499 -98 -229 0
499 98 229 0
-500 -488 0
-500 -322 0
500 488 322 0
-501 309 0
-501 -73 0
501 -309 73 0
-502 55 -434 0
-502 -55 434 0
502 -55 -434 0
502 55 434 0
-503 -120 0
-503 466 0
503 120 -466 0
-504 -172 0
-504 -67 0
504 172 67 0
-505 -482 0
-505 30 0
505 482 -30 0
-506 23 0
-506 -208 0
506 -23 208 0
-507 96 0
-507 95 0
507 -96 -95 0
-508 -293 0
-508 276 0
508 293 -276 0
-509 -14 146 0
-509 14 -146 0
509 14 146 0
509 -14 -146 0
-510 -467 0
-510 -325 0
510 467 325 0
-511 305 0
-511 272 0
511 -305 -272 0
-512 187 0
-512 34 0
512 -187 -34 0
-513 39 0
-513 467 0
513 -39 -467 0
-514 251 0
-514 198 0
514 -251 -198 0
-515 474 0
-515 -44 0
515 -474 44 0
-516 357 0
-516 463 0
516 -357 -463 0
-517 485 0
-517 -316 0
517 -485 316 0
-518 258 315 0
-518 -258 -315 0
518 -258 315 0
518 258 -315 0
-519 -101 0
-519 185 0
519 101 -185 0
-520 -150 0
-520 -164 0
520 150 164 0
-521 -304 449 0
-521 304 -449 0
521 304 449 0
521 -304 -449 0
-522 420 0
-522 222 0
522 -420 -222 0
-523 460 0
-523 424 0
523 -460 -424 0
-524 -272 440 0
-524 272 -440 0
524 272 440 0
524 -272 -440 0
-525 449 0
-525 -520 0
525 -449 520 0
-526 -470 0
-526 440 0
526 470 -440 0
-527 297 0
-527 119 0
527 -297 -119 0
-528 238 0
-528 -286 0
528 -238 286 0
-529 -157 0
-529 -226 0
529 157 226 0
-530 306 0
-530 -230 0
530 -306 230 0
-531 -6 277 0
-531 6 -277 0
531 6 277 0
531 -6 -277 0
-532 -96 0
-532 -115 0
532 96 115 0
-533 115 0
-533 256 0
533 -115 -256 0
-534 233 331 0
-534 -233 -331 0
534 -233 331 0
534 233 -331 0
-535 -449 0
-535 226 0
535 449 -226 0
-536 241 0
-536 -154 0
536 -241 154 0
-537 -234 312 0
-537 234 -312 0
537 234 312 0
537 -234 -312 0
-538 -496 534 0
-538 496 -534 0
538 496 534 0
538 -496 -534 0
-539 -317 391 0
-539 317 -391 0
539 317 391 0
539 -317 -391 0
-540 89 0
-540 -375 0
540 -89 375 0
-541 -28 0
-541 503 0
541 28 -503 0
-542 501 0
-542 -50 0
542 -501 50 0
-543 315 0
-543 -4 0
543 -315 4 0
-544 -24 0
-544 -479 0
544 24 479 0
-545 -357 0
-545 307 0
545 357 -307 0
-546 134 0
-546 -530 0
546 -134 530 0
-547 252 0
-547 179 0
547 -252 -179 0
-548 225 0
-548 -297 0
548 -225 297 0
-549 507 -298 0
-549 -507 298 0
549 -507 -298 0
549 507 298 0
-550 125 0
-550 -371 0
550 -125 371 0
-551 534 480 0
-551 -534 -480 0
551 -534 480 0
551 534 -480 0
-552 -209 0
-552 -253 0
552 209 253 0
-553 320 0
-553 -39 0
553 -320 39 0
-554 -414 0
-554 526 0
554 414 -526 0
-555 -433 0
-555 480 0
555 433 -480 0
-556 -376 -154 0
-556 376 154 0
556 376 -154 0
556 -376 154 0
-557 325 163 0
-557 -325 -163 0
557 -325 163 0
557 325 -163 0
-558 113 0
-558 -33 0
558 -113 33 0
-559 -118 0
-559 -278 0
559 118 278 0
-560 -217 0
-560 80 0
560 217 -80 0
-561 388 0
-561 -94 0
561 -388 94 0
-562 112 0
-562 137 0
562 -112 -137 0
-563 90 0
-563 -122 0
563 -90 122 0
-564 141 527 0
-564 -141 -527 0
564 -141 527 0
564 141 -527 0
-565 198 0
-565 511 0
565 -198 -511 0
-566 -72 0
-566 -89 0
566 72 89 0
-567 451 0
-567 -144 0
567 -451 144 0
-568 -351 385 0
-568 351 -385 0
568 351 385 0
568 -351 -385 0
-569 -100 520 0
-569 100 -520 0
569 100 520 0
569 -100 -520 0
-570 -426 542 0
-570 426 -542 0
570 426 542 0
570 -426 -542 0
-571 106 0
-571 -367 0
571 -106 367 0
-572 556 0
-572 241 0
572 -556 -241 0
-573 17 0
-573 -419 0
573 -17 419 0
-574 86 0
-574 572 0
574 -86 -572 0
-575 332 0
-575 -426 0
575 -332 426 0
-576 -249 0
-576 362 0
576 249 -362 0
-577 22 0
-577 399 0
577 -22 -399 0
-578 495 0
-578 -394 0
578 -495 394 0
-579 -506 0
-579 235 0
579 506 -235 0
-580 547 0
-580 344 0
580 -547 -344 0
-581 -47 0
-581 154 0
581 47 -154 0
-582 287 391 0
-582 -287 -391 0
582 -287 391 0
582 287 -391 0
-583 475 0
-583 450 0
583 -475 -450 0
-584 -67 0
-584 240 0
584 67 -240 0
-585 -389 0
-585 -6 0
585 389 6 0
-586 -334 0
-586 -404 0
586 334 404 0
-587 514 0
-587 437 0
587 -514 -437 0
-588 440 0
-588 -105 0
588 -440 105 0
-589 118 0
-589 41 0
589 -118 -41 0
-590 -444 0
-590 181 0
590 444 -181 0
-591 219 0
-591 -323 0
591 -219 323 0
-592 -227 0
-592 225 0
592 227 -225 0
-593 -151 0
-593 484 0
593 151 -484 0
-594 -108 411 0
-594 108 -411 0
594 108 411 0
594 -108 -411 0
-595 537 -457 0
-595 -537 457 0
595 -537 -457 0
595 537 457 0
-596 165 0
-596 -11 0
596 -165 11 0
-597 93 0
-597 158 0
597 -93 -158 0
-598 -156 -513 0
-598 156 513 0
598 156 -513 0
598 -156 513 0
-599 282 -190 0
-599 -282 190 0
599 -282 -190 0
599 282 190 0
-600 595 0
-600 254 0
600 -595 -254 0
-601 289 0
-601 -69 0
601 -289 69 0
-602 457 0
-602 -374 0
602 -457 374 0
-603 70 0
-603 -552 0
603 -70 552 0
-604 337 0
-604 -147 0
604 -337 147 0
-605 -195 0
-605 -22 0
605 195 22 0
-606 -411 0
-606 -548 0
606 411 548 0
-607 478 0
-607 468 0
607 -478 -468 0
-608 -229 -145 0
-608 229 145 0
608 229 -145 0
608 -229 145 0
-609 203 0
-609 132 0
609 -203 -132 0
-610 -541 0
-610 -229 0
610 541 229 0
-611 -121 0
-611 -499 0
611 121 499 0
-612 485 0
-612 413 0
612 -485 -413 0
-613 583 0
-613 572 0
613 -583 -572 0
-614 323 0
-614 237 0
614 -323 -237 0
-615 488 0
-615 -485 0
615 -488 485 0
-616 -352 452 0
-616 352 -452 0
616 352 452 0
616 -352 -452 0
-617 -473 0
-617 514 0
617 473 -514 0
-618 -405 0
-618 208 0
618 405 -208 0
-619 273 0
-619 -400 0
619 -273 400 0
-620 -127 0
-620 -431 0
620 127 431 0
-621 192 -514 0
-621 -192 514 0
621 -192 -514 0
621 192 514 0
-622 496 0
-622 -338 0
622 -496 338 0
-623 -112 0
-623 428 0
623 112 -428 0
-624 -431 0
-624 -140 0
624 431 140 0
-625 -279 0
-625 -555 0
625 279 555 0
-626 -62 0
-626 -367 0
626 62 367 0
-627 -64 0
-627 596 0
627 64 -596 0
-628 445 0
-628 -250 0
628 -445 250 0
-629 -5 0
-629 -553 0
629 5 553 0
-630 -263 0
-630 -414 0
630 263 414 0
-631 273 0
-631 -434 0
631 -273 434 0
-632 474 0
-632 288 0
632 -474 -288 0
-633 -332 0
-633 3 0
633 332 -3 0
-634 -31 0
-634 236 0
634 31 -236 0
-635 -243 0
-635 582 0
635 243 -582 0
-636 621 0
-636 -469 0
636 -621 469 0
-637 515 0
-637 407 0
637 -515 -407 0
-638 258 -41 0
-638 -258 41 0
638 -258 -41 0
638 258 41 0
-639 562 0
-639 202 0
639 -562 -202 0
-640 623 -501 0
-640 -623 501 0
640 -623 -501 0
640 623 501 0
-641 -630 0
-641 68 0
641 630 -68 0
-642 -183 0
-642 306 0
642 183 -306 0
-643 617 0
-643 568 0
643 -617 -568 0
-644 -20 0
-644 -296 0
644 20 296 0
-645 -98 0
-645 -316 0
645 98 316 0
-646 160 466 0
-646 -160 -466 0
646 -160 466 0
646 160 -466 0
-647 264 0
-647 185 0
647 -264 -185 0
-648 -9 -25 0
-648 9 25 0
648 9 -25 0
648 -9 25 0
-649 508 0
-649 266 0
649 -508 -266 0
-650 -428 433 0
-650 428 -433 0
650 428 433 0
650 -428 -433 0
-651 30 0
-651 -422 0
651 -30 422 0
-652 301 0
-652 595 0
652 -301 -595 0
-653 -548 0
-653 285 0
653 548 -285 0
-654 -326 0
-654 -476 0
654 326 476 0
-655 -347 0
-655 -435 0
655 347 435 0
-656 -52 0
-656 -60 0
656 52 60 0
-657 19 0
-657 -193 0
657 -19 193 0
-658 -177 0
-658 -585 0
658 177 585 0
-659 42 0
-659 -261 0
659 -42 261 0
-660 248 -3 0
-660 -248 3 0
660 -248 -3 0
660 248 3 0
-661 -218 0
-661 290 0
661 218 -290 0
-662 -419 0
-662 -442 0
662 419 442 0
-663 -478 0
-663 539 0
663 478 -539 0
-664 -273 0
-664 -55 0
664 273 55 0
-665 -459 0
-665 -282 0
665 459 282 0
-666 482 0
-666 256 0
666 -482 -256 0
-667 -356 0
-667 -559 0
667 356 559 0
-668 99 0
-668 -7 0
668 -99 7 0
-669 -60 0
-669 -77 0
669 60 77 0
-670 55 0
-670 -410 0
670 -55 410 0
-671 636 0
-671 281 0
671 -636 -281 0
-672 -484 -218 0
-672 484 218 0
672 484 -218 0
672 -484 218 0
-673 -574 0
-673 52 0
673 574 -52 0
-674 -541 0
-674 595 0
674 541 -595 0
-675 -336 0
-675 -80 0
675 336 80 0
-676 110 -580 0
-676 -110 580 0
676 -110 -580 0
676 110 580 0
-677 -212 0
-677 317 0
677 212 -317 0
-678 567 0
-678 -310 0
678 -567 310 0
-679 79 0
-679 -159 0
679 -79 159 0
-680 -240 0
-680 556 0
680 240 -556 0
-681 -634 524 0
-681 634 -524 0
681 634 524 0
681 -634 -524 0
-682 -413 0
-682 169 0
682 413 -169 0
-683 341 -113 0
-683 -341 113 0
683 -341 -113 0
683 341 113 0
-684 80 -193 0
-684 -80 193 0
684 -80 -193 0
684 80 193 0
-685 510 0
-685 -456 0
685 -510 456 0
-686 -508 -122 0
-686 508 122 0
686 508 -122 0
686 -508 122 0
-687 -107 0
-687 -20 0
687 107 20 0
-688 293 0
-688 424 0
688 -293 -424 0
-689 205 0
-689 -218 0
689 -205 218 0
-690 219 606 0
-690 -219 -606 0
690 -219 606 0
690 219 -606 0
-691 -226 0
-691 -468 0
691 226 468 0
-692 -422 0
-692 679 0
692 422 -679 0
-693 7 0
-693 -224 0
693 -7 224 0
-694 567 0
-694 -483 0
694 -567 483 0
-695 -42 -681 0
-695 42 681 0
695 42 -681 0
695 -42 681 0
-696 125 0
-696 -384 0
696 -125 384 0
-697 -354 0
-697 -379 0
697 354 379 0
-698 -421 0
-698 114 0
698 421 -114 0
-699 -221 0
-699 -36 0
699 221 36 0
-700 -156 0
-700 117 0
700 156 -117 0
-701 -59 0
-701 24 0
701 59 -24 0
-702 471 0
-702 407 0
702 -471 -407 0
-703 -402 -526 0
-703 402 526 0
703 402 -526 0
703 -402 526 0
-704 637 -599 0
-704 -637 599 0
704 -637 -599 0
704 637 599 0
-705 -462 98 0
-705 462 -98 0
705 462 98 0
705 -462 -98 0
-706 -241 -26 0
-706 241 26 0
706 241 -26 0
706 -241 26 0
-707 -14 0
-707 -418 0
707 14 418 0
-708 612 -82 0
-708 -612 82 0
708 -612 -82 0
708 612 82 0
-709 568 0
-709 -183 0
709 -568 183 0
-710 114 0
-710 -623 0
710 -114 623 0
-711 100 -221 0
-711 -100 221 0
711 -100 -221 0
711 100 221 0
-712 452 0
-712 181 0
712 -452 -181 0
-713 -339 0
-713 -460 0
713 339 460 0
-714 -222 217 0
-714 222 -217 0
714 222 217 0
714 -222 -217 0
-715 -71 0
-715 693 0
715 71 -693 0
-716 293 0
-716 -379 0
716 -293 379 0
-717 468 0
-717 292 0
717 -468 -292 0
-718 178 0
-718 298 0
718 -178 -298 0
-719 377 0
-719 12 0
719 -377 -12 0
-720 292 0
-720 -452 0
720 -292 452 0
-721 -178 -317 0
-721 178 317 0
721 178 -317 0
721 -178 317 0
-722 -396 89 0
-722 396 -89 0
722 396 89 0
722 -396 -89 0
-723 55 -290 0
-723 -55 290 0
723 -55 -290 0
723 55 290 0
-724 693 0
-724 640 0
724 -693 -640 0
-725 720 0
-725 -238 0
725 -720 238 0
-726 661 0
-726 597 0
726 -661 -597 0
-727 -519 58 0
-727 519 -58 0
727 519 58 0
727 -519 -58 0
-728 94 0
-728 -175 0
728 -94 175 0
-729 698 0
-729 -451 0
729 -698 451 0
-730 510 0
-730 -378 0
730 -510 378 0
-731 669 526 0
-731 -669 -526 0
731 -669 526 0
731 669 -526 0
-732 -385 0
-732 -713 0
732 385 713 0
-733 -671 0
-733 -466 0
733 671 466 0
-734 63 0
-734 431 0
734 -63 -431 0
-735 499 0
-735 672 0
735 -499 -672 0
-736 125 0
-736 500 0
736 -125 -500 0
-737 -359 0
-737 628 0
737 359 -628 0
-738 -669 0
-738 53 0
738 669 -53 0
-739 -42 0
-739 -593 0
739 42 593 0
-740 -197 0
-740 118 0
740 197 -118 0
-741 -711 0
-741 621 0
741 711 -621 0
-742 -79 0
-742 -624 0
742 79 624 0
-743 491 0
-743 134 0
743 -491 -134 0
-744 502 0
-744 -708 0
744 -502 708 0
-745 -292 -595 0
-745 292 595 0
745 292 -595 0
745 -292 595 0
-746 581 0
-746 213 0
746 -581 -213 0
-747 639 636 0
-747 -639 -636 0
747 -639 636 0
747 639 -636 0
-748 -567 -611 0
-748 567 611 0
748 567 -611 0
748 -567 611 0
-749 286 0
-749 -726 0
749 -286 726 0
-750 127 0
-750 -636 0
750 -127 636 0
-751 665 -165 0
-751 -665 165 0
751 -665 -165 0
751 665 165 0
-752 25 0
-752 556 0
752 -25 -556 0
-753 196 400 0
-753 -196 -400 0
753 -196 400 0
753 196 -400 0
-754 -126 33 0
-754 126 -33 0
754 126 33 0
754 -126 -33 0
-755 -163 0
-755 -255 0
755 163 255 0
-756 -705 0
-756 -103 0
756 705 103 0
-757 -432 0
-757 -184 0
757 432 184 0
-758 682 0
-758 249 0
758 -682 -249 0
-759 -742 -335 0
-759 742 335 0
759 742 -335 0
759 -742 335 0
-760 68 0
-760 -384 0
760 -68 384 0
-761 -465 0
-761 -600 0
761 465 600 0
-762 -427 625 0
-762 427 -625 0
762 427 625 0
762 -427 -625 0
-763 -296 234 0
-763 296 -234 0
763 296 234 0
763 -296 -234 0
-764 444 -373 0
-764 -444 373 0
764 -444 -373 0
764 444 373 0
-765 -103 0
-765 -500 0
765 103 500 0
-766 204 0
-766 279 0
766 -204 -279 0
-767 -142 0
-767 -580 0
767 142 580 0
-768 510 0
-768 24 0
768 -510 -24 0
-769 485 0
-769 -560 0
769 -485 560 0
-770 -730 0
-770 162 0
770 730 -162 0
-771 -565 -240 0
-771 565 240 0
771 565 -240 0
771 -565 240 0
-772 489 0
-772 -752 0
772 -489 752 0
-773 244 0
-773 -168 0
773 -244 168 0
-774 629 0
-774 374 0
774 -629 -374 0
-775 510 0
-775 -373 0
775 -510 373 0
-776 -236 0
-776 46 0
776 236 -46 0
-777 -743 0
-777 -468 0
777 743 468 0
-778 -302 0
-778 684 0
778 302 -684 0
-779 634 0
-779 349 0
779 -634 -349 0
-780 -700 0
-780 166 0
780 700 -166 0
-781 -779 374 0
-781 779 -374 0
781 779 374 0
781 -779 -374 0
-782 -259 0
-782 -670 0
782 259 670 0
-783 367 -181 0
-783 -367 181 0
783 -367 -181 0
783 367 181 0
-784 326 0
-784 -73 0
784 -326 73 0
-785 12 0
-785 -656 0
785 -12 656 0
-786 -72 479 0
-786 72 -479 0
786 72 479 0
786 -72 -479 0
-787 751 0
-787 -478 0
787 -751 478 0
-788 -391 0
-788 -526 0
788 391 526 0
-789 213 542 0
-789 -213 -542 0
789 -213 542 0
789 213 -542 0
-790 115 0
-790 -734 0
790 -115 734 0
-791 297 0
-791 -109 0
791 -297 109 0
-792 -201 0
-792 284 0
792 201 -284 0
-793 -314 0
-793 -7 0
793 314 7 0
-794 393 0
-794 750 0
794 -393 -750 0
-795 541 0
-795 -468 0
795 -541 468 0
-796 542 0
-796 778 0
796 -542 -778 0
-797 -5 0
-797 639 0
797 5 -639 0
-798 -366 0
-798 765 0
798 366 -765 0
-799 537 0
-799 -85 0
799 -537 85 0
-800 -178 0
-800 -436 0
800 178 436 0
-801 351 186 0
-801 -351 -186 0
801 -351 186 0
801 351 -186 0
-802 -599 0
-802 -679 0
802 599 679 0
-803 -657 0
-803 -113 0
803 657 113 0
-804 435 0
-804 104 0
804 -435 -104 0
-805 381 0
-805 -331 0
805 -381 331 0
-806 -457 0
-806 -190 0
806 457 190 0
-807 -562 0
-807 332 0
807 562 -332 0
-808 710 0
-808 -270 0
808 -710 270 0
-809 -784 0
-809 570 0
809 784 -570 0
-810 427 605 0
-810 -427 -605 0
810 -427 605 0
810 427 -605 0
-811 -14 0
-811 -607 0
811 14 607 0
-812 285 0
-812 -16 0
812 -285 16 0
-813 741 -800 0
-813 -741 800 0
813 -741 -800 0
813 741 800 0
-814 593 0
-814 459 0
814 -593 -459 0
-815 434 0
-815 -337 0
815 -434 337 0
-816 620 0
-816 628 0
816 -620 -628 0
-817 265 0
-817 -334 0
817 -265 334 0
-818 -394 0
-818 715 0
818 394 -715 0
-819 -253 0
-819 -394 0
819 253 394 0
-820 -346 0
-820 -330 0
820 346 330 0
-821 -47 770 0
-821 47 -770 0
821 47 770 0
821 -47 -770 0
-822 176 0
-822 394 0
822 -176 -394 0
-823 690 0
-823 -608 0
823 -690 608 0
-824 -72 81 0
-824 72 -81 0
824 72 81 0
824 -72 -81 0
-825 -155 662 0
-825 155 -662 0
825 155 662 0
825 -155 -662 0
-826 -85 0
-826 369 0
826 85 -369 0
-827 -103 0
-827 99 0
827 103 -99 0
-828 -542 0
-828 280 0
828 542 -280 0
-829 305 0
-829 731 0
829 -305 -731 0
-830 316 0
-830 -534 0
830 -316 534 0
-831 -365 0
-831 -131 0
831 365 131 0
-832 -638 0
-832 554 0
832 638 -554 0
-833 121 0
-833 -361 0
833 -121 361 0
-834 -59 -114 0
-834 59 114 0
834 59 -114 0
834 -59 114 0
-835 -216 0
-835 -788 0
835 216 788 0
-836 -662 642 0
-836 662 -642 0
836 662 642 0
836 -662 -642 0
-837 611 0
-837 190 0
837 -611 -190 0
-838 685 -615 0
-838 -685 615 0
838 -685 -615 0
838 685 615 0
-839 -240 -176 0
-839 240 176 0
839 240 -176 0
839 -240 176 0
-840 -699 0
-840 462 0
840 699 -462 0
-841 -539 197 0
-841 539 -197 0
841 539 197 0
841 -539 -197 0
-842 686 0
-842 399 0
842 -686 -399 0
-843 -358 -230 0
-843 358 230 0
843 358 -230 0
843 -358 230 0
-844 485 0
-844 657 0
844 -485 -657 0
-845 -726 0
-845 120 0
845 726 -120 0
-846 -703 0
-846 692 0
846 703 -692 0
-847 22 0
-847 183 0
847 -22 -183 0
-848 -778 0
-848 -359 0
848 778 359 0
-849 479 722 0
-849 -479 -722 0
849 -479 722 0
849 479 -722 0
-850 -421 0
-850 268 0
850 421 -268 0
-851 204 0
-851 -509 0
851 -204 509 0
-852 -302 0
-852 595 0
852 302 -595 0
-853 142 210 0
-853 -142 -210 0
853 -142 210 0
853 142 -210 0
-854 -8 0
-854 539 0
854 8 -539 0
-855 -387 0
-855 -315 0
855 387 315 0
-856 -400 0
-856 -450 0
856 400 450 0
-857 334 0
-857 -422 0
857 -334 422 0
-858 776 0
-858 -459 0
858 -776 459 0
-859 360 0
-859 -488 0
859 -360 488 0
-860 -429 823 0
-860 429 -823 0
860 429 823 0
860 -429 -823 0
-861 640 628 0
-861 -640 -628 0
861 -640 628 0
861 640 -628 0
-862 471 0
-862 363 0
862 -471 -363 0
-863 -176 0
-863 -69 0
863 176 69 0
-864 644 242 0
-864 -644 -242 0
864 -644 242 0
864 644 -242 0
-865 -765 0
-865 -396 0
865 765 396 0
-866 -771 0
-866 -389 0
866 771 389 0
-867 -237 0
-867 -848 0
867 237 848 0
-868 858 0
-868 384 0
868 -858 -384 0
-869 571 0
-869 805 0
869 -571 -805 0
-870 -447 -238 0
-870 447 238 0
870 447 -238 0
870 -447 238 0
-871 854 0
-871 74 0
871 -854 -74 0
-872 -867 0
-872 -164 0
872 867 164 0
-873 -758 0
-873 866 0
873 758 -866 0
-874 798 0
-874 615 0
874 -798 -615 0
-875 299 0
-875 -195 0
875 -299 195 0
-876 -515 -624 0
-876 515 624 0
876 515 -624 0
876 -515 624 0
-877 -854 403 0
-877 854 -403 0
877 854 403 0
877 -854 -403 0
-878 -815 0
-878 -811 0
878 815 811 0
-879 -77 102 0
-879 77 -102 0
879 77 102 0
879 -77 -102 0
-880 -446 -338 0
-880 446 338 0
880 446 -338 0
880 -446 338 0
-881 184 0
-881 117 0
881 -184 -117 0
-882 -349 0
-882 719 0
882 349 -719 0
-883 -570 0
-883 633 0
883 570 -633 0
-884 -386 0
-884 -855 0
884 386 855 0
-885 -237 0
-885 -228 0
885 237 228 0
-886 475 0
-886 -75 0
886 -475 75 0
-887 -120 -371 0
-887 120 371 0
887 120 -371 0
887 -120 371 0
-888 -1 0
-888 -63 0
888 1 63 0
-889 -312 0
-889 -287 0
889 312 287 0
-890 -682 0
-890 -72 0
890 682 72 0
-891 -430 770 0
-891 430 -770 0
891 430 770 0
891 -430 -770 0
-892 -387 0
-892 -256 0
892 387 256 0
-893 -632 0
-893 -113 0
893 632 113 0
-894 847 0
-894 851 0
894 -847 -851 0
-895 -421 -139 0
-895 421 139 0
895 421 -139 0
895 -421 139 0
-896 305 -49 0
-896 -305 49 0
896 -305 -49 0
896 305 49 0
-897 281 283 0
-897 -281 -283 0
897 -281 283 0
897 281 -283 0
-898 523 0
-898 -569 0
898 -523 569 0
-899 34 275 0
-899 -34 -275 0
899 -34 275 0
899 34 -275 0
-900 271 0
-900 651 0
900 -271 -651 0
-901 746 432 0
-901 -746 -432 0
901 -746 432 0
901 746 -432 0
-902 21 0
-902 22 0
902 -21 -22 0
-903 -261 0
-903 -247 0
903 261 247 0
-904 137 0
-904 587 0
904 -137 -587 0
-905 -585 0
-905 406 0
905 585 -406 0
-906 766 0
-906 -72 0
906 -766 72 0
-907 -64 0
-907 780 0
907 64 -780 0
-908 -324 0
-908 625 0
908 324 -625 0
-909 -114 0
-909 -28 0
909 114 28 0
-910 -604 0
-910 -316 0
910 604 316 0
-911 246 0
-911 -317 0
911 -246 317 0
-912 220 0
-912 251 0
912 -220 -251 0
-913 -848 0
-913 -135 0
913 848 135 0
-914 517 0
-914 883 0
914 -517 -883 0
-915 -354 0
-915 -465 0
915 354 465 0
-916 903 0
-916 -116 0
916 -903 116 0
-917 280 103 0
-917 -280 -103 0
917 -280 103 0
917 280 -103 0
-918 -71 -888 0
-918 71 888 0
918 71 -888 0
918 -71 888 0
-919 630 0
-919 567 0
919 -630 -567 0
-920 370 -470 0
-920 -370 470 0
920 -370 -470 0
920 370 470 0
-921 854 0
-921 282 0
921 -854 -282 0
-922 682 0
-922 615 0
922 -682 -615 0
-923 -164 0
-923 -266 0
923 164 266 0
-924 467 471 0
-924 -467 -471 0
924 -467 471 0
924 467 -471 0
-925 -648 736 0
-925 648 -736 0
925 648 736 0
925 -648 -736 0
-926 -711 0
-926 -539 0
926 711 539 0
-927 542 0
-927 -189 0
927 -542 189 0
-928 -697 898 0
-928 697 -898 0
928 697 898 0
928 -697 -898 0
-929 720 0
-929 175 0
929 -720 -175 0
-930 188 0
-930 -705 0
930 -188 705 0
-931 184 0
-931 -698 0
931 -184 698 0
-932 569 0
-932 -615 0
932 -569 615 0
-933 -928 0
-933 119 0
933 928 -119 0
-934 -196 0
-934 717 0
934 196 -717 0
-935 136 0
-935 123 0
935 -136 -123 0
-936 359 0
-936 -273 0
936 -359 273 0
-937 -910 0
-937 -94 0
937 910 94 0
-938 621 -909 0
-938 -621 909 0
938 -621 -909 0
938 621 909 0
-939 -267 0
-939 -254 0
939 267 254 0
-940 -525 0
-940 494 0
940 525 -494 0
-941 663 0
-941 777 0
941 -663 -777 0
-942 -616 0
-942 -407 0
942 616 407 0
-943 220 0
-943 802 0
943 -220 -802 0
-944 820 -545 0
-944 -820 545 0
944 -820 -545 0
944 820 545 0
-945 383 0
-945 642 0
945 -383 -642 0
-946 26 0
-946 -678 0
946 -26 678 0
-947 -946 0
-947 469 0
947 946 -469 0
-948 772 0
-948 -49 0
948 -772 49 0
-949 -420 0
-949 -743 0
949 420 743 0
-950 403 0
-950 -102 0
950 -403 102 0
-951 -127 0
-951 -895 0
951 127 895 0
-952 -87 0
-952 -465 0
952 87 465 0
-953 -952 372 0
-953 952 -372 0
953 952 372 0
953 -952 -372 0
-954 374 0
-954 -665 0
954 -374 665 0
-955 -263 -704 0
-955 263 704 0
955 263 -704 0
955 -263 704 0
-956 -78 312 0
-956 78 -312 0
956 78 312 0
956 -78 -312 0
-957 -263 0
-957 -176 0
957 263 176 0
-958 -351 0
-958 83 0
958 351 -83 0
-959 153 0
-959 -237 0
959 -153 237 0
-960 586 0
-960 540 0
960 -586 -540 0
-961 850 0
-961 -588 0
961 -850 588 0
-962 67 0
-962 -329 0
962 -67 329 0
-963 367 0
-963 867 0
963 -367 -867 0
-964 593 0
-964 451 0
964 -593 -451 0
-965 834 0
-965 630 0
965 -834 -630 0
-966 694 0
-966 242 0
966 -694 -242 0
-967 -588 -17 0
-967 588 17 0
967 588 -17 0
967 -588 17 0
-968 -404 -576 0
-968 404 576 0
968 404 -576 0
968 -404 576 0
-969 -856 0
-969 -18 0
969 856 18 0
-970 305 0
-970 744 0
970 -305 -744 0
-971 833 0
-971 -401 0
971 -833 401 0
-972 -266 11 0
-972 266 -11 0
972 266 11 0
972 -266 -11 0
-973 842 0
-973 -219 0
973 -842 219 0
-974 204 -216 0
-974 -204 216 0
974 -204 -216 0
974 204 216 0
-975 743 0
-975 30 0
975 -743 -30 0
-976 -590 0
-976 -294 0
976 590 294 0
-977 731 0
-977 815 0
977 -731 -815 0
-978 -690 0
-978 605 0
978 690 -605 0
-979 217 0
-979 229 0
979 -217 -229 0
-980 -588 0
-980 -548 0
980 588 548 0
-981 -616 -234 0
-981 616 234 0
981 616 -234 0
981 -616 234 0
-982 -945 0
-982 218 0
982 945 -218 0
-983 730 -433 0
-983 -730 433 0
983 -730 -433 0
983 730 433 0
-984 -436 0
-984 470 0
984 436 -470 0
-985 468 0
-985 428 0
985 -468 -428 0
-986 -661 0
-986 715 0
986 661 -715 0
-987 8 0
-987 190 0
987 -8 -190 0
-988 771 0
-988 910 0
988 -771 -910 0
-989 -702 0
-989 -418 0
989 702 418 0
-990 -709 -305 0
-990 709 305 0
990 709 -305 0
990 -709 305 0
-991 404 832 0
-991 -404 -832 0
991 -404 832 0
991 404 -832 0
-992 751 744 0
-992 -751 -744 0
992 -751 744 0
992 751 -744 0
-993 110 0
-993 50 0
993 -110 -50 0
-994 717 0
-994 344 0
994 -717 -344 0
-995 945 -660 0
-995 -945 660 0
995 -945 -660 0
995 945 660 0
-996 314 0
-996 -590 0
996 -314 590 0
-997 225 0
-997 732 0
997 -225 -732 0
-998 871 841 0
-998 -871 -841 0
998 -871 841 0
998 871 -841 0
-999 -92 0
-999 519 0
999 92 -519 0
-1000 596 0
-1000 547 0
1000 -596 -547 0
-1001 -341 0
-1001 910 0
1001 341 -910 0
-1002 481 0
-1002 310 0
1002 -481 -310 0
-1003 -729 0
-1003 -376 0
1003 729 376 0
-1004 320 0
-1004 630 0
1004 -320 -630 0
-1005 456 0
-1005 833 0
1005 -456 -833 0
-1006 -832 0
-1006 -78 0
1006 832 78 0
-1007 794 0
-1007 217 0
1007 -794 -217 0
-1008 54 0
-1008 202 0
1008 -54 -202 0
-1009 -204 0
-1009 -561 0
1009 204 561 0
-1010 -576 -633 0
-1010 576 633 0
1010 576 -633 0
1010 -576 633 0
-1011 262 0
-1011 -48 0
1011 -262 48 0
-1012 6 0
-1012 -452 0
1012 -6 452 0
-1013 447 0
-1013 -1005 0
1013 -447 1005 0
-1014 -640 0
-1014 619 0
1014 640 -619 0
-1015 750 0
-1015 488 0
1015 -750 -488 0
-1016 -178 528 0
-1016 178 -528 0
1016 178 528 0
1016 -178 -528 0
-1017 -618 0
-1017 -661 0
1017 618 661 0
-1018 -276 451 0
-1018 276 -451 0
1018 276 451 0
1018 -276 -451 0
-1019 -480 0
-1019 -907 0
1019 480 907 0
-1020 427 0
-1020 -771 0
1020 -427 771 0
-1021 -278 0
-1021 -104 0
1021 278 104 0
-1022 771 0
-1022 50 0
1022 -771 -50 0
-1023 988 0
-1023 -447 0
1023 -988 447 0
-1024 165 0
-1024 -516 0
1024 -165 516 0
-1025 -459 0
-1025 -874 0
1025 459 874 0
-1026 -8 0
-1026 -320 0
1026 8 320 0
-1027 -911 -106 0
-1027 911 106 0
1027 911 -106 0
1027 -911 106 0
-1028 -856 0
-1028 555 0
1028 856 -555 0
-1029 719 0
-1029 -740 0
1029 -719 740 0
-1030 695 0
-1030 946 0
1030 -695 -946 0
-1031 -200 0
-1031 929 0
1031 200 -929 0
-1032 219 470 0
-1032 -219 -470 0
1032 -219 470 0
1032 219 -470 0
-1033 112 0
-1033 685 0
1033 -112 -685 0
-1034 160 0
-1034 -996 0
1034 -160 996 0
-1035 455 614 0
-1035 -455 -614 0
1035 -455 614 0
1035 455 -614 0
-1036 244 0
-1036 320 0
1036 -244 -320 0
-1037 991 0
-1037 -733 0
1037 -991 733 0
-1038 -21 0
-1038 -158 0
1038 21 158 0
-1039 892 0
-1039 939 0
1039 -892 -939 0
-1040 94 0
-1040 -502 0
1040 -94 502 0
-1041 863 0
-1041 -634 0
1041 -863 634 0
-1042 343 0
-1042 -223 0
1042 -343 223 0
-1043 225 0
-1043 929 0
1043 -225 -929 0
-1044 269 352 0
-1044 -269 -352 0
1044 -269 352 0
1044 269 -352 0
-1045 -402 0
-1045 489 0
1045 402 -489 0
-1046 -977 -999 0
-1046 977 999 0
1046 977 -999 0
1046 -977 999 0
-1047 -830 -912 0
-1047 830 912 0
1047 830 -912 0
1047 -830 912 0
-1048 764 0
-1048 783 0
1048 -764 -783 0
-1049 671 0
-1049 -1001 0
1049 -671 1001 0
-1050 605 0
-1050 -257 0
1050 -605 257 0
-1051 -46 0
-1051 -267 0
1051 46 267 0
-1052 -715 0
-1052 -347 0
1052 715 347 0
-1053 530 0
-1053 -656 0
1053 -530 656 0
-1054 412 0
-1054 150 0
1054 -412 -150 0
-1055 248 0
-1055 -393 0
1055 -248 393 0
-1056 773 688 0
-1056 -773 -688 0
1056 -773 688 0
1056 773 -688 0
-1057 -604 0
-1057 940 0
1057 604 -940 0
-1058 903 0
-1058 -426 0
1058 -903 426 0
-1059 239 0
-1059 -831 0
1059 -239 831 0
-1060 922 0
-1060 804 0
1060 -922 -804 0
-1061 -536 -317 0
-1061 536 317 0
1061 536 -317 0
1061 -536 317 0
-1062 -930 -554 0
-1062 930 554 0
1062 930 -554 0
1062 -930 554 0
-1063 325 0
-1063 684 0
1063 -325 -684 0
-1064 936 0
-1064 28 0
1064 -936 -28 0
-1065 -190 0
-1065 -266 0
1065 190 266 0
-1066 -146 0
-1066 448 0
1066 146 -448 0
-1067 -980 0
-1067 -1029 0
1067 980 1029 0
-1068 258 -163 0
-1068 -258 163 0
1068 -258 -163 0
1068 258 163 0
-1069 -246 0
-1069 -12 0
1069 246 12 0
-1070 607 0
-1070 -676 0
1070 -607 676 0
-1071 1046 0
-1071 406 0
1071 -1046 -406 0
-1072 -1064 -740 0
-1072 1064 740 0
1072 1064 -740 0
1072 -1064 740 0
-1073 412 790 0
-1073 -412 -790 0
1073 -412 790 0
1073 412 -790 0
-1074 -254 0
-1074 536 0
1074 254 -536 0
-1075 686 0
-1075 785 0
1075 -686 -785 0
-1076 253 0
-1076 -677 0
1076 -253 677 0
-1077 828 0
-1077 -107 0
1077 -828 107 0
-1078 132 0
-1078 -820 0
1078 -132 820 0
-1079 -822 0
-1079 768 0
1079 822 -768 0
-1080 851 0
-1080 693 0
1080 -851 -693 0
-1081 842 0
-1081 -585 0
1081 -842 585 0
-1082 541 0
-1082 -1010 0
1082 -541 1010 0
-1083 -949 0
-1083 1004 0
1083 949 -1004 0
-1084 -697 858 0
-1084 697 -858 0
1084 697 858 0
1084 -697 -858 0
-1085 -684 -548 0
-1085 684 548 0
1085 684 -548 0
1085 -684 548 0
-1086 576 0
-1086 1002 0
1086 -576 -1002 0
-1087 468 0
-1087 800 0
1087 -468 -800 0
-1088 -181 0
-1088 -231 0
1088 181 231 0
-1089 669 0
-1089 868 0
1089 -669 -868 0
-1090 -147 0
-1090 -243 0
1090 147 243 0
-1091 -895 -594 0
-1091 895 594 0
1091 895 -594 0
1091 -895 594 0
-1092 694 206 0
-1092 -694 -206 0
1092 -694 206 0
1092 694 -206 0
-1093 664 0
-1093 -987 0
1093 -664 987 0
-1094 -1014 0
-1094 -886 0
1094 1014 886 0
-1095 729 0
-1095 -658 0
1095 -729 658 0
-1096 992 0
-1096 -616 0
1096 -992 616 0
-1097 235 345 0
-1097 -235 -345 0
1097 -235 345 0
1097 235 -345 0
-1098 -40 0
-1098 -562 0
1098 40 562 0
-1099 323 0
-1099 891 0
1099 -323 -891 0
-1100 874 0
-1100 31 0
1100 -874 -31 0
-1101 447 0
-1101 -1020 0
1101 -447 1020 0
-1102 419 968 0
-1102 -419 -968 0
1102 -419 968 0
1102 419 -968 0
-1103 828 0
-1103 -277 0
1103 -828 277 0
-1104 182 0
-1104 1045 0
1104 -182 -1045 0
-1105 -893 0
-1105 -819 0
1105 893 819 0
-1106 724 0
-1106 -892 0
1106 -724 892 0
-1107 -391 0
-1107 -565 0
1107 391 565 0
-1108 1044 0
-1108 -371 0
1108 -1044 371 0
-1109 -524 0
-1109 -610 0
1109 524 610 0
-1110 -824 0
-1110 -1072 0
1110 824 1072 0
-1111 -67 0
-1111 -225 0
1111 67 225 0
-1112 -386 255 0
-1112 386 -255 0
1112 386 255 0
1112 -386 -255 0
-1113 -739 0
-1113 361 0
1113 739 -361 0
-1114 1015 -749 0
-1114 -1015 749 0
1114 -1015 -749 0
1114 1015 749 0
-1115 950 0
-1115 957 0
1115 -950 -957 0
-1116 46 -285 0
-1116 -46 285 0
1116 -46 -285 0
1116 46 285 0
-1117 479 0
-1117 579 0
1117 -479 -579 0
-1118 -378 689 0
-1118 378 -689 0
1118 378 689 0
1118 -378 -689 0
-1119 -659 0
-1119 -1111 0
1119 659 1111 0
-1120 -626 0
-1120 36 0
1120 626 -36 0
-1121 -794 61 0
-1121 794 -61 0
1121 794 61 0
1121 -794 -61 0
-1122 393 -630 0
-1122 -393 630 0
1122 -393 -630 0
1122 393 630 0
-1123 -282 0
-1123 -908 0
1123 282 908 0
-1124 307 0
-1124 1039 0
1124 -307 -1039 0
-1125 -635 0
-1125 524 0
1125 635 -524 0
-1126 33 0
-1126 292 0
1126 -33 -292 0
-1127 -544 0
-1127 -337 0
1127 544 337 0
-1128 -773 0
-1128 -285 0
1128 773 285 0
-1129 562 0
-1129 -778 0
1129 -562 778 0
-1130 -237 0
-1130 -723 0
1130 237 723 0
-1131 -805 -789 0
-1131 805 789 0
1131 805 -789 0
1131 -805 789 0
-1132 -168 0
-1132 -980 0
1132 168 980 0
-1133 72 0
-1133 -502 0
1133 -72 502 0
-1134 -1071 0
-1134 662 0
1134 1071 -662 0
-1135 643 0
-1135 -181 0
1135 -643 181 0
-1136 -170 0
-1136 -1111 0
1136 170 1111 0
-1137 698 0
-1137 718 0
1137 -698 -718 0
-1138 -865 406 0
-1138 865 -406 0
1138 865 406 0
1138 -865 -406 0
-1139 204 0
-1139 -571 0
1139 -204 571 0
-1140 212 0
-1140 -1035 0
1140 -212 1035 0
-1141 -1062 0
-1141 683 0
1141 1062 -683 0
-1142 350 0
-1142 -756 0
1142 -350 756 0
-1143 1113 0
-1143 -849 0
1143 -1113 849 0
-1144 34 0
-1144 -683 0
1144 -34 683 0
-1145 1105 -301 0
-1145 -1105 301 0
1145 -1105 -301 0
1145 1105 301 0
-1146 312 0
-1146 525 0
1146 -312 -525 0
-1147 -1029 1125 0
-1147 1029 -1125 0
1147 1029 1125 0
1147 -1029 -1125 0
-1148 -1048 -25 0
-1148 1048 25 0
1148 1048 -25 0
1148 -1048 25 0
-1149 1074 0
-1149 -1004 0
1149 -1074 1004 0
-1150 -1100 -908 0
-1150 1100 908 0
1150 1100 -908 0
1150 -1100 908 0
-1151 -365 0
-1151 407 0
1151 365 -407 0
-1152 542 0
-1152 -752 0
1152 -542 752 0
-1153 -21 0
-1153 -18 0
1153 21 18 0
-1154 -701 272 0
-1154 701 -272 0
1154 701 272 0
1154 -701 -272 0
-1155 1148 589 0
-1155 -1148 -589 0
1155 -1148 589 0
1155 1148 -589 0
-1156 -212 0
-1156 -804 0
1156 212 804 0
-1157 -102 0
-1157 -855 0
1157 102 855 0
-1158 -57 0
-1158 756 0
1158 57 -756 0
-1159 495 0
-1159 -518 0
1159 -495 518 0
-1160 370 0
-1160 -451 0
1160 -370 451 0
-1161 92 0
-1161 -1034 0
1161 -92 1034 0
-1162 664 -1110 0
-1162 -664 1110 0
1162 -664 -1110 0
1162 664 1110 0
-1163 165 0
-1163 281 0
1163 -165 -281 0
-1164 199 0
-1164 -759 0
1164 -199 759 0
-1165 975 0
-1165 196 0
1165 -975 -196 0
-1166 -1143 0
-1166 105 0
1166 1143 -105 0
-1167 818 0
-1167 -614 0
1167 -818 614 0
-1168 842 0
-1168 -926 0
1168 -842 926 0
-1169 488 0
-1169 -816 0
1169 -488 816 0
-1170 814 0
-1170 -32 0
1170 -814 32 0
-1171 98 0
-1171 -448 0
1171 -98 448 0
-1172 1006 0
-1172 872 0
1172 -1006 -872 0
-1173 1071 0
-1173 214 0
1173 -1071 -214 0
-1174 -584 -535 0
-1174 584 535 0
1174 584 -535 0
1174 -584 535 0
-1175 -1057 0
-1175 626 0
1175 1057 -626 0
-1176 -324 0
-1176 -96 0
1176 324 96 0
-1177 1031 0
-1177 416 0
1177 -1031 -416 0
-1178 -219 0
-1178 -659 0
1178 219 659 0
-1179 -1003 0
-1179 -427 0
1179 1003 427 0
-1180 -1012 0
-1180 1008 0
1180 1012 -1008 0
-1181 406 -1054 0
-1181 -406 1054 0
1181 -406 -1054 0
1181 406 1054 0
-1182 557 784 0
-1182 -557 -784 0
1182 -557 784 0
1182 557 -784 0
-1183 -546 512 0
-1183 546 -512 0
1183 546 512 0
1183 -546 -512 0
-1184 -973 0
-1184 -819 0
1184 973 819 0
-1185 -831 0
-1185 -80 0
1185 831 80 0
-1186 -1082 0
-1186 -1146 0
1186 1082 1146 0
-1187 18 -515 0
-1187 -18 515 0
1187 -18 -515 0
1187 18 515 0
-1188 -965 -709 0
-1188 965 709 0
1188 965 -709 0
1188 -965 709 0
-1189 -1157 -1012 0
-1189 1157 1012 0
1189 1157 -1012 0
1189 -1157 1012 0
-1190 68 0
-1190 -882 0
1190 -68 882 0
-1191 -21 0
-1191 257 0
1191 21 -257 0
-1192 -406 986 0
-1192 406 -986 0
1192 406 986 0
1192 -406 -986 0
-1193 -321 0
-1193 -853 0
1193 321 853 0
-1194 -874 0
-1194 369 0
1194 874 -369 0
-1195 -1142 0
-1195 93 0
1195 1142 -93 0
-1196 276 0
-1196 908 0
1196 -276 -908 0
-1197 316 0
-1197 -134 0
1197 -316 134 0
-1198 870 -1056 0
-1198 -870 1056 0
1198 -870 -1056 0
1198 870 1056 0
-1199 734 0
-1199 -1094 0
1199 -734 1094 0
-1200 -869 0
-1200 393 0
1200 869 -393 0
-1201 -293 -1052 0
-1201 293 1052 0
1201 293 -1052 0
1201 -293 1052 0
-1202 832 0
-1202 937 0
1202 -832 -937 0
-1203 -443 992 0
-1203 443 -992 0
1203 443 992 0
1203 -443 -992 0
-1204 187 0
-1204 -261 0
1204 -187 261 0
-1205 201 0
-1205 -524 0
1205 -201 524 0
-1206 -1185 -1097 0
-1206 1185 1097 0
1206 1185 -1097 0
1206 -1185 1097 0
-1207 -1153 0
-1207 1094 0
1207 1153 -1094 0
-1208 -244 0
-1208 920 0
1208 244 -920 0
-1209 -1049 -1010 0
-1209 1049 1010 0
1209 1049 -1010 0
1209 -1049 1010 0
-1210 -1106 0
-1210 -615 0
1210 1106 615 0
-1211 -22 0
-1211 613 0
1211 22 -613 0
-1212 359 0
-1212 -15 0
1212 -359 15 0
-1213 679 213 0
-1213 -679 -213 0
1213 -679 213 0
1213 679 -213 0
-1214 -648 0
-1214 537 0
1214 648 -537 0
-1215 -689 0
-1215 -56 0
1215 689 56 0
-1216 1074 0
-1216 172 0
1216 -1074 -172 0
-1217 728 0
-1217 -985 0
1217 -728 985 0
-1218 856 136 0
-1218 -856 -136 0
1218 -856 136 0
1218 856 -136 0
-1219 49 0
-1219 -313 0
1219 -49 313 0
-1220 -1070 0
-1220 -1182 0
1220 1070 1182 0
-1221 1043 0
-1221 813 0
1221 -1043 -813 0
-1222 -360 -833 0
-1222 360 833 0
1222 360 -833 0
1222 -360 833 0
-1223 -966 -393 0
-1223 966 393 0
1223 966 -393 0
1223 -966 393 0
-1224 -673 0
-1224 -34 0
1224 673 34 0
-1225 150 0
-1225 822 0
1225 -150 -822 0
-1226 863 0
-1226 -200 0
1226 -863 200 0
-1227 1117 0
-1227 408 0
1227 -1117 -408 0
-1228 -1131 0
-1228 -194 0
1228 1131 194 0
-1229 -984 1038 0
-1229 984 -1038 0
1229 984 1038 0
1229 -984 -1038 0
-1230 -860 0
-1230 -1014 0
1230 860 1014 0
-1231 -1179 0
-1231 -567 0
1231 1179 567 0
-1232 -13 -840 0
-1232 13 840 0
1232 13 -840 0
1232 -13 840 0
-1233 -1190 0
-1233 1149 0
1233 1190 -1149 0
-1234 -733 1094 0
-1234 733 -1094 0
1234 733 1094 0
1234 -733 -1094 0
-1235 -43 0
-1235 50 0
1235 43 -50 0
-1236 151 0
-1236 533 0
1236 -151 -533 0
-1237 1022 0
-1237 207 0
1237 -1022 -207 0
-1238 -795 0
-1238 -1157 0
1238 795 1157 0
-1239 -618 919 0
-1239 618 -919 0
1239 618 919 0
1239 -618 -919 0
-1240 800 295 0
-1240 -800 -295 0
1240 -800 295 0
1240 800 -295 0
-1241 236 481 0
-1241 -236 -481 0
1241 -236 481 0
1241 236 -481 0
-1242 57 -856 0
-1242 -57 856 0
1242 -57 -856 0
1242 57 856 0
-1243 -816 0
-1243 -479 0
1243 816 479 0
-1244 -911 -1132 0
-1244 911 1132 0
1244 911 -1132 0
1244 -911 1132 0
-1245 -1241 0
-1245 -99 0
1245 1241 99 0
-1246 900 -55 0
-1246 -900 55 0
1246 -900 -55 0
1246 900 55 0
-1247 525 0
-1247 -749 0
1247 -525 749 0
-1248 -625 0
-1248 -827 0
1248 625 827 0
-1249 347 -976 0
-1249 -347 976 0
1249 -347 -976 0
1249 347 976 0
-1250 486 -477 0
-1250 -486 477 0
1250 -486 -477 0
1250 486 477 0
-1251 -265 0
-1251 -856 0
1251 265 856 0
-1252 -79 -121 0
-1252 79 121 0
1252 79 -121 0
1252 -79 121 0
-1253 -26 -898 0
-1253 26 898 0
1253 26 -898 0
1253 -26 898 0
-1254 -809 0
-1254 -206 0
1254 809 206 0
-1255 -600 0
-1255 -35 0
1255 600 35 0
-1256 283 0
-1256 539 0
1256 -283 -539 0
-1257 96 0
-1257 -1123 0
1257 -96 1123 0
-1258 -842 -988 0
-1258 842 988 0
1258 842 -988 0
1258 -842 988 0
-1259 728 0
-1259 -247 0
1259 -728 247 0
-1260 94 0
-1260 547 0
1260 -94 -547 0
-1261 961 0
-1261 -1146 0
1261 -961 1146 0
-1262 987 571 0
-1262 -987 -571 0
1262 -987 571 0
1262 987 -571 0
-1263 -419 -632 0
-1263 419 632 0
1263 419 -632 0
1263 -419 632 0
-1264 79 0
-1264 -424 0
1264 -79 424 0
-1265 650 0
-1265 -801 0
1265 -650 801 0
-1266 -274 0
-1266 -321 0
1266 274 321 0
-1267 437 0
-1267 509 0
1267 -437 -509 0
-1268 477 0
-1268 -298 0
1268 -477 298 0
-1269 204 366 0
-1269 -204 -366 0
1269 -204 366 0
1269 204 -366 0
-1270 987 0
-1270 1223 0
1270 -987 -1223 0
-1271 -75 -1232 0
-1271 75 1232 0
1271 75 -1232 0
1271 -75 1232 0
-1272 -64 0
-1272 361 0
1272 64 -361 0
-1273 611 0
-1273 304 0
1273 -611 -304 0
-1274 1102 0
-1274 -688 0
1274 -1102 688 0
-1275 915 0
-1275 -745 0
1275 -915 745 0
-1276 -135 1123 0
-1276 135 -1123 0
1276 135 1123 0
1276 -135 -1123 0
-1277 -8 0
-1277 -288 0
1277 8 288 0
-1278 541 0
-1278 -1088 0
1278 -541 1088 0
-1279 453 0
-1279 -1231 0
1279 -453 1231 0
-1280 -448 0
-1280 1224 0
1280 448 -1224 0
-1281 154 -96 0
-1281 -154 96 0
1281 -154 -96 0
1281 154 96 0
-1282 135 0
-1282 222 0
1282 -135 -222 0
-1283 61 112 0
-1283 -61 -112 0
1283 -61 112 0
1283 61 -112 0
-1284 -321 0
-1284 922 0
1284 321 -922 0
-1285 589 0
-1285 -766 0
1285 -589 766 0
-1286 1029 0
-1286 784 0
1286 -1029 -784 0
-1287 841 -577 0
-1287 -841 577 0
1287 -841 -577 0
1287 841 577 0
-1288 68 -408 0
-1288 -68 408 0
1288 -68 -408 0
1288 68 408 0
-1289 24 0
-1289 1083 0
1289 -24 -1083 0
-1290 -262 0
-1290 -948 0
1290 262 948 0
-1291 812 0
-1291 758 0
1291 -812 -758 0
-1292 182 -436 0
-1292 -182 436 0
1292 -182 -436 0
1292 182 436 0
-1293 561 0
-1293 -335 0
1293 -561 335 0
-1294 237 0
-1294 -1043 0
1294 -237 1043 0
-1295 283 0
-1295 -524 0
1295 -283 524 0
-1296 -46 0
-1296 -830 0
1296 46 830 0
-1297 -516 0
-1297 -484 0
1297 516 484 0
-1298 474 -385 0
-1298 -474 385 0
1298 -474 -385 0
1298 474 385 0
-1299 -726 0
-1299 235 0
1299 726 -235 0
-1300 607 0
-1300 225 0
1300 -607 -225 0
-1301 -1192 0
-1301 488 0
1301 1192 -488 0
-1302 -1027 0
-1302 75 0
1302 1027 -75 0
-1303 759 -1252 0
-1303 -759 1252 0
1303 -759 -1252 0
1303 759 1252 0
-1304 671 0
-1304 -576 0
1304 -671 576 0
-1305 525 0
-1305 126 0
1305 -525 -126 0
-1306 1163 0
-1306 -402 0
1306 -1163 402 0
-1307 -1051 0
-1307 -715 0
1307 1051 715 0
-1308 -83 120 0
-1308 83 -120 0
1308 83 120 0
1308 -83 -120 0
-1309 -777 0
-1309 882 0
1309 777 -882 0
-1310 -580 -1133 0
-1310 580 1133 0
1310 580 -1133 0
1310 -580 1133 0
-1311 -42 0
-1311 -99 0
1311 42 99 0
-1312 1144 0
-1312 637 0
1312 -1144 -637 0
-1313 885 0
-1313 223 0
1313 -885 -223 0
-1314 1228 0
-1314 -728 0
1314 -1228 728 0
-1315 -156 0
-1315 -587 0
1315 156 587 0
-1316 -917 0
-1316 1069 0
1316 917 -1069 0
-1317 -987 -58 0
-1317 987 58 0
1317 987 -58 0
1317 -987 58 0
-1318 -716 0
-1318 141 0
1318 716 -141 0
-1319 -183 0
-1319 -509 0
1319 183 509 0
-1320 256 0
-1320 -762 0
1320 -256 762 0
-1321 357 0
-1321 1193 0
1321 -357 -1193 0
-1322 -878 0
-1322 -903 0
1322 878 903 0
-1323 -340 0
-1323 245 0
1323 340 -245 0
-1324 -4 301 0
-1324 4 -301 0
1324 4 301 0
1324 -4 -301 0
-1325 644 0
-1325 800 0
1325 -644 -800 0
-1326 -1057 0
-1326 -1099 0
1326 1057 1099 0
-1327 975 0
-1327 -725 0
1327 -975 725 0
-1328 -1303 0
-1328 1310 0
1328 1303 -1310 0
-1329 -870 1039 0
-1329 870 -1039 0
1329 870 1039 0
1329 -870 -1039 0
-1330 -777 0
-1330 -78 0
1330 777 78 0
-1331 508 0
-1331 -1034 0
1331 -508 1034 0
-1332 1215 0
-1332 -159 0
1332 -1215 159 0
-1333 -776 0
-1333 845 0
1333 776 -845 0
-1334 241 -438 0
-1334 -241 438 0
1334 -241 -438 0
1334 241 438 0
-1335 -691 0
-1335 1312 0
1335 691 -1312 0
-1336 564 0
-1336 -944 0
1336 -564 944 0
-1337 -66 0
-1337 161 0
1337 66 -161 0
-1338 -889 0
-1338 877 0
1338 889 -877 0
-1339 -735 0
-1339 -955 0
1339 735 955 0
-1340 340 0
-1340 -508 0
1340 -340 508 0
-1341 -646 0
-1341 359 0
1341 646 -359 0
-1342 501 0
-1342 -1048 0
1342 -501 1048 0
-1343 -657 0
-1343 -45 0
1343 657 45 0
-1344 -652 1209 0
-1344 652 -1209 0
1344 652 1209 0
1344 -652 -1209 0
-1345 1224 0
-1345 1334 0
1345 -1224 -1334 0
-1346 65 0
-1346 1331 0
1346 -65 -1331 0
-1347 704 0
-1347 199 0
1347 -704 -199 0
-1348 -969 -1077 0
-1348 969 1077 0
1348 969 -1077 0
1348 -969 1077 0
-1349 346 0
-1349 -680 0
1349 -346 680 0
-1350 -677 0
-1350 1057 0
1350 677 -1057 0
-1351 -1230 -19 0
-1351 1230 19 0
1351 1230 -19 0
1351 -1230 19 0
-1352 821 0
-1352 812 0
1352 -821 -812 0
-1353 579 0
-1353 -277 0
1353 -579 277 0
-1354 -690 0
-1354 794 0
1354 690 -794 0
-1355 -1271 0
-1355 1220 0
1355 1271 -1220 0
-1356 -1010 0
-1356 -1347 0
1356 1010 1347 0
-1357 -700 0
-1357 1094 0
1357 700 -1094 0
-1358 482 0
-1358 -1128 0
1358 -482 1128 0
-1359 225 79 0
-1359 -225 -79 0
1359 -225 79 0
1359 225 -79 0
-1360 -298 40 0
-1360 298 -40 0
1360 298 40 0
1360 -298 -40 0
-1361 -513 1148 0
-1361 513 -1148 0
1361 513 1148 0
1361 -513 -1148 0
-1362 1304 0
-1362 -638 0
1362 -1304 638 0
-1363 73 482 0
-1363 -73 -482 0
1363 -73 482 0
1363 73 -482 0
-1364 -1056 0
-1364 157 0
1364 1056 -157 0
-1365 -917 0
-1365 -683 0
1365 917 683 0
-1366 -819 971 0
-1366 819 -971 0
1366 819 971 0
1366 -819 -971 0
-1367 46 0
-1367 -456 0
1367 -46 456 0
-1368 -271 672 0
-1368 271 -672 0
1368 271 672 0
1368 -271 -672 0
-1369 -664 0
-1369 -707 0
1369 664 707 0
-1370 390 0
-1370 60 0
1370 -390 -60 0
-1371 -90 0
-1371 415 0
1371 90 -415 0
-1372 505 0
-1372 -553 0
1372 -505 553 0
-1373 908 0
-1373 -949 0
1373 -908 949 0
-1374 1133 0
-1374 509 0
1374 -1133 -509 0
-1375 523 0
-1375 -479 0
1375 -523 479 0
-1376 -1224 0
-1376 -932 0
1376 1224 932 0
-1377 524 0
-1377 -298 0
1377 -524 298 0
-1378 -1258 32 0
-1378 1258 -32 0
1378 1258 32 0
1378 -1258 -32 0
-1379 -724 -626 0
-1379 724 626 0
1379 724 -626 0
1379 -724 626 0
-1380 609 0
-1380 -708 0
1380 -609 708 0
-1381 493 0
-1381 276 0
1381 -493 -276 0
-1382 684 0
-1382 57 0
1382 -684 -57 0
-1383 770 0
-1383 637 0
1383 -770 -637 0
-1384 -431 0
-1384 -153 0
1384 431 153 0
-1385 1251 0
-1385 -965 0
1385 -1251 965 0
-1386 1183 0
-1386 -339 0
1386 -1183 339 0
-1387 149 0
-1387 435 0
1387 -149 -435 0
-1388 -1197 0
-1388 -1344 0
1388 1197 1344 0
-1389 -1235 0
-1389 -538 0
1389 1235 538 0
-1390 648 0
-1390 753 0
1390 -648 -753 0
-1391 854 0
-1391 243 0
1391 -854 -243 0
-1392 -919 0
-1392 -1157 0
1392 919 1157 0
-1393 -1328 0
-1393 -765 0
1393 1328 765 0
-1394 1073 0
-1394 -575 0
1394 -1073 575 0
-1395 820 0
-1395 703 0
1395 -820 -703 0
-1396 -820 -1244 0
-1396 820 1244 0
1396 820 -1244 0
1396 -820 1244 0
-1397 -338 0
-1397 -208 0
1397 338 208 0
-1398 -598 0
-1398 -816 0
1398 598 816 0
-1399 -984 0
-1399 -1148 0
1399 984 1148 0
-1400 1269 0
-1400 -301 0
1400 -1269 301 0
-1401 473 -392 0
-1401 -473 392 0
1401 -473 -392 0
1401 473 392 0
-1402 -690 0
-1402 1386 0
1402 690 -1386 0
-1403 -824 -1053 0
-1403 824 1053 0
1403 824 -1053 0
1403 -824 1053 0
-1404 -755 0
-1404 -83 0
1404 755 83 0
-1405 -1382 -303 0
-1405 1382 303 0
1405 1382 -303 0
1405 -1382 303 0
-1406 549 0
-1406 -649 0
1406 -549 649 0
-1407 816 1049 0
-1407 -816 -1049 0
1407 -816 1049 0
1407 816 -1049 0
-1408 633 -407 0
-1408 -633 407 0
1408 -633 -407 0
1408 633 407 0
-1409 822 0
-1409 -268 0
1409 -822 268 0
-1410 1167 0
-1410 -225 0
1410 -1167 225 0
-1411 688 542 0
-1411 -688 -542 0
1411 -688 542 0
1411 688 -542 0
-1412 -480 0
-1412 -1269 0
1412 480 1269 0
-1413 1281 -1229 0
-1413 -1281 1229 0
1413 -1281 -1229 0
1413 1281 1229 0
-1414 1361 0
-1414 1189 0
1414 -1361 -1189 0
-1415 -730 0
-1415 -531 0
1415 730 531 0
-1416 539 888 0
-1416 -539 -888 0
1416 -539 888 0
1416 539 -888 0
-1417 839 992 0
-1417 -839 -992 0
1417 -839 992 0
1417 839 -992 0
-1418 -71 315 0
-1418 71 -315 0
1418 71 315 0
1418 -71 -315 0
-1419 112 0
-1419 -261 0
1419 -112 261 0
-1420 -578 0
-1420 -1024 0
1420 578 1024 0
-1421 1163 0
-1421 -1274 0
1421 -1163 1274 0
-1422 -1383 401 0
-1422 1383 -401 0
1422 1383 401 0
1422 -1383 -401 0
-1423 759 0
-1423 -266 0
1423 -759 266 0
-1424 193 0
-1424 356 0
1424 -193 -356 0
-1425 -812 0
-1425 -1243 0
1425 812 1243 0
-1426 -1197 0
-1426 970 0
1426 1197 -970 0
-1427 280 0
-1427 1156 0
1427 -280 -1156 0
-1428 150 0
-1428 -456 0
1428 -150 456 0
-1429 -1415 0
-1429 1255 0
1429 1415 -1255 0
-1430 1375 0
-1430 -305 0
1430 -1375 305 0
-1431 -917 1234 0
-1431 917 -1234 0
1431 917 1234 0
1431 -917 -1234 0
-1432 765 0
-1432 843 0
1432 -765 -843 0
-1433 -1151 0
-1433 -1168 0
1433 1151 1168 0
-1434 1130 -63 0
-1434 -1130 63 0
1434 -1130 -63 0
1434 1130 63 0
-1435 972 1154 0
-1435 -972 -1154 0
1435 -972 1154 0
1435 972 -1154 0
-1436 -63 0
-1436 -665 0
1436 63 665 0
-1437 -713 0
-1437 -1388 0
1437 713 1388 0
-1438 1390 0
-1438 915 0
1438 -1390 -915 0
-1439 1139 0
-1439 -229 0
1439 -1139 229 0
-1440 1259 0
-1440 1430 0
1440 -1259 -1430 0
-1441 1435 -1322 0
-1441 -1435 1322 0
1441 -1435 -1322 0
1441 1435 1322 0
-1442 1353 0
-1442 -136 0
1442 -1353 136 0
-1443 753 0
-1443 786 0
1443 -753 -786 0
-1444 -849 0
-1444 -814 0
1444 849 814 0
-1445 1130 0
-1445 -1284 0
1445 -1130 1284 0
-1446 570 0
-1446 646 0
1446 -570 -646 0
-1447 -593 0
-1447 -657 0
1447 593 657 0
-1448 -1255 0
-1448 967 0
1448 1255 -967 0
-1449 -564 0
-1449 -504 0
1449 564 504 0
-1450 -374 0
-1450 696 0
1450 374 -696 0
-1451 1124 -150 0
-1451 -1124 150 0
1451 -1124 -150 0
1451 1124 150 0
-1452 -921 0
-1452 591 0
1452 921 -591 0
-1453 899 0
-1453 668 0
1453 -899 -668 0
-1454 -691 302 0
-1454 691 -302 0
1454 691 302 0
1454 -691 -302 0
-1455 1115 1453 0
-1455 -1115 -1453 0
1455 -1115 1453 0
1455 1115 -1453 0
-1456 390 0
-1456 544 0
1456 -390 -544 0
-1457 -1017 0
-1457 1238 0
1457 1017 -1238 0
-1458 -111 0
-1458 -193 0
1458 111 193 0
-1459 -937 1330 0
-1459 937 -1330 0
1459 937 1330 0
1459 -937 -1330 0
-1460 100 843 0
-1460 -100 -843 0
1460 -100 843 0
1460 100 -843 0
-1461 -582 -265 0
-1461 582 265 0
1461 582 -265 0
1461 -582 265 0
-1462 -1432 -926 0
-1462 1432 926 0
1462 1432 -926 0
1462 -1432 926 0
-1463 -736 0
-1463 -783 0
1463 736 783 0
-1464 -665 769 0
-1464 665 -769 0
1464 665 769 0
1464 -665 -769 0
-1465 -99 0
-1465 -999 0
1465 99 999 0
-1466 954 0
-1466 553 0
1466 -954 -553 0
-1467 -358 0
-1467 -1022 0
1467 358 1022 0
-1468 1184 0
-1468 -505 0
1468 -1184 505 0
-1469 -138 -627 0
-1469 138 627 0
1469 138 -627 0
1469 -138 627 0
-1470 -177 0
-1470 -346 0
1470 177 346 0
-1471 -319 0
-1471 39 0
1471 319 -39 0
-1472 -392 0
-1472 696 0
1472 392 -696 0
-1473 -282 0
-1473 1265 0
1473 282 -1265 0
-1474 -1105 0
-1474 -507 0
1474 1105 507 0
-1475 -1397 0
-1475 1311 0
1475 1397 -1311 0
-1476 -333 0
-1476 -1300 0
1476 333 1300 0
-1477 -141 0
-1477 1356 0
1477 141 -1356 0
-1478 -436 0
-1478 231 0
1478 436 -231 0
-1479 -654 0
-1479 477 0
1479 654 -477 0
-1480 -1204 0
-1480 463 0
1480 1204 -463 0
-1481 377 0
-1481 -349 0
1481 -377 349 0
-1482 -1154 992 0
-1482 1154 -992 0
1482 1154 992 0
1482 -1154 -992 0
-1483 155 0
-1483 1129 0
1483 -155 -1129 0
-1484 -1254 0
-1484 -1071 0
1484 1254 1071 0
-1485 -934 0
-1485 -738 0
1485 934 738 0
-1486 -927 0
-1486 -1274 0
1486 927 1274 0
-1487 -1067 0
-1487 1054 0
1487 1067 -1054 0
-1488 428 0
-1488 -67 0
1488 -428 67 0
-1489 -1211 0
-1489 738 0
1489 1211 -738 0
-1490 238 0
-1490 -1278 0
1490 -238 1278 0
-1491 71 -1042 0
-1491 -71 1042 0
1491 -71 -1042 0
1491 71 1042 0
-1492 1372 0
-1492 475 0
1492 -1372 -475 0
-1493 -27 0
-1493 200 0
1493 27 -200 0
-1494 -1417 0
-1494 287 0
1494 1417 -287 0
-1495 888 0
-1495 -130 0
1495 -888 130 0
-1496 544 0
-1496 814 0
1496 -544 -814 0
-1497 -333 0
-1497 -430 0
1497 333 430 0
-1498 423 -947 0
-1498 -423 947 0
1498 -423 -947 0
1498 423 947 0
-1499 -221 0
-1499 1419 0
1499 221 -1419 0
-1500 63 590 0
-1500 -63 -590 0
1500 -63 590 0
1500 63 -590 0
-1501 685 143 0
-1501 -685 -143 0
1501 -685 143 0
1501 685 -143 0
-1502 713 0
-1502 -70 0
1502 -713 70 0
-1503 881 0
-1503 974 0
1503 -881 -974 0
-1504 867 0
-1504 -817 0
1504 -867 817 0
-1505 684 0
-1505 1222 0
1505 -684 -1222 0
-1506 1462 0
-1506 213 0
1506 -1462 -213 0
-1507 941 0
-1507 -1448 0
1507 -941 1448 0
-1508 1092 -320 0
-1508 -1092 320 0
1508 -1092 -320 0
1508 1092 320 0
-1509 -1373 0
-1509 -560 0
1509 1373 560 0
-1510 1460 -991 0
-1510 -1460 991 0
1510 -1460 -991 0
1510 1460 991 0
-1511 1449 0
-1511 -1464 0
1511 -1449 1464 0
-1512 -1459 0
-1512 -1360 0
1512 1459 1360 0
-1513 -1369 0
-1513 1253 0
1513 1369 -1253 0
-1514 1510 0
-1514 1132 0
1514 -1510 -1132 0
-1515 -307 0
-1515 946 0
1515 307 -946 0
-1516 -760 0
-1516 -1086 0
1516 760 1086 0
-1517 -1189 0
-1517 1436 0
1517 1189 -1436 0
-1518 -1295 873 0
-1518 1295 -873 0
1518 1295 873 0
1518 -1295 -873 0
-1519 -1295 0
-1519 -1483 0
1519 1295 1483 0
-1520 1160 1148 0
-1520 -1160 -1148 0
1520 -1160 1148 0
1520 1160 -1148 0
-1521 221 0
-1521 24 0
1521 -221 -24 0
-1522 363 -1304 0
-1522 -363 1304 0
1522 -363 -1304 0
1522 363 1304 0
-1523 -1486 0
-1523 -360 0
1523 1486 360 0
-1524 -565 0
-1524 -222 0
1524 565 222 0
-1525 -424 1299 0
-1525 424 -1299 0
1525 424 1299 0
1525 -424 -1299 0
-1526 -687 0
-1526 -784 0
1526 687 784 0
-1527 19 0
-1527 -1318 0
1527 -19 1318 0
-1528 48 1308 0
-1528 -48 -1308 0
1528 -48 1308 0
1528 48 -1308 0
-1529 250 0
-1529 828 0
1529 -250 -828 0
-1530 -299 -1073 0
-1530 299 1073 0
1530 299 -1073 0
1530 -299 1073 0
-1531 726 0
-1531 -891 0
1531 -726 891 0
-1532 451 0
-1532 -1114 0
1532 -451 1114 0
-1533 397 0
-1533 184 0
1533 -397 -184 0
-1534 -646 0
-1534 -50 0
1534 646 50 0
-1535 1390 1142 0
-1535 -1390 -1142 0
1535 -1390 1142 0
1535 1390 -1142 0
-1536 893 0
-1536 964 0
1536 -893 -964 0
-1537 1372 0
-1537 1212 0
1537 -1372 -1212 0
-1538 551 0
-1538 101 0
1538 -551 -101 0
-1539 -315 0
-1539 57 0
1539 315 -57 0
-1540 -257 0
-1540 1234 0
1540 257 -1234 0
-1541 -479 0
-1541 160 0
1541 479 -160 0
-1542 -80 0
-1542 -121 0
1542 80 121 0
-1543 100 492 0
-1543 -100 -492 0
1543 -100 492 0
1543 100 -492 0
-1544 1180 0
-1544 -1167 0
1544 -1180 1167 0
-1545 -322 1438 0
-1545 322 -1438 0
1545 322 1438 0
1545 -322 -1438 0
-1546 336 0
-1546 473 0
1546 -336 -473 0
-1547 350 0
-1547 732 0
1547 -350 -732 0
-1548 -193 0
-1548 764 0
1548 193 -764 0
-1549 1124 0
-1549 -1244 0
1549 -1124 1244 0
-1550 695 0
-1550 -592 0
1550 -695 592 0
-1551 -831 0
-1551 -840 0
1551 831 840 0
-1552 -331 0
-1552 -1480 0
1552 331 1480 0
-1553 1545 1157 0
-1553 -1545 -1157 0
1553 -1545 1157 0
1553 1545 -1157 0
-1554 15 0
-1554 456 0
1554 -15 -456 0
-1555 -1240 1398 0
-1555 1240 -1398 0
1555 1240 1398 0
1555 -1240 -1398 0
-1556 227 0
-1556 496 0
1556 -227 -496 0
-1557 -883 0
-1557 1542 0
1557 883 -1542 0
-1558 855 0
-1558 -1557 0
1558 -855 1557 0
-1559 -1126 0
-1559 -230 0
1559 1126 230 0
-1560 544 0
-1560 1428 0
1560 -544 -1428 0
-1561 1190 0
-1561 105 0
1561 -1190 -105 0
-1562 -332 0
-1562 486 0
1562 332 -486 0
-1563 181 -922 0
-1563 -181 922 0
1563 -181 -922 0
1563 181 922 0
-1564 1274 0
-1564 -1398 0
1564 -1274 1398 0
-1565 165 0
-1565 -364 0
1565 -165 364 0
-1566 684 0
-1566 1565 0
1566 -684 -1565 0
-1567 -713 0
-1567 -1215 0
1567 713 1215 0
-1568 -707 -1031 0
-1568 707 1031 0
1568 707 -1031 0
1568 -707 1031 0
-1569 1477 0
-1569 -1379 0
1569 -1477 1379 0
-1570 130 0
-1570 -481 0
1570 -130 481 0
-1571 733 879 0
-1571 -733 -879 0
1571 -733 879 0
1571 733 -879 0
-1572 -237 0
-1572 -841 0
1572 237 841 0
-1573 109 0
-1573 1511 0
1573 -109 -1511 0
-1574 -299 589 0
-1574 299 -589 0
1574 299 589 0
1574 -299 -589 0
-1575 -1536 -737 0
-1575 1536 737 0
1575 1536 -737 0
1575 -1536 737 0
-1576 -1156 -1016 0
-1576 1156 1016 0
1576 1156 -1016 0
1576 -1156 1016 0
-1577 -232 563 0
-1577 232 -563 0
1577 232 563 0
1577 -232 -563 0
-1578 -196 0
-1578 -439 0
1578 196 439 0
-1579 3 0
-1579 811 0
1579 -3 -811 0
-1580 1040 -462 0
-1580 -1040 462 0
1580 -1040 -462 0
1580 1040 462 0
-1581 -1573 -373 0
-1581 1573 373 0
1581 1573 -373 0
1581 -1573 373 0
-1582 1437 0
-1582 -529 0
1582 -1437 529 0
-1583 -333 0
-1583 1158 0
1583 333 -1158 0
-1584 399 -490 0
-1584 -399 490 0
1584 -399 -490 0
1584 399 490 0
-1585 291 0
-1585 280 0
1585 -291 -280 0
-1586 1362 0
-1586 532 0
1586 -1362 -532 0
-1587 -874 0
-1587 913 0
1587 874 -913 0
-1588 -269 1569 0
-1588 269 -1569 0
1588 269 1569 0
1588 -269 -1569 0
-1589 1331 0
-1589 -1457 0
1589 -1331 1457 0
-1590 445 0
-1590 -1299 0
1590 -445 1299 0
-1591 758 0
-1591 -213 0
1591 -758 213 0
-1592 339 0
-1592 -1027 0
1592 -339 1027 0
-1593 166 0
-1593 863 0
1593 -166 -863 0
-1594 -16 0
-1594 -1419 0
1594 16 1419 0
-1595 -453 -816 0
-1595 453 816 0
1595 453 -816 0
1595 -453 816 0
-1596 -551 0
-1596 -415 0
1596 551 415 0
-1597 -675 0
-1597 1482 0
1597 675 -1482 0
-1598 1062 0
-1598 -942 0
1598 -1062 942 0
-1599 652 0
-1599 1037 0
1599 -652 -1037 0
-1600 956 0
-1600 736 0
1600 -956 -736 0
-1601 -1317 -774 0
-1601 1317 774 0
1601 1317 -774 0
1601 -1317 774 0
-1602 1076 0
-1602 461 0
1602 -1076 -461 0
-1603 1102 -719 0
-1603 -1102 719 0
1603 -1102 -719 0
1603 1102 719 0
-1604 -191 1399 0
-1604 191 -1399 0
1604 191 1399 0
1604 -191 -1399 0
-1605 -1126 320 0
-1605 1126 -320 0
1605 1126 320 0
1605 -1126 -320 0
-1606 1340 0
-1606 731 0
1606 -1340 -731 0
-1607 413 0
-1607 -1261 0
1607 -413 1261 0
-1608 -23 0
-1608 -50 0
1608 23 50 0
-1609 -339 0
-1609 -443 0
1609 339 443 0
-1610 1151 0
-1610 103 0
1610 -1151 -103 0
-1611 -1007 0
-1611 923 0
1611 1007 -923 0
-1612 -1462 0
-1612 800 0
1612 1462 -800 0
-1613 74 -467 0
-1613 -74 467 0
1613 -74 -467 0
1613 74 467 0
-1614 -1293 0
-1614 589 0
1614 1293 -589 0
-1615 797 0
-1615 -229 0
1615 -797 229 0
-1616 -1260 0
-1616 -698 0
1616 1260 698 0
-1617 1064 0
-1617 -536 0
1617 -1064 536 0
-1618 -1335 -1518 0
-1618 1335 1518 0
1618 1335 -1518 0
1618 -1335 1518 0
-1619 -679 0
-1619 -178 0
1619 679 178 0
-1620 54 1539 0
-1620 -54 -1539 0
1620 -54 1539 0
1620 54 -1539 0
-1621 -1198 0
-1621 -1533 0
1621 1198 1533 0
-1622 60 0
-1622 -904 0
1622 -60 904 0
-1623 941 0
-1623 844 0
1623 -941 -844 0
-1624 193 0
-1624 -97 0
1624 -193 97 0
-1625 1196 0
-1625 103 0
1625 -1196 -103 0
-1626 970 0
-1626 -75 0
1626 -970 75 0
-1627 -860 158 0
-1627 860 -158 0
1627 860 158 0
1627 -860 -158 0
-1628 693 853 0
-1628 -693 -853 0
1628 -693 853 0
1628 693 -853 0
-1629 405 -734 0
-1629 -405 734 0
1629 -405 -734 0
1629 405 734 0
-1630 98 0
-1630 -609 0
1630 -98 609 0
-1631 1257 0
-1631 1576 0
1631 -1257 -1576 0
-1632 -446 0
-1632 298 0
1632 446 -298 0
-1633 1580 0
-1633 740 0
1633 -1580 -740 0
-1634 -1618 0
-1634 -7 0
1634 1618 7 0
-1635 845 -990 0
-1635 -845 990 0
1635 -845 -990 0
1635 845 990 0
-1636 104 -1503 0
-1636 -104 1503 0
1636 -104 -1503 0
1636 104 1503 0
-1637 426 0
-1637 -1522 0
1637 -426 1522 0
-1638 829 0
-1638 -1380 0
1638 -829 1380 0
-1639 1499 0
-1639 -216 0
1639 -1499 216 0
-1640 1165 0
-1640 765 0
1640 -1165 -765 0
-1641 -304 0
-1641 -1034 0
1641 304 1034 0
-1642 355 0
-1642 1388 0
1642 -355 -1388 0
-1643 -1146 0
-1643 -884 0
1643 1146 884 0
-1644 -1279 0
-1644 523 0
1644 1279 -523 0
-1645 -516 0
-1645 1617 0
1645 516 -1617 0
-1646 1630 0
-1646 886 0
1646 -1630 -886 0
-1647 -1029 1546 0
-1647 1029 -1546 0
1647 1029 1546 0
1647 -1029 -1546 0
-1648 -1046 0
-1648 -751 0
1648 1046 751 0
-1649 -1612 0
-1649 -1358 0
1649 1612 1358 0
-1650 756 0
-1650 1324 0
1650 -756 -1324 0
-1651 1417 0
-1651 -630 0
1651 -1417 630 0
-1652 1342 0
-1652 -679 0
1652 -1342 679 0
-1653 554 0
-1653 1117 0
1653 -554 -1117 0
-1654 741 0
-1654 714 0
1654 -741 -714 0
-1655 -799 0
-1655 -1482 0
1655 799 1482 0
-1656 914 0
-1656 -1024 0
1656 -914 1024 0
-1657 -1454 0
-1657 457 0
1657 1454 -457 0
-1658 1210 0
-1658 655 0
1658 -1210 -655 0
-1659 -1131 298 0
-1659 1131 -298 0
1659 1131 298 0
1659 -1131 -298 0
-1660 -1645 0
-1660 -1336 0
1660 1645 1336 0
-1661 558 0
-1661 746 0
1661 -558 -746 0
-1662 -278 0
-1662 -850 0
1662 278 850 0
-1663 1250 0
-1663 170 0
1663 -1250 -170 0
-1664 1615 860 0
-1664 -1615 -860 0
1664 -1615 860 0
1664 1615 -860 0
-1665 -306 84 0
-1665 306 -84 0
1665 306 84 0
1665 -306 -84 0
-1666 -206 0
-1666 -1175 0
1666 206 1175 0
-1667 1259 0
-1667 -1095 0
1667 -1259 1095 0
-1668 -1337 0
-1668 177 0
1668 1337 -177 0
-1669 -1581 0
-1669 -1163 0
1669 1581 1163 0
-1670 655 0
-1670 -1568 0
1670 -655 1568 0
-1671 1593 0
-1671 -1493 0
1671 -1593 1493 0
-1672 -249 1590 0
-1672 249 -1590 0
1672 249 1590 0
1672 -249 -1590 0
-1673 -1671 -487 0
-1673 1671 487 0
1673 1671 -487 0
1673 -1671 487 0
-1674 -364 0
-1674 -537 0
1674 364 537 0
-1675 916 0
-1675 1539 0
1675 -916 -1539 0
-1676 -1357 0
-1676 -1183 0
1676 1357 1183 0
-1677 393 0
-1677 83 0
1677 -393 -83 0
-1678 716 0
-1678 -982 0
1678 -716 982 0
-1679 547 -795 0
-1679 -547 795 0
1679 -547 -795 0
1679 547 795 0
-1680 604 0
-1680 1100 0
1680 -604 -1100 0
-1681 657 0
-1681 -1605 0
1681 -657 1605 0
-1682 -1442 0
-1682 710 0
1682 1442 -710 0
-1683 711 0
-1683 -766 0
1683 -711 766 0
-1684 -1568 0
-1684 1500 0
1684 1568 -1500 0
-1685 114 0
-1685 1311 0
1685 -114 -1311 0
-1686 1626 0
-1686 671 0
1686 -1626 -671 0
-1687 1390 0
-1687 519 0
1687 -1390 -519 0
-1688 -1495 0
-1688 1213 0
1688 1495 -1213 0
-1689 -809 -26 0
-1689 809 26 0
1689 809 -26 0
1689 -809 26 0
-1690 1177 0
-1690 -247 0
1690 -1177 247 0
-1691 -346 0
-1691 1514 0
1691 346 -1514 0
-1692 1065 1669 0
-1692 -1065 -1669 0
1692 -1065 1669 0
1692 1065 -1669 0
-1693 1568 0
-1693 566 0
1693 -1568 -566 0
-1694 -70 0
-1694 951 0
1694 70 -951 0
-1695 -1545 1502 0
-1695 1545 -1502 0
1695 1545 1502 0
1695 -1545 -1502 0
-1696 -465 0
-1696 165 0
1696 465 -165 0
-1697 237 0
-1697 -716 0
1697 -237 716 0
-1698 -1632 1313 0
-1698 1632 -1313 0
1698 1632 1313 0
1698 -1632 -1313 0
-1699 -251 0
-1699 -1304 0
1699 251 1304 0
-1700 388 0
-1700 1491 0
1700 -388 -1491 0
-1701 -952 0
-1701 -491 0
1701 952 491 0
-1702 -1335 0
-1702 141 0
1702 1335 -141 0
-1703 -907 0
-1703 -65 0
1703 907 65 0
-1704 -1615 0
-1704 -613 0
1704 1615 613 0
-1705 569 -1158 0
-1705 -569 1158 0
1705 -569 -1158 0
1705 569 1158 0
-1706 -609 -467 0
-1706 609 467 0
1706 609 -467 0
1706 -609 467 0
-1707 -10 0
-1707 681 0
1707 10 -681 0
-1708 -1647 -1191 0
-1708 1647 1191 0
1708 1647 -1191 0
1708 -1647 1191 0
-1709 1358 0
-1709 -1638 0
1709 -1358 1638 0
-1710 -577 0
-1710 -804 0
1710 577 804 0
-1711 -87 0
-1711 -1250 0
1711 87 1250 0
-1712 -1100 177 0
-1712 1100 -177 0
1712 1100 177 0
1712 -1100 -177 0
-1713 -1455 0
-1713 929 0
1713 1455 -929 0
-1714 -503 0
-1714 -1048 0
1714 503 1048 0
-1715 131 0
-1715 1335 0
1715 -131 -1335 0
-1716 -752 0
-1716 1593 0
1716 752 -1593 0
-1717 -85 0
-1717 833 0
1717 85 -833 0
-1718 447 0
-1718 -1687 0
1718 -447 1687 0
-1719 180 0
-1719 -1043 0
1719 -180 1043 0
-1720 -28 0
-1720 697 0
1720 28 -697 0
-1721 -1327 0
-1721 -66 0
1721 1327 66 0
-1722 -1347 0
-1722 1247 0
1722 1347 -1247 0
-1723 -358 36 0
-1723 358 -36 0
1723 358 36 0
1723 -358 -36 0
-1724 -1097 0
-1724 950 0
1724 1097 -950 0
-1725 -777 0
-1725 1295 0
1725 777 -1295 0
-1726 -1193 0
-1726 -43 0
1726 1193 43 0
-1727 421 0
-1727 298 0
1727 -421 -298 0
-1728 1652 0
-1728 127 0
1728 -1652 -127 0
-1729 -1038 664 0
-1729 1038 -664 0
1729 1038 664 0
1729 -1038 -664 0
-1730 690 0
-1730 -905 0
1730 -690 905 0
-1731 -361 0
-1731 1548 0
1731 361 -1548 0
-1732 -1228 -1149 0
-1732 1228 1149 0
1732 1228 -1149 0
1732 -1228 1149 0
-1733 -283 0
-1733 624 0
1733 283 -624 0
-1734 99 0
-1734 333 0
1734 -99 -333 0
-1735 -1525 0
-1735 390 0
1735 1525 -390 0
-1736 801 0
-1736 -1732 0
1736 -801 1732 0
-1737 -296 0
-1737 1364 0
1737 296 -1364 0
-1738 1174 0
-1738 1320 0
1738 -1174 -1320 0
-1739 222 0
-1739 -1315 0
1739 -222 1315 0
-1740 533 0
-1740 85 0
1740 -533 -85 0
-1741 179 0
-1741 -346 0
1741 -179 346 0
-1742 -366 0
-1742 707 0
1742 366 -707 0
-1743 -1212 0
-1743 620 0
1743 1212 -620 0
-1744 -446 0
-1744 1224 0
1744 446 -1224 0
-1745 1069 -599 0
-1745 -1069 599 0
1745 -1069 -599 0
1745 1069 599 0
-1746 190 0
-1746 1047 0
1746 -190 -1047 0
-1747 284 0
-1747 770 0
1747 -284 -770 0
-1748 824 0
-1748 404 0
1748 -824 -404 0
-1749 -797 1508 0
-1749 797 -1508 0
1749 797 1508 0
1749 -797 -1508 0
-1750 541 0
-1750 -1301 0
1750 -541 1301 0
-1751 26 0
-1751 -466 0
1751 -26 466 0
-1752 -322 0
-1752 704 0
1752 322 -704 0
-1753 1661 333 0
-1753 -1661 -333 0
1753 -1661 333 0
1753 1661 -333 0
-1754 -1151 0
-1754 1094 0
1754 1151 -1094 0
-1755 483 0
-1755 -1050 0
1755 -483 1050 0
-1756 -346 0
-1756 979 0
1756 346 -979 0
-1757 -763 1548 0
-1757 763 -1548 0
1757 763 1548 0
1757 -763 -1548 0
-1758 180 0
-1758 -1264 0
1758 -180 1264 0
-1759 607 -435 0
-1759 -607 435 0
1759 -607 -435 0
1759 607 435 0
-1760 1274 0
-1760 129 0
1760 -1274 -129 0
-1761 1257 0
-1761 771 0
1761 -1257 -771 0
-1762 -1145 0
-1762 1444 0
1762 1145 -1444 0
-1763 1505 759 0
-1763 -1505 -759 0
1763 -1505 759 0
1763 1505 -759 0
-1764 -1073 0
-1764 -811 0
1764 1073 811 0
-1765 -742 0
-1765 -1232 0
1765 742 1232 0
-1766 178 723 0
-1766 -178 -723 0
1766 -178 723 0
1766 178 -723 0
-1767 1561 0
-1767 -1452 0
1767 -1561 1452 0
-1768 216 0
-1768 -1290 0
1768 -216 1290 0
-1769 -1377 0
-1769 1509 0
1769 1377 -1509 0
-1770 -1050 1726 0
-1770 1050 -1726 0
1770 1050 1726 0
1770 -1050 -1726 0
-1771 -314 0
-1771 1164 0
1771 314 -1164 0
-1772 -446 0
-1772 -175 0
1772 446 175 0
-1773 -1667 0
-1773 -876 0
1773 1667 876 0
-1774 -360 -1402 0
-1774 360 1402 0
1774 360 -1402 0
1774 -360 1402 0
-1775 1043 0
-1775 810 0
1775 -1043 -810 0
-1776 -111 0
-1776 -696 0
1776 111 696 0
-1777 439 0
-1777 -1153 0
1777 -439 1153 0
-1778 936 79 0
-1778 -936 -79 0
1778 -936 79 0
1778 936 -79 0
-1779 -1714 0
-1779 635 0
1779 1714 -635 0
-1780 -1548 -1255 0
-1780 1548 1255 0
1780 1548 -1255 0
1780 -1548 1255 0
-1781 324 0
-1781 804 0
1781 -324 -804 0
-1782 -1011 332 0
-1782 1011 -332 0
1782 1011 332 0
1782 -1011 -332 0
-1783 608 0
-1783 145 0
1783 -608 -145 0
-1784 -1054 -909 0
-1784 1054 909 0
1784 1054 -909 0
1784 -1054 909 0
-1785 -1223 0
-1785 -519 0
1785 1223 519 0
-1786 -1260 0
-1786 472 0
1786 1260 -472 0
-1787 1186 0
-1787 271 0
1787 -1186 -271 0
-1788 305 0
-1788 71 0
1788 -305 -71 0
-1789 -838 0
-1789 -1735 0
1789 838 1735 0
-1790 -82 0
-1790 -8 0
1790 82 8 0
-1791 783 0
-1791 397 0
1791 -783 -397 0
-1792 1234 -54 0
-1792 -1234 54 0
1792 -1234 -54 0
1792 1234 54 0
-1793 -648 0
-1793 -831 0
1793 648 831 0
-1794 -794 0
-1794 -1454 0
1794 794 1454 0
-1795 1530 0
-1795 -55 0
1795 -1530 55 0
-1796 24 0
-1796 -629 0
1796 -24 629 0
-1797 -878 0
-1797 -1151 0
1797 878 1151 0
-1798 -1153 0
-1798 1135 0
1798 1153 -1135 0
-1799 315 0
-1799 -704 0
1799 -315 704 0
-1800 -463 0
-1800 -589 0
1800 463 589 0
-1801 1297 0
-1801 -755 0
1801 -1297 755 0
-1802 834 0
-1802 182 0
1802 -834 -182 0
-1803 734 0
-1803 1448 0
1803 -734 -1448 0
-1804 1071 0
-1804 1598 0
1804 -1071 -1598 0
-1805 406 0
-1805 1370 0
1805 -406 -1370 0
-1806 -1703 -1110 0
-1806 1703 1110 0
1806 1703 -1110 0
1806 -1703 1110 0
-1807 422 0
-1807 960 0
1807 -422 -960 0
-1808 -940 0
-1808 1263 0
1808 940 -1263 0
-1809 -1206 0
-1809 -1679 0
1809 1206 1679 0
-1810 875 0
-1810 -464 0
1810 -875 464 0
-1811 -904 0
-1811 1089 0
1811 904 -1089 0
-1812 -1416 -1268 0
-1812 1416 1268 0
1812 1416 -1268 0
1812 -1416 1268 0
-1813 -850 0
-1813 203 0
1813 850 -203 0
-1814 -1426 0
-1814 -487 0
1814 1426 487 0
-1815 1082 0
-1815 -506 0
1815 -1082 506 0
-1816 -806 719 0
-1816 806 -719 0
1816 806 719 0
1816 -806 -719 0
-1817 1082 0
-1817 -1342 0
1817 -1082 1342 0
-1818 -1769 0
-1818 1304 0
1818 1769 -1304 0
-1819 -438 0
-1819 -339 0
1819 438 339 0
-1820 1219 0
-1820 1406 0
1820 -1219 -1406 0
-1821 -71 0
-1821 -560 0
1821 71 560 0
-1822 914 1222 0
-1822 -914 -1222 0
1822 -914 1222 0
1822 914 -1222 0
-1823 -841 773 0
-1823 841 -773 0
1823 841 773 0
1823 -841 -773 0
-1824 -1706 0
-1824 1679 0
1824 1706 -1679 0
-1825 -100 1645 0
-1825 100 -1645 0
1825 100 1645 0
1825 -100 -1645 0
-1826 -52 0
-1826 -82 0
1826 52 82 0
-1827 -707 0
-1827 -1445 0
1827 707 1445 0
-1828 -1084 0
-1828 -1154 0
1828 1084 1154 0
-1829 -456 0
-1829 -1439 0
1829 456 1439 0
-1830 434 0
-1830 -993 0
1830 -434 993 0
-1831 -1371 0
-1831 -1526 0
1831 1371 1526 0
-1832 -1567 0
-1832 185 0
1832 1567 -185 0
-1833 1445 1102 0
-1833 -1445 -1102 0
1833 -1445 1102 0
1833 1445 -1102 0
-1834 719 0
-1834 -703 0
1834 -719 703 0
-1835 1752 1017 0
-1835 -1752 -1017 0
1835 -1752 1017 0
1835 1752 -1017 0
-1836 -346 976 0
-1836 346 -976 0
1836 346 976 0
1836 -346 -976 0
-1837 1316 0
-1837 1739 0
1837 -1316 -1739 0
-1838 970 0
-1838 667 0
1838 -970 -667 0
-1839 -1465 0
-1839 1793 0
1839 1465 -1793 0
-1840 -1682 1457 0
-1840 1682 -1457 0
1840 1682 1457 0
1840 -1682 -1457 0
-1841 1710 0
-1841 -1187 0
1841 -1710 1187 0
-1842 -1216 0
-1842 -954 0
1842 1216 954 0
-1843 395 0
-1843 -1828 0
1843 -395 1828 0
-1844 -1137 0
-1844 -955 0
1844 1137 955 0
-1845 -710 0
-1845 -463 0
1845 710 463 0
-1846 602 0
-1846 1408 0
1846 -602 -1408 0
-1847 1636 0
-1847 -375 0
1847 -1636 375 0
-1848 -96 -1456 0
-1848 96 1456 0
1848 96 -1456 0
1848 -96 1456 0
-1849 1438 0
-1849 -1732 0
1849 -1438 1732 0
-1850 -364 0
-1850 1156 0
1850 364 -1156 0
-1851 1114 0
-1851 -635 0
1851 -1114 635 0
-1852 -162 0
-1852 908 0
1852 162 -908 0
-1853 1670 0
-1853 -1738 0
1853 -1670 1738 0
-1854 -1477 0
-1854 -1234 0
1854 1477 1234 0
-1855 -1701 0
-1855 694 0
1855 1701 -694 0
-1856 149 0
-1856 62 0
1856 -149 -62 0
-1857 931 0
-1857 958 0
1857 -931 -958 0
-1858 -1392 0
-1858 -1189 0
1858 1392 1189 0
-1859 1268 -978 0
-1859 -1268 978 0
1859 -1268 -978 0
1859 1268 978 0
-1860 585 -1388 0
-1860 -585 1388 0
1860 -585 -1388 0
1860 585 1388 0
-1861 -195 0
-1861 79 0
1861 195 -79 0
-1862 -742 0
-1862 -1328 0
1862 742 1328 0
-1863 1664 0
-1863 -105 0
1863 -1664 105 0
-1864 -860 0
-1864 1158 0
1864 860 -1158 0
-1865 735 0
-1865 -1597 0
1865 -735 1597 0
-1866 1791 0
-1866 747 0
1866 -1791 -747 0
-1867 -1497 0
-1867 239 0
1867 1497 -239 0
-1868 -507 956 0
-1868 507 -956 0
1868 507 956 0
1868 -507 -956 0
-1869 -400 0
-1869 -541 0
1869 400 541 0
-1870 1008 0
-1870 -400 0
1870 -1008 400 0
-1871 -1705 -1068 0
-1871 1705 1068 0
1871 1705 -1068 0
1871 -1705 1068 0
-1872 524 0
-1872 -1301 0
1872 -524 1301 0
-1873 -974 0
-1873 -1075 0
1873 974 1075 0
-1874 1814 0
-1874 -584 0
1874 -1814 584 0
-1875 -538 -320 0
-1875 538 320 0
1875 538 -320 0
1875 -538 320 0
-1876 -1752 -1664 0
-1876 1752 1664 0
1876 1752 -1664 0
1876 -1752 1664 0
-1877 959 0
-1877 1593 0
1877 -959 -1593 0
-1878 -1264 0
-1878 -1428 0
1878 1264 1428 0
-1879 425 -1233 0
-1879 -425 1233 0
1879 -425 -1233 0
1879 425 1233 0
-1880 551 0
-1880 -1683 0
1880 -551 1683 0
-1881 -1211 0
-1881 1804 0
1881 1211 -1804 0
-1882 -642 0
-1882 887 0
1882 642 -887 0
-1883 1086 0
-1883 -79 0
1883 -1086 79 0
-1884 -297 -867 0
-1884 297 867 0
1884 297 -867 0
1884 -297 867 0
-1885 1540 0
-1885 -1548 0
1885 -1540 1548 0
-1886 -129 -1628 0
-1886 129 1628 0
1886 129 -1628 0
1886 -129 1628 0
-1887 -1746 0
-1887 1239 0
1887 1746 -1239 0
-1888 -764 0
-1888 69 0
1888 764 -69 0
-1889 770 0
-1889 -856 0
1889 -770 856 0
-1890 397 0
-1890 -236 0
1890 -397 236 0
-1891 1226 0
-1891 302 0
1891 -1226 -302 0
-1892 1333 0
-1892 458 0
1892 -1333 -458 0
-1893 98 -1206 0
-1893 -98 1206 0
1893 -98 -1206 0
1893 98 1206 0
-1894 1631 0
-1894 -1107 0
1894 -1631 1107 0
-1895 1167 0
-1895 958 0
1895 -1167 -958 0
-1896 1007 0
-1896 -1407 0
1896 -1007 1407 0
-1897 186 -1496 0
-1897 -186 1496 0
1897 -186 -1496 0
1897 186 1496 0
-1898 -671 0
-1898 -1886 0
1898 671 1886 0
-1899 370 -326 0
-1899 -370 326 0
1899 -370 -326 0
1899 370 326 0
-1900 -81 189 0
-1900 81 -189 0
1900 81 189 0
1900 -81 -189 0
-1901 -1309 0
-1901 -1456 0
1901 1309 1456 0
-1902 -1672 0
-1902 -1790 0
1902 1672 1790 0
-1903 321 0
-1903 1784 0
1903 -321 -1784 0
-1904 -238 0
-1904 -460 0
1904 238 460 0
-1905 -652 0
-1905 167 0
1905 652 -167 0
-1906 1006 -444 0
-1906 -1006 444 0
1906 -1006 -444 0
1906 1006 444 0
-1907 -1751 0
-1907 -1828 0
1907 1751 1828 0
-1908 335 0
-1908 -750 0
1908 -335 750 0
-1909 -1116 0
-1909 1347 0
1909 1116 -1347 0
-1910 -1899 0
-1910 -1455 0
1910 1899 1455 0
-1911 422 0
-1911 176 0
1911 -422 -176 0
-1912 406 0
-1912 1228 0
1912 -406 -1228 0
-1913 823 1227 0
-1913 -823 -1227 0
1913 -823 1227 0
1913 823 -1227 0
-1914 118 0
-1914 97 0
1914 -118 -97 0
-1915 1849 0
-1915 -1251 0
1915 -1849 1251 0
-1916 521 -881 0
-1916 -521 881 0
1916 -521 -881 0
1916 521 881 0
-1917 -1339 0
-1917 1759 0
1917 1339 -1759 0
-1918 -1862 0
-1918 -359 0
1918 1862 359 0
-1919 -602 958 0
-1919 602 -958 0
1919 602 958 0
1919 -602 -958 0
-1920 788 0
-1920 716 0
1920 -788 -716 0
-1921 1916 0
-1921 698 0
1921 -1916 -698 0
-1922 -1387 0
-1922 1309 0
1922 1387 -1309 0
-1923 -1525 0
-1923 -286 0
1923 1525 286 0
-1924 -1430 0
-1924 313 0
1924 1430 -313 0
-1925 42 1028 0
-1925 -42 -1028 0
1925 -42 1028 0
1925 42 -1028 0
-1926 -560 0
-1926 -467 0
1926 560 467 0
-1927 -886 0
-1927 1853 0
1927 886 -1853 0
-1928 1795 0
-1928 -59 0
1928 -1795 59 0
-1929 1674 0
-1929 472 0
1929 -1674 -472 0
-1930 -1538 0
-1930 -1413 0
1930 1538 1413 0
-1931 1700 0
-1931 662 0
1931 -1700 -662 0
-1932 26 0
-1932 1049 0
1932 -26 -1049 0
-1933 -1210 0
-1933 334 0
1933 1210 -334 0
-1934 -1781 0
-1934 -217 0
1934 1781 217 0
-1935 1251 -994 0
-1935 -1251 994 0
1935 -1251 -994 0
1935 1251 994 0
-1936 1652 0
-1936 -793 0
1936 -1652 793 0
-1937 -1373 0
-1937 -544 0
1937 1373 544 0
-1938 -1884 0
-1938 -1558 0
1938 1884 1558 0
-1939 -1355 0
-1939 -1836 0
1939 1355 1836 0
-1940 -1656 0
-1940 -462 0
1940 1656 462 0
-1941 1797 0
-1941 217 0
1941 -1797 -217 0
-1942 485 0
-1942 -1458 0
1942 -485 1458 0
-1943 -1731 0
-1943 261 0
1943 1731 -261 0
-1944 169 0
-1944 1801 0
1944 -169 -1801 0
-1945 -1142 0
-1945 -17 0
1945 1142 17 0
-1946 -249 0
-1946 -1146 0
1946 249 1146 0
-1947 -1446 0
-1947 -778 0
1947 1446 778 0
-1948 440 0
-1948 555 0
1948 -440 -555 0
-1949 1319 0
-1949 -1947 0
1949 -1319 1947 0
-1950 1049 0
-1950 -1123 0
1950 -1049 1123 0
-1951 -690 0
-1951 -702 0
1951 690 702 0
-1952 1465 0
-1952 -1603 0
1952 -1465 1603 0
-1953 506 0
-1953 1202 0
1953 -506 -1202 0
-1954 -313 0
-1954 1051 0
1954 313 -1051 0
-1955 -227 -286 0
-1955 227 286 0
1955 227 -286 0
1955 -227 286 0
-1956 58 0
-1956 -518 0
1956 -58 518 0
-1957 -1119 0
-1957 566 0
1957 1119 -566 0
-1958 -1320 0
-1958 -1746 0
1958 1320 1746 0
-1959 928 0
-1959 1396 0
1959 -928 -1396 0
-1960 999 0
-1960 -1889 0
1960 -999 1889 0
-1961 1233 0
-1961 1888 0
1961 -1233 -1888 0
-1962 1351 0
-1962 545 0
1962 -1351 -545 0
-1963 -892 1366 0
-1963 892 -1366 0
1963 892 1366 0
1963 -892 -1366 0
-1964 1805 0
-1964 -1744 0
1964 -1805 1744 0
-1965 -429 0
-1965 -73 0
1965 429 73 0
-1966 -176 -212 0
-1966 176 212 0
1966 176 -212 0
1966 -176 212 0
-1967 -89 0
-1967 1601 0
1967 89 -1601 0
-1968 -750 526 0
-1968 750 -526 0
1968 750 526 0
1968 -750 -526 0
-1969 -594 -1822 0
-1969 594 1822 0
1969 594 -1822 0
1969 -594 1822 0
-1970 -1314 0
-1970 -1097 0
1970 1314 1097 0
-1971 293 268 0
-1971 -293 -268 0
1971 -293 268 0
1971 293 -268 0
-1972 -1942 -159 0
-1972 1942 159 0
1972 1942 -159 0
1972 -1942 159 0
-1973 -1483 0
-1973 -352 0
1973 1483 352 0
-1974 -118 0
-1974 1058 0
1974 118 -1058 0
-1975 1323 -97 0
-1975 -1323 97 0
1975 -1323 -97 0
1975 1323 97 0
-1976 1815 -446 0
-1976 -1815 446 0
1976 -1815 -446 0
1976 1815 446 0
-1977 -120 1940 0
-1977 120 -1940 0
1977 120 1940 0
1977 -120 -1940 0
-1978 -802 0
-1978 -895 0
1978 802 895 0
-1979 -1471 1243 0
-1979 1471 -1243 0
1979 1471 1243 0
1979 -1471 -1243 0
-1980 1638 0
-1980 1748 0
1980 -1638 -1748 0
-1981 366 -1689 0
-1981 -366 1689 0
1981 -366 -1689 0
1981 366 1689 0
-1982 -661 1640 0
-1982 661 -1640 0
1982 661 1640 0
1982 -661 -1640 0
-1983 -1236 0
-1983 -31 0
1983 1236 31 0
-1984 -1784 0
-1984 251 0
1984 1784 -251 0
-1985 -1217 0
-1985 1130 0
1985 1217 -1130 0
-1986 -319 622 0
-1986 319 -622 0
1986 319 622 0
1986 -319 -622 0
-1987 1904 -789 0
-1987 -1904 789 0
1987 -1904 -789 0
1987 1904 789 0
-1988 -1616 0
-1988 1404 0
1988 1616 -1404 0
-1989 -383 0
-1989 -766 0
1989 383 766 0
-1990 196 0
-1990 -910 0
1990 -196 910 0
-1991 -437 0
-1991 -1760 0
1991 437 1760 0
-1992 -1350 0
-1992 1949 0
1992 1350 -1949 0
-1993 -329 1876 0
-1993 329 -1876 0
1993 329 1876 0
1993 -329 -1876 0
-1994 1651 -1457 0
-1994 -1651 1457 0
1994 -1651 -1457 0
1994 1651 1457 0
-1995 1697 0
-1995 902 0
1995 -1697 -902 0
-1996 922 0
-1996 -1097 0
1996 -922 1097 0
-1997 -978 0
-1997 -1925 0
1997 978 1925 0
-1998 -1628 -13 0
-1998 1628 13 0
1998 1628 -13 0
1998 -1628 13 0
-1999 609 0
-1999 1553 0
1999 -609 -1553 0
-2000 -1197 -598 0
-2000 1197 598 0
2000 1197 -598 0
2000 -1197 598 0
-2001 128 -345 0
-2001 -128 345 0
2001 -128 -345 0
2001 128 345 0
-2002 -1727 0
-2002 -851 0
2002 1727 851 0
-2003 1268 1809 0
-2003 -1268 -1809 0
2003 -1268 1809 0
2003 1268 -1809 0
-2004 449 0
-2004 1937 0
2004 -449 -1937 0
-2005 -227 0
-2005 -1066 0
2005 227 1066 0
-2006 414 0
-2006 -549 0
2006 -414 549 0
-2007 1031 0
-2007 -492 0
2007 -1031 492 0
-2008 400 0
-2008 456 0
2008 -400 -456 0
-2009 1841 0
-2009 1649 0
2009 -1841 -1649 0
-2010 378 0
-2010 -1356 0
2010 -378 1356 0
-2011 -1960 1013 0
-2011 1960 -1013 0
2011 1960 1013 0
2011 -1960 -1013 0
-2012 131 0
-2012 -708 0
2012 -131 708 0
-2013 1296 -1436 0
-2013 -1296 1436 0
2013 -1296 -1436 0
2013 1296 1436 0
-2014 -1453 0
-2014 -612 0
2014 1453 612 0
-2015 -967 -849 0
-2015 967 849 0
2015 967 -849 0
2015 -967 849 0
-2016 -208 0
-2016 -572 0
2016 208 572 0
-2017 1370 0
-2017 244 0
2017 -1370 -244 0
-2018 -955 0
-2018 -351 0
2018 955 351 0
-2019 -777 0
-2019 -1772 0
2019 777 1772 0
-2020 1626 0
-2020 -611 0
2020 -1626 611 0
-2021 -1771 0
-2021 847 0
2021 1771 -847 0
-2022 477 0
-2022 -775 0
2022 -477 775 0
-2023 948 0
-2023 405 0
2023 -948 -405 0
-2024 812 1734 0
-2024 -812 -1734 0
2024 -812 1734 0
2024 812 -1734 0
-2025 1911 0
-2025 -288 0
2025 -1911 288 0
-2026 1537 0
-2026 -1856 0
2026 -1537 1856 0
-2027 1879 0
-2027 482 0
2027 -1879 -482 0
-2028 -48 0
-2028 -251 0
2028 48 251 0
-2029 -377 0
-2029 1922 0
2029 377 -1922 0
-2030 1867 645 0
-2030 -1867 -645 0
2030 -1867 645 0
2030 1867 -645 0
-2031 -271 0
-2031 -280 0
2031 271 280 0
-2032 -1749 0
-2032 -791 0
2032 1749 791 0
-2033 -691 0
-2033 -1285 0
2033 691 1285 0
-2034 793 0
-2034 1770 0
2034 -793 -1770 0
-2035 -1131 0
-2035 -207 0
2035 1131 207 0
-2036 1317 0
-2036 343 0
2036 -1317 -343 0
-2037 -158 0
-2037 8 0
2037 158 -8 0
-2038 -1115 0
-2038 -551 0
2038 1115 551 0
-2039 -516 0
-2039 -318 0
2039 516 318 0
-2040 -1661 0
-2040 395 0
2040 1661 -395 0
-2041 701 0
-2041 1962 0
2041 -701 -1962 0
-2042 1531 0
-2042 1646 0
2042 -1531 -1646 0
-2043 -1721 -162 0
-2043 1721 162 0
2043 1721 -162 0
2043 -1721 162 0
-2044 -635 0
-2044 942 0
2044 635 -942 0
-2045 -1868 701 0
-2045 1868 -701 0
2045 1868 701 0
2045 -1868 -701 0
-2046 178 2031 0
-2046 -178 -2031 0
2046 -178 2031 0
2046 178 -2031 0
-2047 -227 0
-2047 1449 0
2047 227 -1449 0
-2048 -1817 0
-2048 -1818 0
2048 1817 1818 0
-2049 809 0
-2049 -974 0
2049 -809 974 0
-2050 -29 0
-2050 -83 0
2050 29 83 0
-2051 -1200 0
-2051 -947 0
2051 1200 947 0
-2052 1216 0
-2052 1852 0
2052 -1216 -1852 0
-2053 1856 0
-2053 -1661 0
2053 -1856 1661 0
-2054 -1712 0
-2054 -2008 0
2054 1712 2008 0
-2055 -1677 0
-2055 -1136 0
2055 1677 1136 0
-2056 -1010 0
-2056 1555 0
2056 1010 -1555 0
-2057 1783 -2043 0
-2057 -1783 2043 0
2057 -1783 -2043 0
2057 1783 2043 0
-2058 1303 304 0
-2058 -1303 -304 0
2058 -1303 304 0
2058 1303 -304 0
-2059 -779 0
-2059 1529 0
2059 779 -1529 0
-2060 1519 0
-2060 -776 0
2060 -1519 776 0
-2061 -504 0
-2061 1639 0
2061 504 -1639 0
-2062 489 0
-2062 -282 0
2062 -489 282 0
-2063 -533 0
-2063 -883 0
2063 533 883 0
-2064 -932 0
-2064 -487 0
2064 932 487 0
-2065 1903 0
-2065 1182 0
2065 -1903 -1182 0
-2066 1663 0
-2066 1574 0
2066 -1663 -1574 0
-2067 1392 0
-2067 -1625 0
2067 -1392 1625 0
-2068 891 -826 0
-2068 -891 826 0
2068 -891 -826 0
2068 891 826 0
-2069 911 -561 0
-2069 -911 561 0
2069 -911 -561 0
2069 911 561 0
-2070 1208 0
-2070 -669 0
2070 -1208 669 0
-2071 -493 0
-2071 1928 0
2071 493 -1928 0
-2072 1918 0
-2072 222 0
2072 -1918 -222 0
-2073 -1424 128 0
-2073 1424 -128 0
2073 1424 128 0
2073 -1424 -128 0
-2074 1269 0
-2074 1455 0
2074 -1269 -1455 0
-2075 -834 0
-2075 730 0
2075 834 -730 0
-2076 490 1820 0
-2076 -490 -1820 0
2076 -490 1820 0
2076 490 -1820 0
-2077 -210 0
-2077 -2008 0
2077 210 2008 0
-2078 1659 25 0
-2078 -1659 -25 0
2078 -1659 25 0
2078 1659 -25 0
-2079 -1203 0
-2079 1356 0
2079 1203 -1356 0
-2080 919 551 0
-2080 -919 -551 0
2080 -919 551 0
2080 919 -551 0
-2081 -729 0
-2081 -1878 0
2081 729 1878 0
-2082 -81 0
-2082 1340 0
2082 81 -1340 0
-2083 -1116 0
-2083 -1979 0
2083 1116 1979 0
-2084 1599 -1091 0
-2084 -1599 1091 0
2084 -1599 -1091 0
2084 1599 1091 0
-2085 -940 0
-2085 1252 0
2085 940 -1252 0
-2086 1873 0
-2086 -1790 0
2086 -1873 1790 0
-2087 1311 0
-2087 285 0
2087 -1311 -285 0
-2088 -1972 0
-2088 789 0
2088 1972 -789 0
-2089 -895 0
-2089 1885 0
2089 895 -1885 0
-2090 330 0
-2090 768 0
2090 -330 -768 0
-2091 1186 0
-2091 -605 0
2091 -1186 605 0
-2092 -1750 0
-2092 473 0
2092 1750 -473 0
-2093 -1112 0
-2093 446 0
2093 1112 -446 0
-2094 -16 0
-2094 776 0
2094 16 -776 0
-2095 2019 0
-2095 833 0
2095 -2019 -833 0
-2096 989 0
-2096 -1681 0
2096 -989 1681 0
-2097 373 0
-2097 -527 0
2097 -373 527 0
-2098 1957 0
-2098 -490 0
2098 -1957 490 0
-2099 -768 1222 0
-2099 768 -1222 0
2099 768 1222 0
2099 -768 -1222 0
-2100 -103 0
-2100 -38 0
2100 103 38 0
-2101 239 0
-2101 957 0
2101 -239 -957 0
-2102 1791 0
-2102 877 0
2102 -1791 -877 0
-2103 -606 0
-2103 608 0
2103 606 -608 0
-2104 -1708 0
-2104 -1863 0
2104 1708 1863 0
-2105 -861 0
-2105 1795 0
2105 861 -1795 0
-2106 557 0
-2106 -27 0
2106 -557 27 0
-2107 -1557 0
-2107 782 0
2107 1557 -782 0
-2108 -1349 0
-2108 -618 0
2108 1349 618 0
-2109 519 -1987 0
-2109 -519 1987 0
2109 -519 -1987 0
2109 519 1987 0
-2110 62 0
-2110 -392 0
2110 -62 392 0
-2111 186 0
-2111 -621 0
2111 -186 621 0
-2112 -1030 0
-2112 -1328 0
2112 1030 1328 0
-2113 1945 -2009 0
-2113 -1945 2009 0
2113 -1945 -2009 0
2113 1945 2009 0
-2114 604 0
-2114 1368 0
2114 -604 -1368 0
-2115 -1421 0
-2115 36 0
2115 1421 -36 0
-2116 699 0
-2116 -785 0
2116 -699 785 0
-2117 1049 0
-2117 -1124 0
2117 -1049 1124 0
-2118 820 0
-2118 1190 0
2118 -820 -1190 0
-2119 -588 0
-2119 -9 0
2119 588 9 0
-2120 1843 579 0
-2120 -1843 -579 0
2120 -1843 579 0
2120 1843 -579 0
-2121 -300 0
-2121 451 0
2121 300 -451 0
-2122 -1063 0
-2122 -771 0
2122 1063 771 0
-2123 948 0
-2123 -619 0
2123 -948 619 0
-2124 -1290 1984 0
-2124 1290 -1984 0
2124 1290 1984 0
2124 -1290 -1984 0
-2125 1853 0
-2125 1177 0
2125 -1853 -1177 0
-2126 339 0
-2126 -2036 0
2126 -339 2036 0
-2127 1527 -2061 0
-2127 -1527 2061 0
2127 -1527 -2061 0
2127 1527 2061 0
-2128 1688 0
-2128 1207 0
2128 -1688 -1207 0
-2129 1198 0
-2129 -1724 0
2129 -1198 1724 0
-2130 -136 0
-2130 1830 0
2130 136 -1830 0
-2131 -741 0
-2131 -1081 0
2131 741 1081 0
-2132 -1046 0
-2132 2119 0
2132 1046 -2119 0
-2133 1098 0
-2133 1762 0
2133 -1098 -1762 0
-2134 822 664 0
-2134 -822 -664 0
2134 -822 664 0
2134 822 -664 0
-2135 -1948 0
-2135 -310 0
2135 1948 310 0
-2136 -1208 0
-2136 -314 0
2136 1208 314 0
-2137 -1237 0
-2137 -1101 0
2137 1237 1101 0
-2138 484 0
-2138 -1860 0
2138 -484 1860 0
-2139 908 0
-2139 -1725 0
2139 -908 1725 0
-2140 -1215 0
-2140 -581 0
2140 1215 581 0
-2141 -410 0
-2141 707 0
2141 410 -707 0
-2142 -2085 0
-2142 280 0
2142 2085 -280 0
-2143 568 -1554 0
-2143 -568 1554 0
2143 -568 -1554 0
2143 568 1554 0
-2144 -835 1556 0
-2144 835 -1556 0
2144 835 1556 0
2144 -835 -1556 0
-2145 -2071 0
-2145 784 0
2145 2071 -784 0
-2146 1740 0
-2146 -677 0
2146 -1740 677 0
-2147 120 -1035 0
-2147 -120 1035 0
2147 -120 -1035 0
2147 120 1035 0
-2148 -2126 0
-2148 1236 0
2148 2126 -1236 0
-2149 -235 0
-2149 -2107 0
2149 235 2107 0
-2150 535 0
-2150 1147 0
2150 -535 -1147 0
-2151 -2113 0
-2151 -472 0
2151 2113 472 0
-2152 -1043 -1748 0
-2152 1043 1748 0
2152 1043 -1748 0
2152 -1043 1748 0
-2153 1018 628 0
-2153 -1018 -628 0
2153 -1018 628 0
2153 1018 -628 0
-2154 1877 -1936 0
-2154 -1877 1936 0
2154 -1877 -1936 0
2154 1877 1936 0
-2155 -1172 1594 0
-2155 1172 -1594 0
2155 1172 1594 0
2155 -1172 -1594 0
-2156 -470 1270 0
-2156 470 -1270 0
2156 470 1270 0
2156 -470 -1270 0
-2157 588 0
-2157 -1386 0
2157 -588 1386 0
-2158 2019 0
-2158 510 0
2158 -2019 -510 0
-2159 299 -217 0
-2159 -299 217 0
2159 -299 -217 0
2159 299 217 0
-2160 -850 -163 0
-2160 850 163 0
2160 850 -163 0
2160 -850 163 0
-2161 -78 -1822 0
-2161 78 1822 0
2161 78 -1822 0
2161 -78 1822 0
-2162 -678 0
-2162 -462 0
2162 678 462 0
-2163 -101 0
-2163 1903 0
2163 101 -1903 0
-2164 -1950 0
-2164 -1811 0
2164 1950 1811 0
-2165 -906 0
-2165 765 0
2165 906 -765 0
-2166 -1208 0
-2166 1008 0
2166 1208 -1008 0
-2167 -1089 0
-2167 1933 0
2167 1089 -1933 0
-2168 -1183 472 0
-2168 1183 -472 0
2168 1183 472 0
2168 -1183 -472 0
-2169 1037 0
-2169 -1010 0
2169 -1037 1010 0
-2170 856 0
-2170 -852 0
2170 -856 852 0
-2171 -227 0
-2171 -237 0
2171 227 237 0
-2172 85 0
-2172 -1027 0
2172 -85 1027 0
-2173 306 0
-2173 -1971 0
2173 -306 1971 0
-2174 -1948 0
-2174 -237 0
2174 1948 237 0
-2175 -77 0
-2175 766 0
2175 77 -766 0
-2176 1865 1330 0
-2176 -1865 -1330 0
2176 -1865 1330 0
2176 1865 -1330 0
-2177 -1441 557 0
-2177 1441 -557 0
2177 1441 557 0
2177 -1441 -557 0
-2178 -78 0
-2178 1934 0
2178 78 -1934 0
-2179 -972 2036 0
-2179 972 -2036 0
2179 972 2036 0
2179 -972 -2036 0
-2180 1632 1938 0
-2180 -1632 -1938 0
2180 -1632 1938 0
2180 1632 -1938 0
-2181 -1996 0
-2181 -1939 0
2181 1996 1939 0
-2182 423 0
-2182 2092 0
2182 -423 -2092 0
-2183 1925 0
-2183 417 0
2183 -1925 -417 0
-2184 1409 0
-2184 -1243 0
2184 -1409 1243 0
-2185 -1428 895 0
-2185 1428 -895 0
2185 1428 895 0
2185 -1428 -895 0
-2186 304 0
-2186 -555 0
2186 -304 555 0
-2187 -1161 0
-2187 400 0
2187 1161 -400 0
-2188 2083 0
-2188 -1753 0
2188 -2083 1753 0
-2189 -108 0
-2189 -912 0
2189 108 912 0
-2190 927 0
-2190 1249 0
2190 -927 -1249 0
-2191 1299 0
-2191 1925 0
2191 -1299 -1925 0
-2192 -740 -218 0
-2192 740 218 0
2192 740 -218 0
2192 -740 218 0
-2193 -1392 0
-2193 1005 0
2193 1392 -1005 0
-2194 -1081 0
-2194 -646 0
2194 1081 646 0
-2195 518 0
-2195 15 0
2195 -518 -15 0
-2196 450 0
-2196 1338 0
2196 -450 -1338 0
-2197 -1383 0
-2197 -406 0
2197 1383 406 0
-2198 -951 0
-2198 -597 0
2198 951 597 0
-2199 1228 0
-2199 1030 0
2199 -1228 -1030 0
-2200 1325 0
-2200 -16 0
2200 -1325 16 0
-2201 -667 0
-2201 -494 0
2201 667 494 0
-2202 1930 0
-2202 219 0
2202 -1930 -219 0
-2203 218 0
-2203 153 0
2203 -218 -153 0
-2204 -373 0
-2204 596 0
2204 373 -596 0
-2205 -1074 0
-2205 185 0
2205 1074 -185 0
-2206 616 0
-2206 -1932 0
2206 -616 1932 0
-2207 1315 0
-2207 -2034 0
2207 -1315 2034 0
-2208 -1410 0
-2208 -1228 0
2208 1410 1228 0
-2209 1132 279 0
-2209 -1132 -279 0
2209 -1132 279 0
2209 1132 -279 0
-2210 -1062 0
-2210 1706 0
2210 1062 -1706 0
-2211 2184 -2089 0
-2211 -2184 2089 0
2211 -2184 -2089 0
2211 2184 2089 0
-2212 -655 0
-2212 1080 0
2212 655 -1080 0
-2213 -818 331 0
-2213 818 -331 0
2213 818 331 0
2213 -818 -331 0
-2214 -1768 0
-2214 -1824 0
2214 1768 1824 0
-2215 -2173 0
-2215 -979 0
2215 2173 979 0
-2216 -1585 633 0
-2216 1585 -633 0
2216 1585 633 0
2216 -1585 -633 0
-2217 -1587 0
-2217 925 0
2217 1587 -925 0
-2218 -420 -1738 0
-2218 420 1738 0
2218 420 -1738 0
2218 -420 1738 0
-2219 714 0
-2219 -2189 0
2219 -714 2189 0
-2220 1857 0
-2220 -2128 0
2220 -1857 2128 0
-2221 1594 229 0
-2221 -1594 -229 0
2221 -1594 229 0
2221 1594 -229 0
-2222 -658 0
-2222 1024 0
2222 658 -1024 0
-2223 325 0
-2223 1405 0
2223 -325 -1405 0
-2224 -13 0
-2224 -2099 0
2224 13 2099 0
-2225 -274 0
-2225 -1613 0
2225 274 1613 0
-2226 -1771 0
-2226 117 0
2226 1771 -117 0
-2227 1394 0
-2227 1938 0
2227 -1394 -1938 0
-2228 -1397 0
-2228 -1542 0
2228 1397 1542 0
-2229 -140 -134 0
-2229 140 134 0
2229 140 -134 0
2229 -140 134 0
-2230 -203 -362 0
-2230 203 362 0
2230 203 -362 0
2230 -203 362 0
-2231 2164 0
-2231 769 0
2231 -2164 -769 0
-2232 -1276 0
-2232 935 0
2232 1276 -935 0
-2233 -86 0
-2233 -1471 0
2233 86 1471 0
-2234 66 0
-2234 1172 0
2234 -66 -1172 0
-2235 1550 -1978 0
-2235 -1550 1978 0
2235 -1550 -1978 0
2235 1550 1978 0
-2236 -1822 0
-2236 571 0
2236 1822 -571 0
-2237 -218 361 0
-2237 218 -361 0
2237 218 361 0
2237 -218 -361 0
-2238 -1322 -1156 0
-2238 1322 1156 0
2238 1322 -1156 0
2238 -1322 1156 0
-2239 -1067 -1520 0
-2239 1067 1520 0
2239 1067 -1520 0
2239 -1067 1520 0
-2240 313 0
-2240 2195 0
2240 -313 -2195 0
-2241 509 0
-2241 1756 0
2241 -509 -1756 0
-2242 -374 -2026 0
-2242 374 2026 0
2242 374 -2026 0
2242 -374 2026 0
-2243 -1015 0
-2243 -1531 0
2243 1015 1531 0
-2244 -1596 0
-2244 998 0
2244 1596 -998 0
-2245 -1568 0
-2245 907 0
2245 1568 -907 0
-2246 -2087 0
-2246 -313 0
2246 2087 313 0
-2247 -2097 0
-2247 1867 0
2247 2097 -1867 0
-2248 -1311 1313 0
-2248 1311 -1313 0
2248 1311 1313 0
2248 -1311 -1313 0
-2249 15 0
-2249 -676 0
2249 -15 676 0
-2250 1656 0
-2250 1883 0
2250 -1656 -1883 0
-2251 -2232 0
-2251 -197 0
2251 2232 197 0
-2252 -754 0
-2252 508 0
2252 754 -508 0
-2253 635 0
-2253 -2173 0
2253 -635 2173 0
-2254 1803 0
-2254 137 0
2254 -1803 -137 0
-2255 -1115 0
-2255 388 0
2255 1115 -388 0
-2256 -1759 0
-2256 1183 0
2256 1759 -1183 0
-2257 -1842 0
-2257 -841 0
2257 1842 841 0
-2258 1581 0
-2258 227 0
2258 -1581 -227 0
-2259 -2251 0
-2259 -138 0
2259 2251 138 0
-2260 -1367 -257 0
-2260 1367 257 0
2260 1367 -257 0
2260 -1367 257 0
-2261 1411 -1969 0
-2261 -1411 1969 0
2261 -1411 -1969 0
2261 1411 1969 0
-2262 1024 0
-2262 -1399 0
2262 -1024 1399 0
-2263 1072 0
-2263 -975 0
2263 -1072 975 0
-2264 826 0
-2264 -87 0
2264 -826 87 0
-2265 202 0
-2265 -915 0
2265 -202 915 0
-2266 -785 -742 0
-2266 785 742 0
2266 785 -742 0
2266 -785 742 0
-2267 116 0
-2267 2058 0
2267 -116 -2058 0
-2268 2262 0
-2268 1271 0
2268 -2262 -1271 0
-2269 -1217 0
-2269 -2170 0
2269 1217 2170 0
-2270 837 0
-2270 -238 0
2270 -837 238 0
-2271 681 0
-2271 1125 0
2271 -681 -1125 0
-2272 369 0
-2272 1176 0
2272 -369 -1176 0
-2273 -1171 0
-2273 444 0
2273 1171 -444 0
-2274 -1972 0
-2274 -1410 0
2274 1972 1410 0
-2275 54 293 0
-2275 -54 -293 0
2275 -54 293 0
2275 54 -293 0
-2276 -422 0
-2276 882 0
2276 422 -882 0
-2277 -1604 0
-2277 -1616 0
2277 1604 1616 0
-2278 -929 0
-2278 -126 0
2278 929 126 0
-2279 -604 0
-2279 -968 0
2279 604 968 0
-2280 -1515 0
-2280 -1459 0
2280 1515 1459 0
-2281 1032 0
-2281 -1105 0
2281 -1032 1105 0
-2282 341 0
-2282 -2274 0
2282 -341 2274 0
-2283 1066 0
-2283 -856 0
2283 -1066 856 0
-2284 -127 0
-2284 669 0
2284 127 -669 0
-2285 -521 0
-2285 -956 0
2285 521 956 0
-2286 -502 0
-2286 181 0
2286 502 -181 0
-2287 -2274 0
-2287 2250 0
2287 2274 -2250 0
-2288 968 0
-2288 -1704 0
2288 -968 1704 0
-2289 2181 -1551 0
-2289 -2181 1551 0
2289 -2181 -1551 0
2289 2181 1551 0
-2290 997 -734 0
-2290 -997 734 0
2290 -997 -734 0
2290 997 734 0
-2291 399 546 0
-2291 -399 -546 0
2291 -399 546 0
2291 399 -546 0
-2292 -1545 0
-2292 -442 0
2292 1545 442 0
-2293 -1586 389 0
-2293 1586 -389 0
2293 1586 389 0
2293 -1586 -389 0
-2294 1988 0
-2294 2243 0
2294 -1988 -2243 0
-2295 -1794 0
-2295 -1496 0
2295 1794 1496 0
-2296 2229 0
-2296 -1168 0
2296 -2229 1168 0
-2297 -1848 272 0
-2297 1848 -272 0
2297 1848 272 0
2297 -1848 -272 0
-2298 -888 1390 0
-2298 888 -1390 0
2298 888 1390 0
2298 -888 -1390 0
-2299 -2224 0
-2299 -80 0
2299 2224 80 0
-2300 2193 0
-2300 -1709 0
2300 -2193 1709 0
-2301 -351 0
-2301 -355 0
2301 351 355 0
-2302 -1146 0
-2302 620 0
2302 1146 -620 0
-2303 2184 2099 0
-2303 -2184 -2099 0
2303 -2184 2099 0
2303 2184 -2099 0
-2304 -1479 0
-2304 15 0
2304 1479 -15 0
-2305 1677 0
-2305 2299 0
2305 -1677 -2299 0
-2306 859 0
-2306 -301 0
2306 -859 301 0
-2307 -65 0
-2307 -870 0
2307 65 870 0
-2308 -1410 0
-2308 1639 0
2308 1410 -1639 0
-2309 511 983 0
-2309 -511 -983 0
2309 -511 983 0
2309 511 -983 0
-2310 -1451 0
-2310 1233 0
2310 1451 -1233 0
-2311 -406 0
-2311 -1674 0
2311 406 1674 0
-2312 147 0
-2312 1119 0
2312 -147 -1119 0
-2313 -591 0
-2313 -1628 0
2313 591 1628 0
-2314 1058 0
-2314 -853 0
2314 -1058 853 0
-2315 -2260 0
-2315 1487 0
2315 2260 -1487 0
-2316 -1994 -1486 0
-2316 1994 1486 0
2316 1994 -1486 0
2316 -1994 1486 0
-2317 -581 0
-2317 221 0
2317 581 -221 0
-2318 -194 0
-2318 1422 0
2318 194 -1422 0
-2319 -2289 0
-2319 249 0
2319 2289 -249 0
-2320 830 0
-2320 634 0
2320 -830 -634 0
-2321 729 63 0
-2321 -729 -63 0
2321 -729 63 0
2321 729 -63 0
-2322 -1570 0
-2322 -1319 0
2322 1570 1319 0
-2323 72 0
-2323 1934 0
2323 -72 -1934 0
-2324 -2227 0
-2324 1358 0
2324 2227 -1358 0
-2325 1361 0
-2325 1967 0
2325 -1361 -1967 0
-2326 -1464 0
-2326 -857 0
2326 1464 857 0
-2327 -606 0
-2327 763 0
2327 606 -763 0
-2328 -1198 0
-2328 -416 0
2328 1198 416 0
-2329 1667 0
-2329 327 0
2329 -1667 -327 0
-2330 -21 0
-2330 -2122 0
2330 21 2122 0
-2331 -840 0
-2331 -2079 0
2331 840 2079 0
-2332 -1381 0
-2332 1975 0
2332 1381 -1975 0
-2333 2189 0
-2333 436 0
2333 -2189 -436 0
-2334 -1320 -1788 0
-2334 1320 1788 0
2334 1320 -1788 0
2334 -1320 1788 0
-2335 1941 0
-2335 2065 0
2335 -1941 -2065 0
-2336 -827 0
-2336 -1948 0
2336 827 1948 0
-2337 -2142 0
-2337 1093 0
2337 2142 -1093 0
-2338 214 0
-2338 405 0
2338 -214 -405 0
-2339 -1628 0
-2339 -379 0
2339 1628 379 0
-2340 -2297 0
-2340 -1760 0
2340 2297 1760 0
-2341 65 -1033 0
-2341 -65 1033 0
2341 -65 -1033 0
2341 65 1033 0
-2342 -2288 0
-2342 -1372 0
2342 2288 1372 0
-2343 -1426 0
-2343 1304 0
2343 1426 -1304 0
-2344 -1484 0
-2344 1404 0
2344 1484 -1404 0
-2345 -1519 0
-2345 89 0
2345 1519 -89 0
-2346 138 1593 0
-2346 -138 -1593 0
2346 -138 1593 0
2346 138 -1593 0
-2347 1553 0
-2347 -544 0
2347 -1553 544 0
-2348 -342 0
-2348 -613 0
2348 342 613 0
-2349 1798 0
-2349 1815 0
2349 -1798 -1815 0
-2350 -1739 0
-2350 -1247 0
2350 1739 1247 0
-2351 -1239 0
-2351 -2173 0
2351 1239 2173 0
-2352 1826 0
-2352 1129 0
2352 -1826 -1129 0
-2353 2341 0
-2353 89 0
2353 -2341 -89 0
-2354 -1200 1198 0
-2354 1200 -1198 0
2354 1200 1198 0
2354 -1200 -1198 0
-2355 -1399 0
-2355 -1625 0
2355 1399 1625 0
-2356 2112 -1312 0
-2356 -2112 1312 0
2356 -2112 -1312 0
2356 2112 1312 0
-2357 319 0
-2357 1415 0
2357 -319 -1415 0
-2358 2224 0
-2358 -1762 0
2358 -2224 1762 0
-2359 -345 -1944 0
-2359 345 1944 0
2359 345 -1944 0
2359 -345 1944 0
-2360 -1056 0
-2360 -1414 0
2360 1056 1414 0
-2361 1865 0
-2361 -2163 0
2361 -1865 2163 0
-2362 47 0
-2362 1082 0
2362 -47 -1082 0
-2363 -958 0
-2363 -2215 0
2363 958 2215 0
-2364 -2290 0
-2364 -1816 0
2364 2290 1816 0
-2365 -1480 0
-2365 -395 0
2365 1480 395 0
-2366 -458 0
-2366 -1459 0
2366 458 1459 0
-2367 -1154 0
-2367 -552 0
2367 1154 552 0
-2368 1244 91 0
-2368 -1244 -91 0
2368 -1244 91 0
2368 1244 -91 0
-2369 -220 0
-2369 -2357 0
2369 220 2357 0
-2370 1955 0
-2370 1835 0
2370 -1955 -1835 0
-2371 -1837 0
-2371 -2144 0
2371 1837 2144 0
-2372 762 0
-2372 -1170 0
2372 -762 1170 0
-2373 -1830 0
-2373 -203 0
2373 1830 203 0
-2374 1829 -476 0
-2374 -1829 476 0
2374 -1829 -476 0
2374 1829 476 0
-2375 -109 0
-2375 1900 0
2375 109 -1900 0
-2376 -911 0
-2376 2311 0
2376 911 -2311 0
-2377 2033 0
-2377 -1664 0
2377 -2033 1664 0
-2378 -1528 -269 0
-2378 1528 269 0
2378 1528 -269 0
2378 -1528 269 0
-2379 2289 -1742 0
-2379 -2289 1742 0
2379 -2289 -1742 0
2379 2289 1742 0
-2380 -727 0
-2380 806 0
2380 727 -806 0
-2381 1362 0
-2381 1013 0
2381 -1362 -1013 0
-2382 1109 0
-2382 1537 0
2382 -1109 -1537 0
-2383 1617 0
-2383 -1766 0
2383 -1617 1766 0
-2384 -397 0
-2384 1802 0
2384 397 -1802 0
-2385 373 0
-2385 -341 0
2385 -373 341 0
-2386 479 0
-2386 247 0
2386 -479 -247 0
-2387 -2000 0
-2387 -1798 0
2387 2000 1798 0
-2388 -1299 0
-2388 -1607 0
2388 1299 1607 0
-2389 -103 0
-2389 -950 0
2389 103 950 0
-2390 1966 0
-2390 1858 0
2390 -1966 -1858 0
-2391 833 0
-2391 1043 0
2391 -833 -1043 0
-2392 23 0
-2392 1045 0
2392 -23 -1045 0
-2393 1013 -2083 0
-2393 -1013 2083 0
2393 -1013 -2083 0
2393 1013 2083 0
-2394 -184 0
-2394 1474 0
2394 184 -1474 0
-2395 978 0
-2395 633 0
2395 -978 -633 0
-2396 -2315 0
-2396 663 0
2396 2315 -663 0
-2397 444 0
-2397 1378 0
2397 -444 -1378 0
-2398 -441 0
-2398 1673 0
2398 441 -1673 0
-2399 -1925 0
-2399 1909 0
2399 1925 -1909 0
-2400 -1740 0
-2400 65 0
2400 1740 -65 0
-2401 91 0
-2401 -1402 0
2401 -91 1402 0
-2402 1908 0
-2402 -2064 0
2402 -1908 2064 0
-2403 -2378 -2368 0
-2403 2378 2368 0
2403 2378 -2368 0
2403 -2378 2368 0
-2404 1046 -2154 0
-2404 -1046 2154 0
2404 -1046 -2154 0
2404 1046 2154 0
-2405 418 0
-2405 -865 0
2405 -418 865 0
-2406 -856 438 0
-2406 856 -438 0
2406 856 438 0
2406 -856 -438 0
-2407 -1184 0
-2407 1033 0
2407 1184 -1033 0
-2408 -192 0
-2408 -1311 0
2408 192 1311 0
-2409 1133 0
-2409 1707 0
2409 -1133 -1707 0
-2410 2351 -1841 0
-2410 -2351 1841 0
2410 -2351 -1841 0
2410 2351 1841 0
-2411 227 0
-2411 -45 0
2411 -227 45 0
-2412 -721 0
-2412 -1785 0
2412 721 1785 0
-2413 38 -1344 0
-2413 -38 1344 0
2413 -38 -1344 0
2413 38 1344 0
-2414 1263 0
-2414 -2029 0
2414 -1263 2029 0
-2415 -2333 0
-2415 1176 0
2415 2333 -1176 0
-2416 162 0
-2416 1625 0
2416 -162 -1625 0
-2417 1493 0
-2417 -1591 0
2417 -1493 1591 0
-2418 -1116 170 0
-2418 1116 -170 0
2418 1116 170 0
2418 -1116 -170 0
-2419 834 0
-2419 2258 0
2419 -834 -2258 0
-2420 -349 0
-2420 2258 0
2420 349 -2258 0
-2421 -1515 -720 0
-2421 1515 720 0
2421 1515 -720 0
2421 -1515 720 0
-2422 715 0
-2422 -1396 0
2422 -715 1396 0
-2423 219 0
-2423 -1322 0
2423 -219 1322 0
-2424 881 0
-2424 654 0
2424 -881 -654 0
-2425 -2422 0
-2425 -2298 0
2425 2422 2298 0
-2426 -635 0
-2426 -1521 0
2426 635 1521 0
-2427 261 1261 0
-2427 -261 -1261 0
2427 -261 1261 0
2427 261 -1261 0
-2428 2242 0
-2428 -2310 0
2428 -2242 2310 0
-2429 882 0
-2429 19 0
2429 -882 -19 0
-2430 -2322 0
-2430 2238 0
2430 2322 -2238 0
-2431 -492 0
-2431 -530 0
2431 492 530 0
-2432 -2079 -548 0
-2432 2079 548 0
2432 2079 -548 0
2432 -2079 548 0
-2433 1728 -2319 0
-2433 -1728 2319 0
2433 -1728 -2319 0
2433 1728 2319 0
-2434 538 0
-2434 -1794 0
2434 -538 1794 0
-2435 843 831 0
-2435 -843 -831 0
2435 -843 831 0
2435 843 -831 0
-2436 -802 0
-2436 2348 0
2436 802 -2348 0
-2437 -695 0
-2437 -1180 0
2437 695 1180 0
-2438 1648 0
-2438 -405 0
2438 -1648 405 0
-2439 -937 0
-2439 1672 0
2439 937 -1672 0
-2440 -2333 0
-2440 -1818 0
2440 2333 1818 0
-2441 -1757 0
-2441 1312 0
2441 1757 -1312 0
-2442 1794 0
-2442 56 0
2442 -1794 -56 0
-2443 -1743 -1810 0
-2443 1743 1810 0
2443 1743 -1810 0
2443 -1743 1810 0
-2444 1215 0
-2444 -1831 0
2444 -1215 1831 0
-2445 1489 0
-2445 710 0
2445 -1489 -710 0
-2446 -727 0
-2446 308 0
2446 727 -308 0
-2447 1138 0
-2447 1733 0
2447 -1138 -1733 0
-2448 1868 0
-2448 -509 0
2448 -1868 509 0
-2449 -185 0
-2449 -388 0
2449 185 388 0
-2450 -1130 -385 0
-2450 1130 385 0
2450 1130 -385 0
2450 -1130 385 0
-2451 -1462 0
-2451 384 0
2451 1462 -384 0
-2452 419 0
-2452 921 0
2452 -419 -921 0
-2453 1204 0
-2453 678 0
2453 -1204 -678 0
-2454 -1683 0
-2454 2218 0
2454 1683 -2218 0
-2455 -2022 1150 0
-2455 2022 -1150 0
2455 2022 1150 0
2455 -2022 -1150 0
-2456 -818 -2345 0
-2456 818 2345 0
2456 818 -2345 0
2456 -818 2345 0
-2457 -1041 0
-2457 1849 0
2457 1041 -1849 0
-2458 -2338 0
-2458 -696 0
2458 2338 696 0
-2459 1743 0
-2459 825 0
2459 -1743 -825 0
-2460 -1784 0
-2460 21 0
2460 1784 -21 0
-2461 1542 0
-2461 -437 0
2461 -1542 437 0
-2462 -761 0
-2462 -1277 0
2462 761 1277 0
-2463 -236 -2217 0
-2463 236 2217 0
2463 236 -2217 0
2463 -236 2217 0
-2464 -27 0
-2464 -1864 0
2464 27 1864 0
-2465 -447 0
-2465 139 0
2465 447 -139 0
-2466 -211 0
-2466 1024 0
2466 211 -1024 0
-2467 1197 0
-2467 -1914 0
2467 -1197 1914 0
-2468 -129 0
-2468 2372 0
2468 129 -2372 0
-2469 457 -267 0
-2469 -457 267 0
2469 -457 -267 0
2469 457 267 0
-2470 -700 0
-2470 1126 0
2470 700 -1126 0
-2471 -567 0
-2471 -1314 0
2471 567 1314 0
-2472 -2358 0
-2472 723 0
2472 2358 -723 0
-2473 2361 0
-2473 2079 0
2473 -2361 -2079 0
-2474 1994 0
-2474 -1181 0
2474 -1994 1181 0
-2475 -2463 -2278 0
-2475 2463 2278 0
2475 2463 -2278 0
2475 -2463 2278 0
-2476 -1851 0
-2476 350 0
2476 1851 -350 0
-2477 -507 0
-2477 -2365 0
2477 507 2365 0
-2478 -1531 0
-2478 1565 0
2478 1531 -1565 0
-2479 -1153 0
-2479 2331 0
2479 1153 -2331 0
-2480 -354 0
-2480 -2252 0
2480 354 2252 0
-2481 -1540 0
-2481 -900 0
2481 1540 900 0
-2482 1186 0
-2482 -2344 0
2482 -1186 2344 0
-2483 -1561 -186 0
-2483 1561 186 0
2483 1561 -186 0
2483 -1561 186 0
-2484 -1673 0
-2484 633 0
2484 1673 -633 0
-2485 76 -1358 0
-2485 -76 1358 0
2485 -76 -1358 0
2485 76 1358 0
-2486 -2258 0
-2486 -954 0
2486 2258 954 0
-2487 539 0
-2487 -1947 0
2487 -539 1947 0
-2488 243 0
-2488 308 0
2488 -243 -308 0
-2489 -582 -709 0
-2489 582 709 0
2489 582 -709 0
2489 -582 709 0
-2490 1037 0
-2490 1249 0
2490 -1037 -1249 0
-2491 -2460 0
-2491 -2234 0
2491 2460 2234 0
-2492 -931 0
-2492 -1340 0
2492 931 1340 0
-2493 2270 0
-2493 1094 0
2493 -2270 -1094 0
-2494 889 1669 0
-2494 -889 -1669 0
2494 -889 1669 0
2494 889 -1669 0
-2495 1862 1051 0
-2495 -1862 -1051 0
2495 -1862 1051 0
2495 1862 -1051 0
-2496 -410 0
-2496 -409 0
2496 410 409 0
-2497 1941 1920 0
-2497 -1941 -1920 0
2497 -1941 1920 0
2497 1941 -1920 0
-2498 726 0
-2498 -174 0
2498 -726 174 0
-2499 -618 -1675 0
-2499 618 1675 0
2499 618 -1675 0
2499 -618 1675 0
-2500 -165 0
-2500 561 0
2500 165 -561 0
-2501 249 0
-2501 2084 0
2501 -249 -2084 0
-2502 -67 0
-2502 -1851 0
2502 67 1851 0
-2503 633 0
-2503 -2223 0
2503 -633 2223 0
-2504 -844 0
-2504 646 0
2504 844 -646 0
-2505 1597 0
-2505 1856 0
2505 -1597 -1856 0
-2506 1515 0
-2506 -147 0
2506 -1515 147 0
-2507 -2264 0
-2507 1092 0
2507 2264 -1092 0
-2508 -2228 0
-2508 -2227 0
2508 2228 2227 0
-2509 -2027 272 0
-2509 2027 -272 0
2509 2027 272 0
2509 -2027 -272 0
-2510 -2100 2019 0
-2510 2100 -2019 0
2510 2100 2019 0
2510 -2100 -2019 0
-2511 2488 0
-2511 1565 0
2511 -2488 -1565 0
-2512 -354 0
-2512 1486 0
2512 354 -1486 0
-2513 1081 0
-2513 -2150 0
2513 -1081 2150 0
-2514 -1230 0
-2514 -578 0
2514 1230 578 0
-2515 -1988 1032 0
-2515 1988 -1032 0
2515 1988 1032 0
2515 -1988 -1032 0
-2516 -2189 0
-2516 -217 0
2516 2189 217 0
-2517 -1307 0
-2517 2199 0
2517 1307 -2199 0
-2518 837 -240 0
-2518 -837 240 0
2518 -837 -240 0
2518 837 240 0
-2519 1743 0
-2519 2298 0
2519 -1743 -2298 0
-2520 2180 0
-2520 1743 0
2520 -2180 -1743 0
-2521 -1912 0
-2521 -850 0
2521 1912 850 0
-2522 560 0
-2522 2269 0
2522 -560 -2269 0
-2523 692 0
-2523 -1622 0
2523 -692 1622 0
-2524 818 394 0
-2524 -818 -394 0
2524 -818 394 0
2524 818 -394 0
-2525 2095 0
-2525 606 0
2525 -2095 -606 0
-2526 1545 0
-2526 -231 0
2526 -1545 231 0
-2527 -939 0
-2527 450 0
2527 939 -450 0
-2528 2362 0
-2528 2343 0
2528 -2362 -2343 0
-2529 281 0
-2529 1024 0
2529 -281 -1024 0
-2530 2161 0
-2530 -1458 0
2530 -2161 1458 0
-2531 -1955 0
-2531 386 0
2531 1955 -386 0
-2532 -1058 916 0
-2532 1058 -916 0
2532 1058 916 0
2532 -1058 -916 0
-2533 1781 0
-2533 525 0
2533 -1781 -525 0
-2534 1000 0
-2534 2502 0
2534 -1000 -2502 0
-2535 -465 0
-2535 -1074 0
2535 465 1074 0
-2536 -1689 -999 0
-2536 1689 999 0
2536 1689 -999 0
2536 -1689 999 0
-2537 -1859 0
-2537 2463 0
2537 1859 -2463 0
-2538 -1559 0
-2538 1993 0
2538 1559 -1993 0
-2539 -1659 0
-2539 -265 0
2539 1659 265 0
-2540 -2492 0
-2540 192 0
2540 2492 -192 0
-2541 281 0
-2541 -351 0
2541 -281 351 0
-2542 -967 0
-2542 -532 0
2542 967 532 0
-2543 -1740 1281 0
-2543 1740 -1281 0
2543 1740 1281 0
2543 -1740 -1281 0
-2544 -388 -379 0
-2544 388 379 0
2544 388 -379 0
2544 -388 379 0
-2545 89 -1700 0
-2545 -89 1700 0
2545 -89 -1700 0
2545 89 1700 0
-2546 1732 0
-2546 564 0
2546 -1732 -564 0
-2547 -1406 2285 0
-2547 1406 -2285 0
2547 1406 2285 0
2547 -1406 -2285 0
-2548 -2447 0
-2548 1378 0
2548 2447 -1378 0
-2549 2214 0
-2549 -894 0
2549 -2214 894 0
-2550 271 0
-2550 -832 0
2550 -271 832 0
-2551 -142 0
-2551 2410 0
2551 142 -2410 0
-2552 282 0
-2552 -1187 0
2552 -282 1187 0
-2553 -484 2545 0
-2553 484 -2545 0
2553 484 2545 0
2553 -484 -2545 0
-2554 -1229 0
-2554 -1012 0
2554 1229 1012 0
-2555 -2508 0
-2555 -549 0
2555 2508 549 0
-2556 672 0
-2556 1785 0
2556 -672 -1785 0
-2557 2028 0
-2557 -149 0
2557 -2028 149 0
-2558 -2270 1529 0
-2558 2270 -1529 0
2558 2270 1529 0
2558 -2270 -1529 0
-2559 -2351 0
-2559 430 0
2559 2351 -430 0
-2560 -2396 0
-2560 1116 0
2560 2396 -1116 0
-2561 -1300 -1970 0
-2561 1300 1970 0
2561 1300 -1970 0
2561 -1300 1970 0
-2562 -2435 -1152 0
-2562 2435 1152 0
2562 2435 -1152 0
2562 -2435 1152 0
-2563 1804 327 0
-2563 -1804 -327 0
2563 -1804 327 0
2563 1804 -327 0
-2564 -1905 0
-2564 1526 0
2564 1905 -1526 0
-2565 568 0
-2565 573 0
2565 -568 -573 0
-2566 -1455 0
-2566 937 0
2566 1455 -937 0
-2567 382 0
-2567 -737 0
2567 -382 737 0
-2568 -1042 0
-2568 1059 0
2568 1042 -1059 0
-2569 -2227 0
-2569 2475 0
2569 2227 -2475 0
-2570 1170 0
-2570 226 0
2570 -1170 -226 0
-2571 71 0
-2571 -2078 0
2571 -71 2078 0
-2572 -2410 0
-2572 466 0
2572 2410 -466 0
-2573 -199 0
-2573 2227 0
2573 199 -2227 0
-2574 -434 0
-2574 1706 0
2574 434 -1706 0
-2575 435 0
-2575 1599 0
2575 -435 -1599 0
-2576 1206 0
-2576 -816 0
2576 -1206 816 0
-2577 448 0
-2577 2217 0
2577 -448 -2217 0
-2578 -887 0
-2578 -1122 0
2578 887 1122 0
-2579 1994 0
-2579 2350 0
2579 -1994 -2350 0
-2580 114 0
-2580 738 0
2580 -114 -738 0
-2581 -764 2094 0
-2581 764 -2094 0
2581 764 2094 0
2581 -764 -2094 0
-2582 708 0
-2582 1713 0
2582 -708 -1713 0
-2583 1639 0
-2583 1164 0
2583 -1639 -1164 0
-2584 678 0
-2584 1207 0
2584 -678 -1207 0
-2585 -178 -2060 0
-2585 178 2060 0
2585 178 -2060 0
2585 -178 2060 0
-2586 319 0
-2586 320 0
2586 -319 -320 0
-2587 -9 0
-2587 1840 0
2587 9 -1840 0
-2588 -1661 1677 0
-2588 1661 -1677 0
2588 1661 1677 0
2588 -1661 -1677 0
-2589 -207 -2130 0
-2589 207 2130 0
2589 207 -2130 0
2589 -207 2130 0
-2590 2296 0
-2590 2485 0
2590 -2296 -2485 0
-2591 2257 0
-2591 1723 0
2591 -2257 -1723 0
-2592 -1956 0
-2592 -884 0
2592 1956 884 0
-2593 -2056 0
-2593 -1213 0
2593 2056 1213 0
-2594 -682 0
-2594 -2078 0
2594 682 2078 0
-2595 -173 0
-2595 2003 0
2595 173 -2003 0
-2596 -2351 0
-2596 1907 0
2596 2351 -1907 0
-2597 1189 0
-2597 1080 0
2597 -1189 -1080 0
-2598 2518 0
-2598 2130 0
2598 -2518 -2130 0
-2599 341 0
-2599 1605 0
2599 -341 -1605 0
-2600 1364 -2064 0
-2600 -1364 2064 0
2600 -1364 -2064 0
2600 1364 2064 0
-2601 130 0
-2601 724 0
2601 -130 -724 0
-2602 1036 0
-2602 1581 0
2602 -1036 -1581 0
-2603 208 0
-2603 -2005 0
2603 -208 2005 0
-2604 682 0
-2604 488 0
2604 -682 -488 0
-2605 1089 0
-2605 -1665 0
2605 -1089 1665 0
-2606 -2112 0
-2606 1084 0
2606 2112 -1084 0
-2607 2485 -222 0
-2607 -2485 222 0
2607 -2485 -222 0
2607 2485 222 0
-2608 -256 0
-2608 -2227 0
2608 256 2227 0
-2609 -593 0
-2609 -842 0
2609 593 842 0
-2610 -2379 0
-2610 2265 0
2610 2379 -2265 0
-2611 1403 1062 0
-2611 -1403 -1062 0
2611 -1403 1062 0
2611 1403 -1062 0
-2612 -1212 0
-2612 556 0
2612 1212 -556 0
-2613 -2200 0
-2613 1034 0
2613 2200 -1034 0
-2614 -1708 75 0
-2614 1708 -75 0
2614 1708 75 0
2614 -1708 -75 0
-2615 -1392 0
-2615 -1380 0
2615 1392 1380 0
-2616 -399 0
-2616 1443 0
2616 399 -1443 0
-2617 -1272 0
-2617 1224 0
2617 1272 -1224 0
-2618 2219 0
-2618 1002 0
2618 -2219 -1002 0
-2619 346 0
-2619 537 0
2619 -346 -537 0
-2620 -281 -393 0
-2620 281 393 0
2620 281 -393 0
2620 -281 393 0
-2621 -1373 0
-2621 1953 0
2621 1373 -1953 0
-2622 -1807 0
-2622 -2119 0
2622 1807 2119 0
-2623 -2240 0
-2623 1465 0
2623 2240 -1465 0
-2624 648 0
-2624 2359 0
2624 -648 -2359 0
-2625 1747 -2515 0
-2625 -1747 2515 0
2625 -1747 -2515 0
2625 1747 2515 0
-2626 -197 1293 0
-2626 197 -1293 0
2626 197 1293 0
2626 -197 -1293 0
-2627 1902 1745 0
-2627 -1902 -1745 0
2627 -1902 1745 0
2627 1902 -1745 0
-2628 -1132 0
-2628 -1086 0
2628 1132 1086 0
-2629 2167 0
-2629 -1071 0
2629 -2167 1071 0
-2630 964 2521 0
-2630 -964 -2521 0
2630 -964 2521 0
2630 964 -2521 0
-2631 -961 337 0
-2631 961 -337 0
2631 961 337 0
2631 -961 -337 0
-2632 1894 0
-2632 -1883 0
2632 -1894 1883 0
-2633 1887 -245 0
-2633 -1887 245 0
2633 -1887 -245 0
2633 1887 245 0
-2634 1587 0
-2634 -190 0
2634 -1587 190 0
-2635 -859 -526 0
-2635 859 526 0
2635 859 -526 0
2635 -859 526 0
-2636 193 -1063 0
-2636 -193 1063 0
2636 -193 -1063 0
2636 193 1063 0
-2637 334 0
-2637 -1698 0
2637 -334 1698 0
-2638 2102 -1837 0
-2638 -2102 1837 0
2638 -2102 -1837 0
2638 2102 1837 0
-2639 -1319 0
-2639 -635 0
2639 1319 635 0
-2640 -2391 0
-2640 1438 0
2640 2391 -1438 0
-2641 -2247 0
-2641 -310 0
2641 2247 310 0
-2642 619 0
-2642 1765 0
2642 -619 -1765 0
-2643 1789 0
-2643 -44 0
2643 -1789 44 0
-2644 -1390 0
-2644 -1573 0
2644 1390 1573 0
-2645 -1122 -2399 0
-2645 1122 2399 0
2645 1122 -2399 0
2645 -1122 2399 0
-2646 -2096 0
-2646 -1310 0
2646 2096 1310 0
-2647 -1043 0
-2647 -873 0
2647 1043 873 0
-2648 1582 0
-2648 -338 0
2648 -1582 338 0
-2649 1139 766 0
-2649 -1139 -766 0
2649 -1139 766 0
2649 1139 -766 0
-2650 2156 0
-2650 1342 0
2650 -2156 -1342 0
-2651 1331 0
-2651 857 0
2651 -1331 -857 0
-2652 -1574 0
-2652 -2437 0
2652 1574 2437 0
-2653 -1581 -1730 0
-2653 1581 1730 0
2653 1581 -1730 0
2653 -1581 1730 0
-2654 513 2043 0
-2654 -513 -2043 0
2654 -513 2043 0
2654 513 -2043 0
-2655 -940 0
-2655 -395 0
2655 940 395 0
-2656 -2349 -941 0
-2656 2349 941 0
2656 2349 -941 0
2656 -2349 941 0
-2657 -583 0
-2657 -764 0
2657 583 764 0
-2658 -1459 0
-2658 -2215 0
2658 1459 2215 0
-2659 -2221 2159 0
-2659 2221 -2159 0
2659 2221 2159 0
2659 -2221 -2159 0
-2660 2554 0
-2660 2585 0
2660 -2554 -2585 0
-2661 1843 1633 0
-2661 -1843 -1633 0
2661 -1843 1633 0
2661 1843 -1633 0
-2662 2462 -2239 0
-2662 -2462 2239 0
2662 -2462 -2239 0
2662 2462 2239 0
-2663 -469 0
-2663 1866 0
2663 469 -1866 0
-2664 -1974 0
-2664 2271 0
2664 1974 -2271 0
-2665 -361 0
-2665 1105 0
2665 361 -1105 0
-2666 -1815 0
-2666 -2316 0
2666 1815 2316 0
-2667 -793 0
-2667 2636 0
2667 793 -2636 0
-2668 1782 0
-2668 -1245 0
2668 -1782 1245 0
-2669 408 0
-2669 2405 0
2669 -408 -2405 0
-2670 144 0
-2670 2530 0
2670 -144 -2530 0
-2671 229 694 0
-2671 -229 -694 0
2671 -229 694 0
2671 229 -694 0
-2672 -1725 0
-2672 2299 0
2672 1725 -2299 0
-2673 2278 0
-2673 -2487 0
2673 -2278 2487 0
-2674 822 0
-2674 -2560 0
2674 -822 2560 0
-2675 713 680 0
-2675 -713 -680 0
2675 -713 680 0
2675 713 -680 0
-2676 2580 0
-2676 -1354 0
2676 -2580 1354 0
-2677 839 0
-2677 -2244 0
2677 -839 2244 0
-2678 -2162 -1923 0
-2678 2162 1923 0
2678 2162 -1923 0
2678 -2162 1923 0
-2679 -2564 -819 0
-2679 2564 819 0
2679 2564 -819 0
2679 -2564 819 0
-2680 2476 0
-2680 832 0
2680 -2476 -832 0
-2681 -1779 0
-2681 -1896 0
2681 1779 1896 0
-2682 840 0
-2682 -2263 0
2682 -840 2263 0
-2683 -768 494 0
-2683 768 -494 0
2683 768 494 0
2683 -768 -494 0
-2684 1917 935 0
-2684 -1917 -935 0
2684 -1917 935 0
2684 1917 -935 0
-2685 -344 394 0
-2685 344 -394 0
2685 344 394 0
2685 -344 -394 0
-2686 -195 -81 0
-2686 195 81 0
2686 195 -81 0
2686 -195 81 0
-2687 -2624 0
-2687 -1433 0
2687 2624 1433 0
-2688 -177 0
-2688 101 0
2688 177 -101 0
-2689 719 0
-2689 1855 0
2689 -719 -1855 0
-2690 30 0
-2690 1435 0
2690 -30 -1435 0
-2691 2379 0
-2691 -211 0
2691 -2379 211 0
-2692 -1624 0
-2692 1842 0
2692 1624 -1842 0
-2693 818 -1820 0
-2693 -818 1820 0
2693 -818 -1820 0
2693 818 1820 0
-2694 -1483 557 0
-2694 1483 -557 0
2694 1483 557 0
2694 -1483 -557 0
-2695 -1401 0
-2695 -830 0
2695 1401 830 0
-2696 -153 0
-2696 1125 0
2696 153 -1125 0
-2697 1493 0
-2697 -1889 0
2697 -1493 1889 0
-2698 1782 0
-2698 -578 0
2698 -1782 578 0
-2699 -1660 0
-2699 -1147 0
2699 1660 1147 0
-2700 1661 0
-2700 -622 0
2700 -1661 622 0
-2701 1323 0
-2701 1945 0
2701 -1323 -1945 0
-2702 -1714 0
-2702 -405 0
2702 1714 405 0
-2703 -2547 0
-2703 1039 0
2703 2547 -1039 0
-2704 -1092 0
-2704 247 0
2704 1092 -247 0
-2705 -2433 2474 0
-2705 2433 -2474 0
2705 2433 2474 0
2705 -2433 -2474 0
-2706 -1204 1228 0
-2706 1204 -1228 0
2706 1204 1228 0
2706 -1204 -1228 0
-2707 -1945 0
-2707 -260 0
2707 1945 260 0
-2708 -1480 0
-2708 675 0
2708 1480 -675 0
-2709 1679 1999 0
-2709 -1679 -1999 0
2709 -1679 1999 0
2709 1679 -1999 0
-2710 -1388 0
-2710 501 0
2710 1388 -501 0
-2711 -804 1293 0
-2711 804 -1293 0
2711 804 1293 0
2711 -804 -1293 0
-2712 -1083 0
-2712 2473 0
2712 1083 -2473 0
-2713 2461 0
-2713 -745 0
2713 -2461 745 0
-2714 -1934 0
-2714 2234 0
2714 1934 -2234 0
-2715 673 0
-2715 1183 0
2715 -673 -1183 0
-2716 2057 0
-2716 2252 0
2716 -2057 -2252 0
-2717 -2547 0
-2717 -682 0
2717 2547 682 0
-2718 1945 0
-2718 -1410 0
2718 -1945 1410 0
-2719 1668 0
-2719 458 0
2719 -1668 -458 0
-2720 125 0
-2720 -1723 0
2720 -125 1723 0
-2721 -362 0
-2721 732 0
2721 362 -732 0
-2722 -602 1428 0
-2722 602 -1428 0
2722 602 1428 0
2722 -602 -1428 0
-2723 -1982 0
-2723 2662 0
2723 1982 -2662 0
-2724 -781 0
-2724 5 0
2724 781 -5 0
-2725 -2718 0
-2725 -767 0
2725 2718 767 0
-2726 1592 0
-2726 -2534 0
2726 -1592 2534 0
-2727 992 0
-2727 1185 0
2727 -992 -1185 0
-2728 -1140 0
-2728 -341 0
2728 1140 341 0
-2729 1338 0
-2729 1302 0
2729 -1338 -1302 0
-2730 -654 0
-2730 -864 0
2730 654 864 0
-2731 618 0
-2731 -2568 0
2731 -618 2568 0
-2732 -2152 0
-2732 1382 0
2732 2152 -1382 0
-2733 548 1761 0
-2733 -548 -1761 0
2733 -548 1761 0
2733 548 -1761 0
-2734 2097 0
-2734 -358 0
2734 -2097 358 0
-2735 1940 0
-2735 1375 0
2735 -1940 -1375 0
-2736 -1871 0
-2736 -220 0
2736 1871 220 0
-2737 2018 0
-2737 -1344 0
2737 -2018 1344 0
-2738 -207 0
-2738 -626 0
2738 207 626 0
-2739 2578 0
-2739 2319 0
2739 -2578 -2319 0
-2740 2011 0
-2740 2510 0
2740 -2011 -2510 0
-2741 -790 0
-2741 1053 0
2741 790 -1053 0
-2742 1233 0
-2742 -2730 0
2742 -1233 2730 0
-2743 2335 0
-2743 2044 0
2743 -2335 -2044 0
-2744 2639 0
-2744 31 0
2744 -2639 -31 0
-2745 -1466 0
-2745 -1876 0
2745 1466 1876 0
-2746 -601 0
-2746 580 0
2746 601 -580 0
-2747 -1383 0
-2747 2056 0
2747 1383 -2056 0
-2748 -1077 0
-2748 -1850 0
2748 1077 1850 0
-2749 913 0
-2749 -1658 0
2749 -913 1658 0
-2750 2214 0
-2750 314 0
2750 -2214 -314 0
-2751 -1620 -1057 0
-2751 1620 1057 0
2751 1620 -1057 0
2751 -1620 1057 0
-2752 -151 -2473 0
-2752 151 2473 0
2752 151 -2473 0
2752 -151 2473 0
-2753 2241 0
-2753 340 0
2753 -2241 -340 0
-2754 -1815 0
-2754 -965 0
2754 1815 965 0
-2755 1736 0
-2755 1191 0
2755 -1736 -1191 0
-2756 681 1131 0
-2756 -681 -1131 0
2756 -681 1131 0
2756 681 -1131 0
-2757 1054 0
-2757 2045 0
2757 -1054 -2045 0
-2758 -1412 0
-2758 1098 0
2758 1412 -1098 0
-2759 2406 0
-2759 -2548 0
2759 -2406 2548 0
-2760 -1379 166 0
-2760 1379 -166 0
2760 1379 166 0
2760 -1379 -166 0
-2761 77 0
-2761 2608 0
2761 -77 -2608 0
-2762 1133 0
-2762 1333 0
2762 -1133 -1333 0
-2763 -707 0
-2763 657 0
2763 707 -657 0
-2764 1472 0
-2764 1907 0
2764 -1472 -1907 0
-2765 50 -2422 0
-2765 -50 2422 0
2765 -50 -2422 0
2765 50 2422 0
-2766 293 0
-2766 -1905 0
2766 -293 1905 0
-2767 2145 0
-2767 385 0
2767 -2145 -385 0
-2768 252 0
-2768 -1111 0
2768 -252 1111 0
-2769 1287 0
-2769 -1725 0
2769 -1287 1725 0
-2770 327 0
-2770 2647 0
2770 -327 -2647 0
-2771 -1513 0
-2771 -1906 0
2771 1513 1906 0
-2772 -1887 0
-2772 -748 0
2772 1887 748 0
-2773 2003 0
-2773 2626 0
2773 -2003 -2626 0
-2774 2161 0
-2774 -1522 0
2774 -2161 1522 0
-2775 2674 0
-2775 -2496 0
2775 -2674 2496 0
-2776 1458 0
-2776 -1454 0
2776 -1458 1454 0
-2777 2768 0
-2777 -2356 0
2777 -2768 2356 0
-2778 -719 0
-2778 1294 0
2778 719 -1294 0
-2779 1963 0
-2779 -1491 0
2779 -1963 1491 0
-2780 -170 0
-2780 -848 0
2780 170 848 0
-2781 1121 2582 0
-2781 -1121 -2582 0
2781 -1121 2582 0
2781 1121 -2582 0
-2782 1114 0
-2782 2149 0
2782 -1114 -2149 0
-2783 2156 0
-2783 -643 0
2783 -2156 643 0
-2784 130 0
-2784 -1157 0
2784 -130 1157 0
-2785 808 0
-2785 -1666 0
2785 -808 1666 0
-2786 -2215 533 0
-2786 2215 -533 0
2786 2215 533 0
2786 -2215 -533 0
-2787 1915 0
-2787 -196 0
2787 -1915 196 0
-2788 -1925 1200 0
-2788 1925 -1200 0
2788 1925 1200 0
2788 -1925 -1200 0
-2789 2776 0
-2789 1137 0
2789 -2776 -1137 0
-2790 -733 0
-2790 -2262 0
2790 733 2262 0
-2791 380 0
-2791 356 0
2791 -380 -356 0
-2792 1820 0
-2792 1734 0
2792 -1820 -1734 0
-2793 -1615 0
-2793 -2191 0
2793 1615 2191 0
-2794 478 0
-2794 713 0
2794 -478 -713 0
-2795 -214 -429 0
-2795 214 429 0
2795 214 -429 0
2795 -214 429 0
-2796 -2199 0
-2796 1041 0
2796 2199 -1041 0
-2797 2300 0
-2797 -2077 0
2797 -2300 2077 0
-2798 -2300 0
-2798 -332 0
2798 2300 332 0
-2799 1760 0
-2799 -618 0
2799 -1760 618 0
-2800 1289 0
-2800 2615 0
2800 -1289 -2615 0
-2801 1411 0
-2801 -1508 0
2801 -1411 1508 0
-2802 305 -289 0
-2802 -305 289 0
2802 -305 -289 0
2802 305 289 0
-2803 -2435 0
-2803 -1956 0
2803 2435 1956 0
-2804 -550 0
-2804 -2297 0
2804 550 2297 0
-2805 -2792 0
-2805 1993 0
2805 2792 -1993 0
-2806 -2504 0
-2806 -423 0
2806 2504 423 0
-2807 1729 0
-2807 11 0
2807 -1729 -11 0
-2808 1533 -567 0
-2808 -1533 567 0
2808 -1533 -567 0
2808 1533 567 0
-2809 2393 0
-2809 149 0
2809 -2393 -149 0
-2810 73 -1603 0
-2810 -73 1603 0
2810 -73 -1603 0
2810 73 1603 0
-2811 -1667 -940 0
-2811 1667 940 0
2811 1667 -940 0
2811 -1667 940 0
-2812 2231 0
-2812 93 0
2812 -2231 -93 0
-2813 -2526 0
-2813 362 0
2813 2526 -362 0
-2814 -2129 0
-2814 -1210 0
2814 2129 1210 0
-2815 -874 0
-2815 2545 0
2815 874 -2545 0
-2816 -884 2018 0
-2816 884 -2018 0
2816 884 2018 0
2816 -884 -2018 0
-2817 -2604 0
-2817 2381 0
2817 2604 -2381 0
-2818 726 0
-2818 -938 0
2818 -726 938 0
-2819 -812 0
-2819 -1892 0
2819 812 1892 0
-2820 465 -2191 0
-2820 -465 2191 0
2820 -465 -2191 0
2820 465 2191 0
-2821 -2535 0
-2821 2172 0
2821 2535 -2172 0
-2822 587 0
-2822 -2797 0
2822 -587 2797 0
-2823 -2345 1000 0
-2823 2345 -1000 0
2823 2345 1000 0
2823 -2345 -1000 0
-2824 1075 -432 0
-2824 -1075 432 0
2824 -1075 -432 0
2824 1075 432 0
-2825 1988 -1890 0
-2825 -1988 1890 0
2825 -1988 -1890 0
2825 1988 1890 0
-2826 -51 0
-2826 -592 0
2826 51 592 0
-2827 -687 0
-2827 -2289 0
2827 687 2289 0
-2828 348 0
-2828 1791 0
2828 -348 -1791 0
-2829 -2144 -2006 0
-2829 2144 2006 0
2829 2144 -2006 0
2829 -2144 2006 0
-2830 2566 -245 0
-2830 -2566 245 0
2830 -2566 -245 0
2830 2566 245 0
-2831 2361 0
-2831 -2561 0
2831 -2361 2561 0
-2832 1884 2315 0
-2832 -1884 -2315 0
2832 -1884 2315 0
2832 1884 -2315 0
-2833 -2433 0
-2833 2777 0
2833 2433 -2777 0
-2834 -1381 0
-2834 2130 0
2834 1381 -2130 0
-2835 382 0
-2835 -259 0
2835 -382 259 0
-2836 -1647 0
-2836 2518 0
2836 1647 -2518 0
-2837 -264 0
-2837 -705 0
2837 264 705 0
-2838 1615 0
-2838 -1641 0
2838 -1615 1641 0
-2839 -233 0
-2839 1499 0
2839 233 -1499 0
-2840 217 0
-2840 -2697 0
2840 -217 2697 0
-2841 1098 -480 0
-2841 -1098 480 0
2841 -1098 -480 0
2841 1098 480 0
-2842 -2651 1864 0
-2842 2651 -1864 0
2842 2651 1864 0
2842 -2651 -1864 0
-2843 335 0
-2843 1772 0
2843 -335 -1772 0
-2844 -1713 916 0
-2844 1713 -916 0
2844 1713 916 0
2844 -1713 -916 0
-2845 2673 0
-2845 -416 0
2845 -2673 416 0
-2846 -381 0
-2846 -736 0
2846 381 736 0
-2847 -275 549 0
-2847 275 -549 0
2847 275 549 0
2847 -275 -549 0
-2848 -471 0
-2848 2846 0
2848 471 -2846 0
-2849 -1702 0
-2849 1576 0
2849 1702 -1576 0
-2850 -986 0
-2850 -1833 0
2850 986 1833 0
-2851 -1126 0
-2851 1530 0
2851 1126 -1530 0
-2852 2288 -2140 0
-2852 -2288 2140 0
2852 -2288 -2140 0
2852 2288 2140 0
-2853 2700 1609 0
-2853 -2700 -1609 0
2853 -2700 1609 0
2853 2700 -1609 0
-2854 -2241 1831 0
-2854 2241 -1831 0
2854 2241 1831 0
2854 -2241 -1831 0
-2855 1591 0
-2855 -784 0
2855 -1591 784 0
-2856 -1292 0
-2856 1263 0
2856 1292 -1263 0
-2857 -494 0
-2857 -1827 0
2857 494 1827 0
-2858 -172 0
-2858 -2135 0
2858 172 2135 0
-2859 1274 -919 0
-2859 -1274 919 0
2859 -1274 -919 0
2859 1274 919 0
-2860 1416 0
-2860 268 0
2860 -1416 -268 0
-2861 1889 154 0
-2861 -1889 -154 0
2861 -1889 154 0
2861 1889 -154 0
-2862 1050 0
-2862 1267 0
2862 -1050 -1267 0
-2863 -1912 0
-2863 101 0
2863 1912 -101 0
-2864 493 0
-2864 674 0
2864 -493 -674 0
-2865 -2410 739 0
-2865 2410 -739 0
2865 2410 739 0
2865 -2410 -739 0
-2866 -2835 0
-2866 734 0
2866 2835 -734 0
-2867 2490 0
-2867 729 0
2867 -2490 -729 0
-2868 -1981 0
-2868 905 0
2868 1981 -905 0
-2869 2667 0
-2869 -1133 0
2869 -2667 1133 0
-2870 2543 0
-2870 940 0
2870 -2543 -940 0
-2871 -1808 2437 0
-2871 1808 -2437 0
2871 1808 2437 0
2871 -1808 -2437 0
-2872 556 0
-2872 1122 0
2872 -556 -1122 0
-2873 -2242 0
-2873 -1979 0
2873 2242 1979 0
-2874 -2134 -746 0
-2874 2134 746 0
2874 2134 -746 0
2874 -2134 746 0
-2875 -671 0
-2875 -1954 0
2875 671 1954 0
-2876 2229 0
-2876 939 0
2876 -2229 -939 0
-2877 -285 0
-2877 -1964 0
2877 285 1964 0
-2878 -296 386 0
-2878 296 -386 0
2878 296 386 0
2878 -296 -386 0
-2879 2765 0
-2879 1302 0
2879 -2765 -1302 0
-2880 -1501 0
-2880 -420 0
2880 1501 420 0
-2881 172 0
-2881 2021 0
2881 -172 -2021 0
-2882 -663 432 0
-2882 663 -432 0
2882 663 432 0
2882 -663 -432 0
-2883 2505 0
-2883 1536 0
2883 -2505 -1536 0
-2884 1104 -2775 0
-2884 -1104 2775 0
2884 -1104 -2775 0
2884 1104 2775 0
-2885 -2071 0
-2885 -1638 0
2885 2071 1638 0
-2886 -838 0
-2886 249 0
2886 838 -249 0
-2887 2035 0
-2887 556 0
2887 -2035 -556 0
-2888 -1417 0
-2888 407 0
2888 1417 -407 0
-2889 1363 0
-2889 947 0
2889 -1363 -947 0
-2890 -2174 0
-2890 -55 0
2890 2174 55 0
-2891 937 0
-2891 1024 0
2891 -937 -1024 0
-2892 -2453 -2071 0
-2892 2453 2071 0
2892 2453 -2071 0
2892 -2453 2071 0
-2893 2315 0
-2893 -2545 0
2893 -2315 2545 0
-2894 835 0
-2894 1498 0
2894 -835 -1498 0
-2895 1898 0
-2895 961 0
2895 -1898 -961 0
-2896 1941 0
-2896 2025 0
2896 -1941 -2025 0
-2897 -1805 0
-2897 955 0
2897 1805 -955 0
-2898 180 0
-2898 2712 0
2898 -180 -2712 0
-2899 -2189 0
-2899 501 0
2899 2189 -501 0
-2900 751 -1113 0
-2900 -751 1113 0
2900 -751 -1113 0
2900 751 1113 0
-2901 -2874 0
-2901 149 0
2901 2874 -149 0
-2902 2005 0
-2902 -2473 0
2902 -2005 2473 0
-2903 -1486 -2670 0
-2903 1486 2670 0
2903 1486 -2670 0
2903 -1486 2670 0
-2904 2153 0
-2904 -1741 0
2904 -2153 1741 0
-2905 -2546 0
-2905 1180 0
2905 2546 -1180 0
-2906 -336 0
-2906 888 0
2906 336 -888 0
-2907 2042 0
-2907 163 0
2907 -2042 -163 0
-2908 -1923 -790 0
-2908 1923 790 0
2908 1923 -790 0
2908 -1923 790 0
-2909 -1265 372 0
-2909 1265 -372 0
2909 1265 372 0
2909 -1265 -372 0
-2910 -984 0
-2910 101 0
2910 984 -101 0
-2911 -2402 0
-2911 318 0
2911 2402 -318 0
-2912 -1368 0
-2912 -2728 0
2912 1368 2728 0
-2913 749 0
-2913 -368 0
2913 -749 368 0
-2914 -1546 0
-2914 -1377 0
2914 1546 1377 0
-2915 -1007 0
-2915 2133 0
2915 1007 -2133 0
-2916 2696 0
-2916 -1705 0
2916 -2696 1705 0
-2917 -378 0
-2917 1044 0
2917 378 -1044 0
-2918 -230 0
-2918 1803 0
2918 230 -1803 0
-2919 -2793 0
-2919 -1083 0
2919 2793 1083 0
-2920 -2655 0
-2920 -50 0
2920 2655 50 0
-2921 1655 0
-2921 203 0
2921 -1655 -203 0
-2922 1028 0
-2922 1358 0
2922 -1028 -1358 0
-2923 1142 0
-2923 218 0
2923 -1142 -218 0
-2924 -963 0
-2924 -2608 0
2924 963 2608 0
-2925 1809 0
-2925 -1418 0
2925 -1809 1418 0
-2926 251 403 0
-2926 -251 -403 0
2926 -251 403 0
2926 251 -403 0
-2927 -1543 0
-2927 1877 0
2927 1543 -1877 0
-2928 1219 0
-2928 -2879 0
2928 -1219 2879 0
-2929 741 0
-2929 2321 0
2929 -741 -2321 0
-2930 2174 612 0
-2930 -2174 -612 0
2930 -2174 612 0
2930 2174 -612 0
-2931 -1641 0
-2931 -181 0
2931 1641 181 0
-2932 2756 0
-2932 158 0
2932 -2756 -158 0
-2933 891 0
-2933 -2759 0
2933 -891 2759 0
-2934 1696 2502 0
-2934 -1696 -2502 0
2934 -1696 2502 0
2934 1696 -2502 0
-2935 692 0
-2935 -704 0
2935 -692 704 0
-2936 1903 -1604 0
-2936 -1903 1604 0
2936 -1903 -1604 0
2936 1903 1604 0
-2937 913 0
-2937 1510 0
2937 -913 -1510 0
-2938 2591 -799 0
-2938 -2591 799 0
2938 -2591 -799 0
2938 2591 799 0
-2939 806 0
-2939 131 0
2939 -806 -131 0
-2940 -85 0
-2940 2292 0
2940 85 -2292 0
-2941 1845 0
-2941 2216 0
2941 -1845 -2216 0
-2942 -1565 0
-2942 708 0
2942 1565 -708 0
-2943 -2810 -2281 0
-2943 2810 2281 0
2943 2810 -2281 0
2943 -2810 2281 0
-2944 -2899 0
-2944 -2658 0
2944 2899 2658 0
-2945 -484 -1113 0
-2945 484 1113 0
2945 484 -1113 0
2945 -484 1113 0
-2946 1144 0
-2946 -847 0
2946 -1144 847 0
-2947 164 0
-2947 -727 0
2947 -164 727 0
-2948 -2314 2049 0
-2948 2314 -2049 0
2948 2314 2049 0
2948 -2314 -2049 0
-2949 1683 -1502 0
-2949 -1683 1502 0
2949 -1683 -1502 0
2949 1683 1502 0
-2950 1990 0
-2950 1732 0
2950 -1990 -1732 0
-2951 -137 0
-2951 -1415 0
2951 137 1415 0
-2952 -2126 0
-2952 -2382 0
2952 2126 2382 0
-2953 -866 0
-2953 -1491 0
2953 866 1491 0
-2954 342 0
-2954 -458 0
2954 -342 458 0
-2955 2342 2599 0
-2955 -2342 -2599 0
2955 -2342 2599 0
2955 2342 -2599 0
-2956 -1242 0
-2956 -2206 0
2956 1242 2206 0
-2957 664 -1228 0
-2957 -664 1228 0
2957 -664 -1228 0
2957 664 1228 0
-2958 1248 0
-2958 -312 0
2958 -1248 312 0
-2959 1658 0
-2959 -202 0
2959 -1658 202 0
-2960 -589 0
-2960 -905 0
2960 589 905 0
-2961 582 -476 0
-2961 -582 476 0
2961 -582 -476 0
2961 582 476 0
-2962 -1698 0
-2962 -1257 0
2962 1698 1257 0
-2963 2496 0
-2963 -1756 0
2963 -2496 1756 0
-2964 -1967 0
-2964 -2544 0
2964 1967 2544 0
-2965 1589 0
-2965 1057 0
2965 -1589 -1057 0
-2966 663 0
-2966 -1343 0
2966 -663 1343 0
-2967 1725 0
-2967 -2707 0
2967 -1725 2707 0
-2968 -1281 0
-2968 -666 0
2968 1281 666 0
-2969 -2750 -996 0
-2969 2750 996 0
2969 2750 -996 0
2969 -2750 996 0
-2970 2034 800 0
-2970 -2034 -800 0
2970 -2034 800 0
2970 2034 -800 0
-2971 2161 0
-2971 314 0
2971 -2161 -314 0
-2972 2925 0
-2972 -272 0
2972 -2925 272 0
-2973 1242 0
-2973 -861 0
2973 -1242 861 0
-2974 -687 0
-2974 -1814 0
2974 687 1814 0
-2975 1893 2548 0
-2975 -1893 -2548 0
2975 -1893 2548 0
2975 1893 -2548 0
-2976 1569 -2253 0
-2976 -1569 2253 0
2976 -1569 -2253 0
2976 1569 2253 0
-2977 419 0
-2977 -1617 0
2977 -419 1617 0
-2978 -959 2811 0
-2978 959 -2811 0
2978 959 2811 0
2978 -959 -2811 0
-2979 -1634 2509 0
-2979 1634 -2509 0
2979 1634 2509 0
2979 -1634 -2509 0
-2980 -2557 0
-2980 -2931 0
2980 2557 2931 0
-2981 2458 0
-2981 -341 0
2981 -2458 341 0
-2982 2236 0
-2982 -93 0
2982 -2236 93 0
-2983 491 -932 0
-2983 -491 932 0
2983 -491 -932 0
2983 491 932 0
-2984 2747 0
-2984 -896 0
2984 -2747 896 0
-2985 50 0
-2985 -1125 0
2985 -50 1125 0
-2986 -1995 430 0
-2986 1995 -430 0
2986 1995 430 0
2986 -1995 -430 0
-2987 2253 0
-2987 -1391 0
2987 -2253 1391 0
-2988 2681 1704 0
-2988 -2681 -1704 0
2988 -2681 1704 0
2988 2681 -1704 0
-2989 -1372 0
-2989 2610 0
2989 1372 -2610 0
-2990 1702 0
-2990 1805 0
2990 -1702 -1805 0
-2991 -1244 -2243 0
-2991 1244 2243 0
2991 1244 -2243 0
2991 -1244 2243 0
-2992 1358 0
-2992 2593 0
2992 -1358 -2593 0
-2993 1153 0
-2993 -1758 0
2993 -1153 1758 0
-2994 -2987 0
-2994 1576 0
2994 2987 -1576 0
-2995 176 0
-2995 -2319 0
2995 -176 2319 0
-2996 1952 0
-2996 2290 0
2996 -1952 -2290 0
-2997 1169 0
-2997 -2849 0
2997 -1169 2849 0
-2998 2319 0
-2998 -2711 0
2998 -2319 2711 0
-2999 -1364 0
-2999 2401 0
2999 1364 -2401 0
-3000 -101 0
-3000 193 0
3000 101 -193 0
-3001 1680 0
-3001 408 0
3001 -1680 -408 0
-3002 -219 0
-3002 937 0
3002 219 -937 0
-3003 -1264 1762 0
-3003 1264 -1762 0
3003 1264 1762 0
3003 -1264 -1762 0
-3004 -1146 534 0
-3004 1146 -534 0
3004 1146 534 0
3004 -1146 -534 0
-3005 -837 0
-3005 -2665 0
3005 837 2665 0
-3006 -2903 0
-3006 -2720 0
3006 2903 2720 0
-3007 -1969 0
-3007 -2169 0
3007 1969 2169 0
-3008 -483 0
-3008 1364 0
3008 483 -1364 0
-3009 449 0
-3009 964 0
3009 -449 -964 0
-3010 2387 0
-3010 -9 0
3010 -2387 9 0
-3011 -1020 -2141 0
-3011 1020 2141 0
3011 1020 -2141 0
3011 -1020 2141 0
-3012 316 627 0
-3012 -316 -627 0
3012 -316 627 0
3012 316 -627 0
-3013 -565 0
-3013 2022 0
3013 565 -2022 0
-3014 -1377 0
-3014 -2800 0
3014 1377 2800 0
-3015 2650 -569 0
-3015 -2650 569 0
3015 -2650 -569 0
3015 2650 569 0
-3016 78 0
-3016 -856 0
3016 -78 856 0
-3017 -2117 0
-3017 -470 0
3017 2117 470 0
-3018 2653 0
-3018 -2446 0
3018 -2653 2446 0
-3019 -1601 0
-3019 220 0
3019 1601 -220 0
-3020 2771 0
-3020 -2308 0
3020 -2771 2308 0
-3021 2976 0
-3021 -2512 0
3021 -2976 2512 0
-3022 673 -496 0
-3022 -673 496 0
3022 -673 -496 0
3022 673 496 0
-3023 2852 0
-3023 785 0
3023 -2852 -785 0
-3024 -1265 0
-3024 1499 0
3024 1265 -1499 0
-3025 -1483 722 0
-3025 1483 -722 0
3025 1483 722 0
3025 -1483 -722 0
-3026 -921 0
-3026 -443 0
3026 921 443 0
-3027 -1828 0
-3027 -2567 0
3027 1828 2567 0
-3028 -905 0
-3028 1413 0
3028 905 -1413 0
-3029 -2754 0
-3029 381 0
3029 2754 -381 0
-3030 2470 0
-3030 2017 0
3030 -2470 -2017 0
-3031 1453 0
-3031 -943 0
3031 -1453 943 0
-3032 -881 0
-3032 1687 0
3032 881 -1687 0
-3033 -1816 0
-3033 1336 0
3033 1816 -1336 0
-3034 1112 0
-3034 2587 0
3034 -1112 -2587 0
-3035 -1251 0
-3035 1875 0
3035 1251 -1875 0
-3036 211 119 0
-3036 -211 -119 0
3036 -211 119 0
3036 211 -119 0
-3037 1983 -2395 0
-3037 -1983 2395 0
3037 -1983 -2395 0
3037 1983 2395 0
-3038 1528 0
-3038 -1586 0
3038 -1528 1586 0
-3039 1955 0
-3039 -225 0
3039 -1955 225 0
-3040 94 0
-3040 -718 0
3040 -94 718 0
-3041 2617 -2844 0
-3041 -2617 2844 0
3041 -2617 -2844 0
3041 2617 2844 0
-3042 1034 0
-3042 -574 0
3042 -1034 574 0
-3043 992 0
-3043 512 0
3043 -992 -512 0
-3044 563 814 0
-3044 -563 -814 0
3044 -563 814 0
3044 563 -814 0
-3045 1059 0
-3045 -2775 0
3045 -1059 2775 0
-3046 56 0
-3046 -1652 0
3046 -56 1652 0
-3047 -1654 -1998 0
-3047 1654 1998 0
3047 1654 -1998 0
3047 -1654 1998 0
-3048 -2788 0
-3048 -2213 0
3048 2788 2213 0
-3049 782 0
-3049 2520 0
3049 -782 -2520 0
-3050 -1435 0
-3050 -1691 0
3050 1435 1691 0
-3051 803 0
-3051 -2730 0
3051 -803 2730 0
-3052 -1605 -1292 0
-3052 1605 1292 0
3052 1605 -1292 0
3052 -1605 1292 0
-3053 979 -240 0
-3053 -979 240 0
3053 -979 -240 0
3053 979 240 0
-3054 -971 0
-3054 1131 0
3054 971 -1131 0
-3055 3018 -1885 0
-3055 -3018 1885 0
3055 -3018 -1885 0
3055 3018 1885 0
-3056 -80 0
-3056 -1578 0
3056 80 1578 0
-3057 426 0
-3057 -908 0
3057 -426 908 0
-3058 -2280 -373 0
-3058 2280 373 0
3058 2280 -373 0
3058 -2280 373 0
-3059 2471 0
-3059 416 0
3059 -2471 -416 0
-3060 1807 0
-3060 -2917 0
3060 -1807 2917 0
-3061 1217 0
-3061 -203 0
3061 -1217 203 0
-3062 55 0
-3062 27 0
3062 -55 -27 0
-3063 -1332 0
-3063 -41 0
3063 1332 41 0
-3064 -272 -2255 0
-3064 272 2255 0
3064 272 -2255 0
3064 -272 2255 0
-3065 2049 -680 0
-3065 -2049 680 0
3065 -2049 -680 0
3065 2049 680 0
-3066 1477 0
-3066 -2392 0
3066 -1477 2392 0
-3067 -45 0
-3067 1784 0
3067 45 -1784 0
-3068 -1810 0
-3068 -2611 0
3068 1810 2611 0
-3069 -1035 0
-3069 -2775 0
3069 1035 2775 0
-3070 -1901 1636 0
-3070 1901 -1636 0
3070 1901 1636 0
3070 -1901 -1636 0
-3071 104 0
-3071 877 0
3071 -104 -877 0
-3072 339 0
-3072 1374 0
3072 -339 -1374 0
-3073 -1174 0
-3073 600 0
3073 1174 -600 0
-3074 -3062 0
-3074 -994 0
3074 3062 994 0
-3075 1433 0
-3075 644 0
3075 -1433 -644 0
-3076 557 0
-3076 1871 0
3076 -557 -1871 0
-3077 1708 -1686 0
-3077 -1708 1686 0
3077 -1708 -1686 0
3077 1708 1686 0
-3078 1495 0
-3078 -3023 0
3078 -1495 3023 0
-3079 -2681 -472 0
-3079 2681 472 0
3079 2681 -472 0
3079 -2681 472 0
-3080 -2402 0
-3080 -480 0
3080 2402 480 0
-3081 500 1246 0
-3081 -500 -1246 0
3081 -500 1246 0
3081 500 -1246 0
-3082 2451 0
-3082 1105 0
3082 -2451 -1105 0
-3083 1716 0
-3083 2503 0
3083 -1716 -2503 0
-3084 769 0
-3084 -1462 0
3084 -769 1462 0
-3085 -2269 0
-3085 2866 0
3085 2269 -2866 0
-3086 -1859 0
-3086 -756 0
3086 1859 756 0
-3087 2338 0
-3087 -1459 0
3087 -2338 1459 0
-3088 -2099 0
-3088 2394 0
3088 2099 -2394 0
-3089 -1878 0
-3089 -3080 0
3089 1878 3080 0
-3090 1155 0
-3090 -1507 0
3090 -1155 1507 0
-3091 2514 671 0
-3091 -2514 -671 0
3091 -2514 671 0
3091 2514 -671 0
-3092 -1857 1953 0
-3092 1857 -1953 0
3092 1857 1953 0
3092 -1857 -1953 0
-3093 2643 0
-3093 2975 0
3093 -2643 -2975 0
-3094 -2365 0
-3094 2148 0
3094 2365 -2148 0
-3095 1218 0
-3095 -1067 0
3095 -1218 1067 0
-3096 763 0
-3096 -588 0
3096 -763 588 0
-3097 -1495 408 0
-3097 1495 -408 0
3097 1495 408 0
3097 -1495 -408 0
-3098 -1585 0
-3098 -866 0
3098 1585 866 0
-3099 -40 0
-3099 1390 0
3099 40 -1390 0
-3100 -402 -868 0
-3100 402 868 0
3100 402 -868 0
3100 -402 868 0
-3101 -1318 0
-3101 -2652 0
3101 1318 2652 0
-3102 1330 0
-3102 -182 0
3102 -1330 182 0
-3103 403 0
-3103 2936 0
3103 -403 -2936 0
-3104 457 0
-3104 2861 0
3104 -457 -2861 0
-3105 494 0
-3105 -1559 0
3105 -494 1559 0
-3106 -2889 -1756 0
-3106 2889 1756 0
3106 2889 -1756 0
3106 -2889 1756 0
-3107 1831 0
-3107 242 0
3107 -1831 -242 0
-3108 -2045 0
-3108 -377 0
3108 2045 377 0
-3109 3093 0
-3109 522 0
3109 -3093 -522 0
-3110 2756 0
-3110 654 0
3110 -2756 -654 0
-3111 2080 463 0
-3111 -2080 -463 0
3111 -2080 463 0
3111 2080 -463 0
-3112 1912 2815 0
-3112 -1912 -2815 0
3112 -1912 2815 0
3112 1912 -2815 0
-3113 -168 0
-3113 -541 0
3113 168 541 0
-3114 -1375 0
-3114 -2913 0
3114 1375 2913 0
-3115 1492 0
-3115 -1708 0
3115 -1492 1708 0
-3116 -3049 0
-3116 -650 0
3116 3049 650 0
-3117 2339 0
-3117 -40 0
3117 -2339 40 0
-3118 1388 0
-3118 2909 0
3118 -1388 -2909 0
-3119 -1842 0
-3119 -1478 0
3119 1842 1478 0
-3120 1356 0
-3120 -2743 0
3120 -1356 2743 0
-3121 895 0
-3121 -359 0
3121 -895 359 0
-3122 -2229 0
-3122 2839 0
3122 2229 -2839 0
-3123 -2115 0
-3123 3040 0
3123 2115 -3040 0
-3124 358 401 0
-3124 -358 -401 0
3124 -358 401 0
3124 358 -401 0
-3125 -534 -1635 0
-3125 534 1635 0
3125 534 -1635 0
3125 -534 1635 0
-3126 -2727 0
-3126 -947 0
3126 2727 947 0
-3127 -2320 0
-3127 -2241 0
3127 2320 2241 0
-3128 -394 0
-3128 180 0
3128 394 -180 0
-3129 -323 0
-3129 1372 0
3129 323 -1372 0
-3130 999 0
-3130 -1559 0
3130 -999 1559 0
-3131 -3054 0
-3131 1136 0
3131 3054 -1136 0
-3132 581 0
-3132 -2299 0
3132 -581 2299 0
-3133 831 0
-3133 2498 0
3133 -831 -2498 0
-3134 -2738 0
-3134 2628 0
3134 2738 -2628 0
-3135 738 0
-3135 -1732 0
3135 -738 1732 0
-3136 -1990 2459 0
-3136 1990 -2459 0
3136 1990 2459 0
3136 -1990 -2459 0
-3137 3006 0
-3137 386 0
3137 -3006 -386 0
-3138 740 0
-3138 -1760 0
3138 -740 1760 0
-3139 2042 0
-3139 -1276 0
3139 -2042 1276 0
-3140 -636 0
-3140 829 0
3140 636 -829 0
-3141 -509 0
-3141 -1144 0
3141 509 1144 0
-3142 -467 0
-3142 -1742 0
3142 467 1742 0
-3143 -2788 0
-3143 181 0
3143 2788 -181 0
-3144 2853 0
-3144 -1348 0
3144 -2853 1348 0
-3145 1527 -2475 0
-3145 -1527 2475 0
3145 -1527 -2475 0
3145 1527 2475 0
-3146 1632 0
-3146 1818 0
3146 -1632 -1818 0
-3147 1868 0
-3147 -2877 0
3147 -1868 2877 0
-3148 -703 0
-3148 -2907 0
3148 703 2907 0
-3149 -1637 -1705 0
-3149 1637 1705 0
3149 1637 -1705 0
3149 -1637 1705 0
-3150 -743 0
-3150 -1967 0
3150 743 1967 0
-3151 337 0
-3151 1998 0
3151 -337 -1998 0
-3152 1901 0
-3152 660 0
3152 -1901 -660 0
-3153 -1240 0
-3153 1987 0
3153 1240 -1987 0
-3154 -1262 0
-3154 -2030 0
3154 1262 2030 0
-3155 -840 0
-3155 1444 0
3155 840 -1444 0
-3156 -880 0
-3156 -2060 0
3156 880 2060 0
-3157 -2033 2775 0
-3157 2033 -2775 0
3157 2033 2775 0
3157 -2033 -2775 0
-3158 -2028 -566 0
-3158 2028 566 0
3158 2028 -566 0
3158 -2028 566 0
-3159 -1391 0
-3159 1378 0
3159 1391 -1378 0
-3160 -2574 0
-3160 -924 0
3160 2574 924 0
-3161 -663 0
-3161 -545 0
3161 663 545 0
-3162 -849 0
-3162 -1083 0
3162 849 1083 0
-3163 174 0
-3163 1891 0
3163 -174 -1891 0
-3164 -3060 -2424 0
-3164 3060 2424 0
3164 3060 -2424 0
3164 -3060 2424 0
-3165 1346 0
-3165 -2286 0
3165 -1346 2286 0
-3166 2511 0
-3166 -987 0
3166 -2511 987 0
-3167 1162 -2549 0
-3167 -1162 2549 0
3167 -1162 -2549 0
3167 1162 2549 0
-3168 1089 2967 0
-3168 -1089 -2967 0
3168 -1089 2967 0
3168 1089 -2967 0
-3169 -2782 -1143 0
-3169 2782 1143 0
3169 2782 -1143 0
3169 -2782 1143 0
-3170 1232 0
-3170 -3130 0
3170 -1232 3130 0
-3171 1174 0
-3171 1828 0
3171 -1174 -1828 0
-3172 -3107 0
-3172 2853 0
3172 3107 -2853 0
-3173 -3124 0
-3173 -1813 0
3173 3124 1813 0
-3174 -3158 0
-3174 -3173 0
3174 3158 3173 0
-3175 1564 0
-3175 581 0
3175 -1564 -581 0
-3176 -692 0
-3176 1102 0
3176 692 -1102 0
-3177 1097 0
-3177 1481 0
3177 -1097 -1481 0
-3178 3006 0
-3178 -826 0
3178 -3006 826 0
-3179 -1117 -1519 0
-3179 1117 1519 0
3179 1117 -1519 0
3179 -1117 1519 0
-3180 936 1736 0
-3180 -936 -1736 0
3180 -936 1736 0
3180 936 -1736 0
-3181 1115 0
-3181 1644 0
3181 -1115 -1644 0
-3182 159 0
-3182 2182 0
3182 -159 -2182 0
-3183 1958 -400 0
-3183 -1958 400 0
3183 -1958 -400 0
3183 1958 400 0
-3184 637 -2475 0
-3184 -637 2475 0
3184 -637 -2475 0
3184 637 2475 0
-3185 -1319 -1569 0
-3185 1319 1569 0
3185 1319 -1569 0
3185 -1319 1569 0
-3186 2070 0
-3186 -1788 0
3186 -2070 1788 0
-3187 2981 0
-3187 2472 0
3187 -2981 -2472 0
-3188 3095 0
-3188 2339 0
3188 -3095 -2339 0
-3189 1676 0
-3189 951 0
3189 -1676 -951 0
-3190 2003 0
-3190 -746 0
3190 -2003 746 0
-3191 944 0
-3191 1493 0
3191 -944 -1493 0
-3192 2872 3153 0
-3192 -2872 -3153 0
3192 -2872 3153 0
3192 2872 -3153 0
-3193 1766 0
-3193 -199 0
3193 -1766 199 0
-3194 2284 -1704 0
-3194 -2284 1704 0
3194 -2284 -1704 0
3194 2284 1704 0
-3195 -827 0
-3195 -926 0
3195 827 926 0
-3196 -984 0
-3196 460 0
3196 984 -460 0
-3197 -1979 0
-3197 178 0
3197 1979 -178 0
-3198 2136 0
-3198 1045 0
3198 -2136 -1045 0
-3199 626 0
-3199 2334 0
3199 -626 -2334 0
-3200 -747 -1905 0
-3200 747 1905 0
3200 747 -1905 0
3200 -747 1905 0
-3201 2379 2572 0
-3201 -2379 -2572 0
3201 -2379 2572 0
3201 2379 -2572 0
-3202 -3021 -3002 0
-3202 3021 3002 0
3202 3021 -3002 0
3202 -3021 3002 0
-3203 -1391 -2557 0
-3203 1391 2557 0
3203 1391 -2557 0
3203 -1391 2557 0
-3204 840 0
-3204 -1147 0
3204 -840 1147 0
-3205 732 -392 0
-3205 -732 392 0
3205 -732 -392 0
3205 732 392 0
-3206 -2633 0
-3206 605 0
3206 2633 -605 0
-3207 2894 0
-3207 -1406 0
3207 -2894 1406 0
-3208 219 0
-3208 -1380 0
3208 -219 1380 0
-3209 -2615 -2742 0
-3209 2615 2742 0
3209 2615 -2742 0
3209 -2615 2742 0
-3210 -1750 0
-3210 1494 0
3210 1750 -1494 0
-3211 2082 0
-3211 -2301 0
3211 -2082 2301 0
-3212 2315 0
-3212 1210 0
3212 -2315 -1210 0
-3213 -1556 0
-3213 2017 0
3213 1556 -2017 0
-3214 1637 0
-3214 -1838 0
3214 -1637 1838 0
-3215 -902 -1318 0
-3215 902 1318 0
3215 902 -1318 0
3215 -902 1318 0
-3216 -1828 -102 0
-3216 1828 102 0
3216 1828 -102 0
3216 -1828 102 0
-3217 -1732 0
-3217 -2722 0
3217 1732 2722 0
-3218 2940 -6 0
-3218 -2940 6 0
3218 -2940 -6 0
3218 2940 6 0
-3219 3062 0
-3219 2010 0
3219 -3062 -2010 0
-3220 -2509 0
-3220 -2886 0
3220 2509 2886 0
-3221 -3056 0
-3221 1946 0
3221 3056 -1946 0
-3222 1799 0
-3222 706 0
3222 -1799 -706 0
-3223 2783 -2449 0
-3223 -2783 2449 0
3223 -2783 -2449 0
3223 2783 2449 0
-3224 -835 0
-3224 1770 0
3224 835 -1770 0
-3225 -2908 0
-3225 545 0
3225 2908 -545 0
-3226 1967 0
-3226 2670 0
3226 -1967 -2670 0
-3227 61 0
-3227 3226 0
3227 -61 -3226 0
-3228 -378 0
-3228 1704 0
3228 378 -1704 0
-3229 -1707 0
-3229 -2185 0
3229 1707 2185 0
-3230 -3140 0
-3230 -1628 0
3230 3140 1628 0
-3231 -1589 0
-3231 -2358 0
3231 1589 2358 0
-3232 -1544 0
-3232 -759 0
3232 1544 759 0
-3233 2813 1265 0
-3233 -2813 -1265 0
3233 -2813 1265 0
3233 2813 -1265 0
-3234 -1339 0
-3234 2409 0
3234 1339 -2409 0
-3235 -1490 0
-3235 -1300 0
3235 1490 1300 0
-3236 -794 0
-3236 1650 0
3236 794 -1650 0
-3237 1601 1494 0
-3237 -1601 -1494 0
3237 -1601 1494 0
3237 1601 -1494 0
-3238 370 -456 0
-3238 -370 456 0
3238 -370 -456 0
3238 370 456 0
-3239 1834 0
-3239 -1882 0
3239 -1834 1882 0
-3240 2094 0
-3240 -2522 0
3240 -2094 2522 0
-3241 1687 -1752 0
-3241 -1687 1752 0
3241 -1687 -1752 0
3241 1687 1752 0
-3242 1601 0
-3242 -2339 0
3242 -1601 2339 0
-3243 -2506 0
-3243 1347 0
3243 2506 -1347 0
-3244 3137 0
-3244 492 0
3244 -3137 -492 0
-3245 800 0
-3245 -730 0
3245 -800 730 0
-3246 2654 0
-3246 363 0
3246 -2654 -363 0
-3247 1273 0
-3247 -30 0
3247 -1273 30 0
-3248 2707 0
-3248 -1877 0
3248 -2707 1877 0
-3249 2581 0
-3249 -581 0
3249 -2581 581 0
-3250 -2206 0
-3250 1449 0
3250 2206 -1449 0
-3251 -2781 0
-3251 -2947 0
3251 2781 2947 0
-3252 -957 2970 0
-3252 957 -2970 0
3252 957 2970 0
3252 -957 -2970 0
-3253 3050 0
-3253 -2961 0
3253 -3050 2961 0
-3254 -3126 0
-3254 688 0
3254 3126 -688 0
-3255 1838 0
-3255 901 0
3255 -1838 -901 0
-3256 -1728 0
-3256 3148 0
3256 1728 -3148 0
-3257 -2161 0
-3257 267 0
3257 2161 -267 0
-3258 -109 0
-3258 80 0
3258 109 -80 0
-3259 1620 0
-3259 2844 0
3259 -1620 -2844 0
-3260 -1059 0
-3260 -2212 0
3260 1059 2212 0
-3261 -2509 0
-3261 -426 0
3261 2509 426 0
-3262 -116 0
-3262 2653 0
3262 116 -2653 0
-3263 -1440 -1566 0
-3263 1440 1566 0
3263 1440 -1566 0
3263 -1440 1566 0
-3264 -839 0
-3264 -2206 0
3264 839 2206 0
-3265 1351 0
-3265 -2916 0
3265 -1351 2916 0
-3266 3112 0
-3266 -1354 0
3266 -3112 1354 0
-3267 -2986 0
-3267 -718 0
3267 2986 718 0
-3268 2971 0
-3268 -2200 0
3268 -2971 2200 0
-3269 1392 0
-3269 2901 0
3269 -1392 -2901 0
-3270 1973 0
-3270 1799 0
3270 -1973 -1799 0
-3271 272 0
-3271 3236 0
3271 -272 -3236 0
-3272 -1645 0
-3272 1452 0
3272 1645 -1452 0
-3273 654 0
-3273 1779 0
3273 -654 -1779 0
-3274 29 0
-3274 739 0
3274 -29 -739 0
-3275 156 0
-3275 -1469 0
3275 -156 1469 0
-3276 2802 0
-3276 -791 0
3276 -2802 791 0
-3277 -1431 0
-3277 1011 0
3277 1431 -1011 0
-3278 3198 0
-3278 2219 0
3278 -3198 -2219 0
-3279 -2205 -300 0
-3279 2205 300 0
3279 2205 -300 0
3279 -2205 300 0
-3280 2195 0
-3280 2816 0
3280 -2195 -2816 0
-3281 -1944 0
-3281 1152 0
3281 1944 -1152 0
-3282 369 0
-3282 -1542 0
3282 -369 1542 0
-3283 -2556 0
-3283 463 0
3283 2556 -463 0
-3284 3187 0
-3284 404 0
3284 -3187 -404 0
-3285 2738 0
-3285 3076 0
3285 -2738 -3076 0
-3286 2711 0
-3286 2819 0
3286 -2711 -2819 0
-3287 361 0
-3287 1837 0
3287 -361 -1837 0
-3288 -2807 0
-3288 2433 0
3288 2807 -2433 0
-3289 2871 0
-3289 -2938 0
3289 -2871 2938 0
-3290 -1169 0
-3290 2298 0
3290 1169 -2298 0
-3291 -2991 0
-3291 -403 0
3291 2991 403 0
-3292 456 0
-3292 2213 0
3292 -456 -2213 0
-3293 -1274 1824 0
-3293 1274 -1824 0
3293 1274 1824 0
3293 -1274 -1824 0
-3294 894 0
-3294 24 0
3294 -894 -24 0
-3295 39 0
-3295 -2946 0
3295 -39 2946 0
-3296 2973 0
-3296 616 0
3296 -2973 -616 0
-3297 -2536 -2508 0
-3297 2536 2508 0
3297 2536 -2508 0
3297 -2536 2508 0
-3298 -2316 0
-3298 -89 0
3298 2316 89 0
-3299 -1202 0
-3299 -3044 0
3299 1202 3044 0
-3300 2249 0
-3300 -501 0
3300 -2249 501 0
-3301 2909 0
-3301 -2714 0
3301 -2909 2714 0
-3302 -1592 0
-3302 -3111 0
3302 1592 3111 0
-3303 -179 0
-3303 2154 0
3303 179 -2154 0
-3304 3026 0
-3304 2488 0
3304 -3026 -2488 0
-3305 2190 0
-3305 1433 0
3305 -2190 -1433 0
-3306 -2200 0
-3306 -1956 0
3306 2200 1956 0
-3307 525 0
-3307 1959 0
3307 -525 -1959 0
-3308 1821 0
-3308 24 0
3308 -1821 -24 0
-3309 1398 -1669 0
-3309 -1398 1669 0
3309 -1398 -1669 0
3309 1398 1669 0
-3310 -1713 0
-3310 1614 0
3310 1713 -1614 0
-3311 -3038 0
-3311 381 0
3311 3038 -381 0
-3312 2435 824 0
-3312 -2435 -824 0
3312 -2435 824 0
3312 2435 -824 0
-3313 -2809 -713 0
-3313 2809 713 0
3313 2809 -713 0
3313 -2809 713 0
-3314 -953 0
-3314 -191 0
3314 953 191 0
-3315 -2213 -3214 0
-3315 2213 3214 0
3315 2213 -3214 0
3315 -2213 3214 0
-3316 -1248 0
-3316 2454 0
3316 1248 -2454 0
-3317 -1391 0
-3317 2058 0
3317 1391 -2058 0
-3318 -2172 0
-3318 75 0
3318 2172 -75 0
-3319 2332 0
-3319 -1104 0
3319 -2332 1104 0
-3320 2270 -1270 0
-3320 -2270 1270 0
3320 -2270 -1270 0
3320 2270 1270 0
-3321 -1072 0
-3321 -2803 0
3321 1072 2803 0
-3322 1517 0
-3322 2029 0
3322 -1517 -2029 0
-3323 -2583 0
-3323 -2910 0
3323 2583 2910 0
-3324 1662 710 0
-3324 -1662 -710 0
3324 -1662 710 0
3324 1662 -710 0
-3325 374 0
-3325 -1134 0
3325 -374 1134 0
-3326 1474 -661 0
-3326 -1474 661 0
3326 -1474 -661 0
3326 1474 661 0
-3327 2875 0
-3327 3089 0
3327 -2875 -3089 0
-3328 1368 0
-3328 -916 0
3328 -1368 916 0
-3329 -2943 0
-3329 1278 0
3329 2943 -1278 0
-3330 753 0
-3330 -620 0
3330 -753 620 0
-3331 32 0
-3331 -2810 0
3331 -32 2810 0
-3332 2090 0
-3332 1430 0
3332 -2090 -1430 0
-3333 662 0
-3333 2719 0
3333 -662 -2719 0
-3334 -2342 0
-3334 1024 0
3334 2342 -1024 0
-3335 -3303 0
-3335 -1634 0
3335 3303 1634 0
-3336 2360 2093 0
-3336 -2360 -2093 0
3336 -2360 2093 0
3336 2360 -2093 0
-3337 -1676 -1771 0
-3337 1676 1771 0
3337 1676 -1771 0
3337 -1676 1771 0
-3338 1704 0
-3338 78 0
3338 -1704 -78 0
-3339 918 0
-3339 -2887 0
3339 -918 2887 0
-3340 -3034 0
-3340 -2853 0
3340 3034 2853 0
-3341 -2050 0
-3341 2196 0
3341 2050 -2196 0
-3342 2808 1902 0
-3342 -2808 -1902 0
3342 -2808 1902 0
3342 2808 -1902 0
-3343 2842 0
-3343 -2653 0
3343 -2842 2653 0
-3344 -2954 0
-3344 -714 0
3344 2954 714 0
-3345 1291 436 0
-3345 -1291 -436 0
3345 -1291 436 0
3345 1291 -436 0
-3346 -505 0
-3346 -2341 0
3346 505 2341 0
-3347 1160 -25 0
-3347 -1160 25 0
3347 -1160 -25 0
3347 1160 25 0
-3348 832 0
-3348 261 0
3348 -832 -261 0
-3349 -596 0
-3349 -504 0
3349 596 504 0
-3350 3075 0
-3350 -2429 0
3350 -3075 2429 0
-3351 806 -3347 0
-3351 -806 3347 0
3351 -806 -3347 0
3351 806 3347 0
-3352 2287 0
-3352 3307 0
3352 -2287 -3307 0
-3353 84 0
-3353 -1199 0
3353 -84 1199 0
-3354 -3240 -2220 0
-3354 3240 2220 0
3354 3240 -2220 0
3354 -3240 2220 0
-3355 -3026 0
-3355 3120 0
3355 3026 -3120 0
-3356 1272 0
-3356 -3241 0
3356 -1272 3241 0
-3357 -3008 0
-3357 -551 0
3357 3008 551 0
-3358 -1552 0
-3358 946 0
3358 1552 -946 0
-3359 -511 0
-3359 415 0
3359 511 -415 0
-3360 2928 0
-3360 -1951 0
3360 -2928 1951 0
-3361 -2018 -1148 0
-3361 2018 1148 0
3361 2018 -1148 0
3361 -2018 1148 0
-3362 2422 0
-3362 1546 0
3362 -2422 -1546 0
-3363 -538 -2665 0
-3363 538 2665 0
3363 538 -2665 0
3363 -538 2665 0
-3364 2974 0
-3364 2615 0
3364 -2974 -2615 0
-3365 -3323 0
-3365 1487 0
3365 3323 -1487 0
-3366 2376 -2143 0
-3366 -2376 2143 0
3366 -2376 -2143 0
3366 2376 2143 0
-3367 -3001 0
-3367 -1689 0
3367 3001 1689 0
-3368 3210 0
-3368 -354 0
3368 -3210 354 0
-3369 1625 1532 0
-3369 -1625 -1532 0
3369 -1625 1532 0
3369 1625 -1532 0
-3370 792 0
-3370 128 0
3370 -792 -128 0
-3371 1680 0
-3371 -1603 0
3371 -1680 1603 0
-3372 -3367 3047 0
-3372 3367 -3047 0
3372 3367 3047 0
3372 -3367 -3047 0
-3373 1905 0
-3373 2231 0
3373 -1905 -2231 0
-3374 988 0
-3374 3134 0
3374 -988 -3134 0
-3375 766 0
-3375 1336 0
3375 -766 -1336 0
-3376 183 -2369 0
-3376 -183 2369 0
3376 -183 -2369 0
3376 183 2369 0
-3377 -71 0
-3377 2846 0
3377 71 -2846 0
-3378 2548 -338 0
-3378 -2548 338 0
3378 -2548 -338 0
3378 2548 338 0
-3379 -1008 0
-3379 3086 0
3379 1008 -3086 0
-3380 -1735 0
-3380 -1389 0
3380 1735 1389 0
-3381 -2056 0
-3381 1843 0
3381 2056 -1843 0
-3382 -663 0
-3382 2559 0
3382 663 -2559 0
-3383 -1893 -2080 0
-3383 1893 2080 0
3383 1893 -2080 0
3383 -1893 2080 0
-3384 1766 0
-3384 2528 0
3384 -1766 -2528 0
-3385 2562 -1439 0
-3385 -2562 1439 0
3385 -2562 -1439 0
3385 2562 1439 0
-3386 1944 0
-3386 -2922 0
3386 -1944 2922 0
-3387 1639 0
-3387 -296 0
3387 -1639 296 0
-3388 2596 0
-3388 -2398 0
3388 -2596 2398 0
-3389 1192 -2528 0
-3389 -1192 2528 0
3389 -1192 -2528 0
3389 1192 2528 0
-3390 1246 0
-3390 1374 0
3390 -1246 -1374 0
-3391 768 0
-3391 -1206 0
3391 -768 1206 0
-3392 -2009 0
-3392 -1270 0
3392 2009 1270 0
-3393 -74 -1848 0
-3393 74 1848 0
3393 74 -1848 0
3393 -74 1848 0
-3394 -410 0
-3394 123 0
3394 410 -123 0
-3395 2410 0
-3395 2846 0
3395 -2410 -2846 0
-3396 -2570 -1847 0
-3396 2570 1847 0
3396 2570 -1847 0
3396 -2570 1847 0
-3397 2568 0
-3397 3163 0
3397 -2568 -3163 0
-3398 1497 -760 0
-3398 -1497 760 0
3398 -1497 -760 0
3398 1497 760 0
-3399 -2065 0
-3399 51 0
3399 2065 -51 0
-3400 -3220 -2242 0
-3400 3220 2242 0
3400 3220 -2242 0
3400 -3220 2242 0
-3401 -3137 1411 0
-3401 3137 -1411 0
3401 3137 1411 0
3401 -3137 -1411 0
-3402 -1206 706 0
-3402 1206 -706 0
3402 1206 706 0
3402 -1206 -706 0
-3403 1989 622 0
-3403 -1989 -622 0
3403 -1989 622 0
3403 1989 -622 0
-3404 1205 1 0
-3404 -1205 -1 0
3404 -1205 1 0
3404 1205 -1 0
-3405 -256 0
-3405 2757 0
3405 256 -2757 0
-3406 548 0
-3406 -2717 0
3406 -548 2717 0
-3407 214 0
-3407 2455 0
3407 -214 -2455 0
-3408 -2491 0
-3408 2608 0
3408 2491 -2608 0
-3409 -2995 0
-3409 -2905 0
3409 2995 2905 0
-3410 1867 0
-3410 2038 0
3410 -1867 -2038 0
-3411 -1705 -2875 0
-3411 1705 2875 0
3411 1705 -2875 0
3411 -1705 2875 0
-3412 -3239 1633 0
-3412 3239 -1633 0
3412 3239 1633 0
3412 -3239 -1633 0
-3413 2837 0
-3413 -1928 0
3413 -2837 1928 0
-3414 758 0
-3414 -733 0
3414 -758 733 0
-3415 1882 -1675 0
-3415 -1882 1675 0
3415 -1882 -1675 0
3415 1882 1675 0
-3416 868 1146 0
-3416 -868 -1146 0
3416 -868 1146 0
3416 868 -1146 0
-3417 3066 0
-3417 -931 0
3417 -3066 931 0
-3418 -2812 0
-3418 2479 0
3418 2812 -2479 0
-3419 -1828 0
-3419 -2492 0
3419 1828 2492 0
-3420 -425 0
-3420 -3365 0
3420 425 3365 0
-3421 -2430 1623 0
-3421 2430 -1623 0
3421 2430 1623 0
3421 -2430 -1623 0
-3422 -261 0
-3422 1296 0
3422 261 -1296 0
-3423 2579 2580 0
-3423 -2579 -2580 0
3423 -2579 2580 0
3423 2579 -2580 0
-3424 -675 0
-3424 -1326 0
3424 675 1326 0
-3425 2285 0
-3425 2589 0
3425 -2285 -2589 0
-3426 -2137 0
-3426 -2375 0
3426 2137 2375 0
-3427 332 0
-3427 -1826 0
3427 -332 1826 0
-3428 1094 0
-3428 -2892 0
3428 -1094 2892 0
-3429 -1313 0
-3429 2714 0
3429 1313 -2714 0
-3430 -1781 0
-3430 1339 0
3430 1781 -1339 0
-3431 -676 -601 0
-3431 676 601 0
3431 676 -601 0
3431 -676 601 0
-3432 2660 3173 0
-3432 -2660 -3173 0
3432 -2660 3173 0
3432 2660 -3173 0
-3433 311 2797 0
-3433 -311 -2797 0
3433 -311 2797 0
3433 311 -2797 0
-3434 2669 1904 0
-3434 -2669 -1904 0
3434 -2669 1904 0
3434 2669 -1904 0
-3435 -650 0
-3435 1467 0
3435 650 -1467 0
-3436 1414 0
-3436 655 0
3436 -1414 -655 0
-3437 1650 0
-3437 -1599 0
3437 -1650 1599 0
-3438 1487 1044 0
-3438 -1487 -1044 0
3438 -1487 1044 0
3438 1487 -1044 0
-3439 -3073 -1735 0
-3439 3073 1735 0
3439 3073 -1735 0
3439 -3073 1735 0
-3440 1524 0
-3440 -2757 0
3440 -1524 2757 0
-3441 -2189 0
-3441 -1325 0
3441 2189 1325 0
-3442 -3299 -2772 0
-3442 3299 2772 0
3442 3299 -2772 0
3442 -3299 2772 0
-3443 1576 0
-3443 -22 0
3443 -1576 22 0
-3444 1520 0
-3444 -370 0
3444 -1520 370 0
-3445 612 0
-3445 -230 0
3445 -612 230 0
-3446 695 0
-3446 287 0
3446 -695 -287 0
-3447 -515 0
-3447 2239 0
3447 515 -2239 0
-3448 -3284 0
-3448 63 0
3448 3284 -63 0
-3449 2239 0
-3449 -1348 0
3449 -2239 1348 0
-3450 -1441 0
-3450 1056 0
3450 1441 -1056 0
-3451 2613 0
-3451 777 0
3451 -2613 -777 0
-3452 2608 0
-3452 970 0
3452 -2608 -970 0
-3453 528 -1261 0
-3453 -528 1261 0
3453 -528 -1261 0
3453 528 1261 0
-3454 -872 -226 0
-3454 872 226 0
3454 872 -226 0
3454 -872 226 0
-3455 -2378 0
-3455 -2817 0
3455 2378 2817 0
-3456 1910 1042 0
-3456 -1910 -1042 0
3456 -1910 1042 0
3456 1910 -1042 0
-3457 3300 0
-3457 1874 0
3457 -3300 -1874 0
-3458 -1368 0
-3458 -1817 0
3458 1368 1817 0
-3459 -1408 0
-3459 -2963 0
3459 1408 2963 0
-3460 -2893 0
-3460 -1714 0
3460 2893 1714 0
-3461 -1960 0
-3461 -1889 0
3461 1960 1889 0
-3462 -27 0
-3462 2565 0
3462 27 -2565 0
-3463 1042 0
-3463 3387 0
3463 -1042 -3387 0
-3464 -1789 0
-3464 2824 0
3464 1789 -2824 0
-3465 -641 0
-3465 134 0
3465 641 -134 0
-3466 -759 0
-3466 1235 0
3466 759 -1235 0
-3467 -8 0
-3467 -1240 0
3467 8 1240 0
-3468 401 0
-3468 -2922 0
3468 -401 2922 0
-3469 -414 0
-3469 -1059 0
3469 414 1059 0
-3470 983 0
-3470 1860 0
3470 -983 -1860 0
-3471 -2428 1492 0
-3471 2428 -1492 0
3471 2428 1492 0
3471 -2428 -1492 0
-3472 -1135 0
-3472 288 0
3472 1135 -288 0
-3473 -5 0
-3473 2056 0
3473 5 -2056 0
-3474 -2654 0
-3474 768 0
3474 2654 -768 0
-3475 -2159 0
-3475 2005 0
3475 2159 -2005 0
-3476 -514 0
-3476 1954 0
3476 514 -1954 0
-3477 -2639 0
-3477 1958 0
3477 2639 -1958 0
-3478 -1231 0
-3478 -3368 0
3478 1231 3368 0
-3479 1495 0
-3479 1528 0
3479 -1495 -1528 0
-3480 -835 3106 0
-3480 835 -3106 0
3480 835 3106 0
3480 -835 -3106 0
-3481 1083 0
-3481 -476 0
3481 -1083 476 0
-3482 -444 0
-3482 -2538 0
3482 444 2538 0
-3483 1870 0
-3483 1811 0
3483 -1870 -1811 0
-3484 -1837 383 0
-3484 1837 -383 0
3484 1837 383 0
3484 -1837 -383 0
-3485 1677 -1448 0
-3485 -1677 1448 0
3485 -1677 -1448 0
3485 1677 1448 0
-3486 651 0
-3486 -701 0
3486 -651 701 0
-3487 3292 -989 0
-3487 -3292 989 0
3487 -3292 -989 0
3487 3292 989 0
-3488 -142 0
-3488 562 0
3488 142 -562 0
-3489 -3304 3154 0
-3489 3304 -3154 0
3489 3304 3154 0
3489 -3304 -3154 0
-3490 -139 2627 0
-3490 139 -2627 0
3490 139 2627 0
3490 -139 -2627 0
-3491 -495 -1536 0
-3491 495 1536 0
3491 495 -1536 0
3491 -495 1536 0
-3492 649 -2879 0
-3492 -649 2879 0
3492 -649 -2879 0
3492 649 2879 0
-3493 -2995 0
-3493 -1373 0
3493 2995 1373 0
-3494 2282 -3327 0
-3494 -2282 3327 0
3494 -2282 -3327 0
3494 2282 3327 0
-3495 2949 0
-3495 -756 0
3495 -2949 756 0
-3496 801 -2198 0
-3496 -801 2198 0
3496 -801 -2198 0
3496 801 2198 0
-3497 -566 0
-3497 2867 0
3497 566 -2867 0
-3498 -973 0
-3498 -1936 0
3498 973 1936 0
-3499 -1668 0
-3499 -2941 0
3499 1668 2941 0
-3500 -5 161 0
-3500 5 -161 0
3500 5 161 0
3500 -5 -161 0
-3501 -1008 0
-3501 -2185 0
3501 1008 2185 0
-3502 -2183 0
-3502 -630 0
3502 2183 630 0
-3503 -1760 0
-3503 -3481 0
3503 1760 3481 0
-3504 2324 0
-3504 2469 0
3504 -2324 -2469 0
-3505 -1610 0
-3505 -266 0
3505 1610 266 0
-3506 490 -2398 0
-3506 -490 2398 0
3506 -490 -2398 0
3506 490 2398 0
-3507 1520 0
-3507 3496 0
3507 -1520 -3496 0
-3508 -2292 0
-3508 -454 0
3508 2292 454 0
-3509 2716 0
-3509 2720 0
3509 -2716 -2720 0
-3510 -2347 0
-3510 2925 0
3510 2347 -2925 0
-3511 1619 0
-3511 1040 0
3511 -1619 -1040 0
-3512 2070 0
-3512 610 0
3512 -2070 -610 0
-3513 -3453 0
-3513 -2016 0
3513 3453 2016 0
-3514 -1230 0
-3514 2536 0
3514 1230 -2536 0
-3515 3080 0
-3515 -871 0
3515 -3080 871 0
-3516 201 0
-3516 -2609 0
3516 -201 2609 0
-3517 -3223 -2406 0
-3517 3223 2406 0
3517 3223 -2406 0
3517 -3223 2406 0
-3518 -1439 0
-3518 1981 0
3518 1439 -1981 0
-3519 1881 -312 0
-3519 -1881 312 0
3519 -1881 -312 0
3519 1881 312 0
-3520 -2671 0
-3520 3431 0
3520 2671 -3431 0
-3521 963 0
-3521 2093 0
3521 -963 -2093 0
-3522 -822 0
-3522 2808 0
3522 822 -2808 0
-3523 2118 3010 0
-3523 -2118 -3010 0
3523 -2118 3010 0
3523 2118 -3010 0
-3524 3341 -880 0
-3524 -3341 880 0
3524 -3341 -880 0
3524 3341 880 0
-3525 -1839 0
-3525 1095 0
3525 1839 -1095 0
-3526 1152 0
-3526 2206 0
3526 -1152 -2206 0
-3527 -35 0
-3527 -549 0
3527 35 549 0
-3528 -504 0
-3528 2770 0
3528 504 -2770 0
-3529 1227 1529 0
-3529 -1227 -1529 0
3529 -1227 1529 0
3529 1227 -1529 0
-3530 3400 0
-3530 1100 0
3530 -3400 -1100 0
-3531 -1310 0
-3531 -1181 0
3531 1310 1181 0
-3532 705 0
-3532 102 0
3532 -705 -102 0
-3533 718 0
-3533 -1857 0
3533 -718 1857 0
-3534 2699 0
-3534 708 0
3534 -2699 -708 0
-3535 -2672 0
-3535 -1808 0
3535 2672 1808 0
-3536 530 0
-3536 -2756 0
3536 -530 2756 0
-3537 -3056 0
-3537 -3226 0
3537 3056 3226 0
-3538 3011 0
-3538 -3506 0
3538 -3011 3506 0
-3539 2795 0
-3539 2935 0
3539 -2795 -2935 0
-3540 -1537 3483 0
-3540 1537 -3483 0
3540 1537 3483 0
3540 -1537 -3483 0
-3541 1482 -50 0
-3541 -1482 50 0
3541 -1482 -50 0
3541 1482 50 0
-3542 2779 0
-3542 3269 0
3542 -2779 -3269 0
-3543 -3371 0
-3543 -1989 0
3543 3371 1989 0
-3544 -712 0
-3544 -904 0
3544 712 904 0
-3545 1623 0
-3545 1745 0
3545 -1623 -1745 0
-3546 -2045 0
-3546 1584 0
3546 2045 -1584 0
-3547 3158 0
-3547 -258 0
3547 -3158 258 0
-3548 3239 -1038 0
-3548 -3239 1038 0
3548 -3239 -1038 0
3548 3239 1038 0
-3549 -1629 0
-3549 -3347 0
3549 1629 3347 0
-3550 -2754 0
-3550 -2378 0
3550 2754 2378 0
-3551 -3428 0
-3551 1135 0
3551 3428 -1135 0
-3552 954 0
-3552 -1221 0
3552 -954 1221 0
-3553 -219 2268 0
-3553 219 -2268 0
3553 219 2268 0
3553 -219 -2268 0
-3554 986 0
-3554 -250 0
3554 -986 250 0
-3555 2400 0
-3555 1428 0
3555 -2400 -1428 0
-3556 -1063 0
-3556 -3354 0
3556 1063 3354 0
-3557 3175 0
-3557 -1742 0
3557 -3175 1742 0
-3558 -980 0
-3558 -1115 0
3558 980 1115 0
-3559 -2898 0
-3559 645 0
3559 2898 -645 0
-3560 2258 2687 0
-3560 -2258 -2687 0
3560 -2258 2687 0
3560 2258 -2687 0
-3561 -2188 1058 0
-3561 2188 -1058 0
3561 2188 1058 0
3561 -2188 -1058 0
-3562 1232 0
-3562 3317 0
3562 -1232 -3317 0
-3563 -3345 0
-3563 -3111 0
3563 3345 3111 0
-3564 2196 0
-3564 -846 0
3564 -2196 846 0
-3565 -2568 0
-3565 -3108 0
3565 2568 3108 0
-3566 -1542 2802 0
-3566 1542 -2802 0
3566 1542 2802 0
3566 -1542 -2802 0
-3567 1289 1633 0
-3567 -1289 -1633 0
3567 -1289 1633 0
3567 1289 -1633 0
-3568 -2032 -1386 0
-3568 2032 1386 0
3568 2032 -1386 0
3568 -2032 1386 0
-3569 -1741 0
-3569 467 0
3569 1741 -467 0
-3570 -3518 0
-3570 2975 0
3570 3518 -2975 0
-3571 2954 0
-3571 -1950 0
3571 -2954 1950 0
-3572 2041 0
-3572 3439 0
3572 -2041 -3439 0
-3573 1778 -1647 0
-3573 -1778 1647 0
3573 -1778 -1647 0
3573 1778 1647 0
-3574 -2270 0
-3574 -990 0
3574 2270 990 0
-3575 -1266 0
-3575 -3147 0
3575 1266 3147 0
-3576 3111 0
-3576 2210 0
3576 -3111 -2210 0
-3577 1381 0
-3577 -1838 0
3577 -1381 1838 0
-3578 1699 0
-3578 1994 0
3578 -1699 -1994 0
-3579 32 1029 0
-3579 -32 -1029 0
3579 -32 1029 0
3579 32 -1029 0
-3580 -2087 0
-3580 -3356 0
3580 2087 3356 0
-3581 2108 1598 0
-3581 -2108 -1598 0
3581 -2108 1598 0
3581 2108 -1598 0
-3582 2397 -2805 0
-3582 -2397 2805 0
3582 -2397 -2805 0
3582 2397 2805 0
-3583 -1931 1985 0
-3583 1931 -1985 0
3583 1931 1985 0
3583 -1931 -1985 0
-3584 978 0
-3584 2823 0
3584 -978 -2823 0
-3585 155 0
-3585 -1790 0
3585 -155 1790 0
-3586 -29 0
-3586 1770 0
3586 29 -1770 0
-3587 -267 -2293 0
-3587 267 2293 0
3587 267 -2293 0
3587 -267 2293 0
-3588 -2703 0
-3588 -2337 0
3588 2703 2337 0
-3589 299 0
-3589 2793 0
3589 -299 -2793 0
-3590 -1506 0
-3590 -3272 0
3590 1506 3272 0
-3591 -2812 0
-3591 -414 0
3591 2812 414 0
-3592 2858 0
-3592 -612 0
3592 -2858 612 0
-3593 2914 0
-3593 810 0
3593 -2914 -810 0
-3594 -2096 0
-3594 1023 0
3594 2096 -1023 0
3499 0
3500 0
3501 0
3502 0
3503 0
-3504 0
-3505 0
-3506 0
-3507 0
3508 0
-3509 0
-3510 0
-3511 0
3512 0
-3513 0
3514 0
3515 0
-3516 0
3517 0
-3518 0
-3519 0
-3520 0
-3521 0
-3522 0
-3523 0
-3524 0
3525 0
-3526 0
-3527 0
-3528 0
-3529 0
-3530 0
-3531 0
-3532 0
-3533 0
-3534 0
3535 0
-3536 0
3537 0
-3538 0
3539 0
3540 0
-3541 0
-3542 0
3543 0
-3544 0
-3545 0
-3546 0
-3547 0
-3548 0
3549 0
-3550 0
-3551 0
-3552 0
-3553 0
-3554 0
3555 0
3556 0
-3557 0
-3558 0
-3559 0
-3560 0
3561 0
3562 0
-3563 0
-3564 0
-3565 0
3566 0
-3567 0
3568 0
-3569 0
-3570 0
-3571 0
-3572 0
3573 0
3574 0
3575 0
-3576 0
-3577 0
-3578 0
3579 0
3580 0
-3581 0
3582 0
3583 0
-3584 0
-3585 0
-3586 0
3587 0
3588 0
3589 0
3590 0
-3591 0
-3592 0
-3593 0
-3594 0
