c mixed random circuit, inputs=128 gates=6000, last 128 signals pinned to a planted input assignment; input variables are 1..128
c generated by TurboCryptoSAT gen-benchmark - satisfiable by construction
p cnf 6125 19631
-129 125 -39 0
-129 -125 39 0
129 -125 -39 0
129 125 39 0
-130 16 0
-130 77 0
130 -16 -77 0
-131 -103 0
-131 25 0
131 103 -25 0
-132 -55 0
-132 131 0
132 55 -131 0
-133 -12 0
-133 99 0
133 12 -99 0
-134 -6 -56 0
-134 6 56 0
134 6 -56 0
134 -6 56 0
-135 -50 -18 0
-135 50 18 0
135 50 -18 0
135 -50 18 0
-136 -106 0
-136 8 0
136 106 -8 0
-137 -121 0
-137 -71 0
137 121 71 0
-138 -130 -87 0
-138 130 87 0
138 130 -87 0
138 -130 87 0
-139 83 -57 0
-139 -83 57 0
139 -83 -57 0
139 83 57 0
-140 -4 27 0
-140 4 -27 0
140 4 27 0
140 -4 -27 0
-141 -4 0
-141 -103 0
141 4 103 0
-142 110 0
-142 52 0
142 -110 -52 0
-143 34 0
-143 96 0
143 -34 -96 0
-144 100 0
-144 -25 0
144 -100 25 0
-145 123 0
-145 4 0
145 -123 -4 0
-146 124 0
-146 30 0
146 -124 -30 0
-147 18 129 0
-147 -18 -129 0
147 -18 129 0
147 18 -129 0
-148 30 0
-148 61 0
148 -30 -61 0
-149 -24 0
-149 -129 0
149 24 129 0
-150 19 -50 0
-150 -19 50 0
150 -19 -50 0
150 19 50 0
-151 -40 0
-151 11 0
151 40 -11 0
-152 149 0
-152 -143 0
152 -149 143 0
-153 111 0
-153 12 0
153 -111 -12 0
-154 99 0
-154 -71 0
154 -99 71 0
-155 -130 0
-155 149 0
155 130 -149 0
-156 120 0
-156 -113 0
156 -120 113 0
-157 124 0
-157 -94 0
157 -124 94 0
-158 -28 0
-158 153 0
158 28 -153 0
-159 43 0
-159 67 0
159 -43 -67 0
-160 -10 0
-160 57 0
160 10 -57 0
-161 -12 0
-161 -105 0
161 12 105 0
-162 127 0
-162 38 0
162 -127 -38 0
-163 132 0
-163 40 0
163 -132 -40 0
-164 -112 0
-164 -80 0
164 112 80 0
-165 -68 -89 0
-165 68 89 0
165 68 -89 0
165 -68 89 0
-166 -113 0
-166 75 0
166 113 -75 0
-167 87 75 0
-167 -87 -75 0
167 -87 75 0
167 87 -75 0
-168 53 0
-168 100 0
168 -53 -100 0
-169 -22 0
-169 3 0
169 22 -3 0
-170 -25 0
-170 -8 0
170 25 8 0
-171 149 0
-171 -136 0
171 -149 136 0
-172 112 0
-172 -80 0
172 -112 80 0
-173 73 7 0
-173 -73 -7 0
173 -73 7 0
173 73 -7 0
-174 -28 0
-174 -77 0
174 28 77 0
-175 30 0
-175 27 0
175 -30 -27 0
-176 68 0
-176 -48 0
176 -68 48 0
-177 3 0
-177 -88 0
177 -3 88 0
-178 -108 0
-178 83 0
178 108 -83 0
-179 32 60 0
-179 -32 -60 0
179 -32 60 0
179 32 -60 0
-180 -121 -94 0
-180 121 94 0
180 121 -94 0
180 -121 94 0
-181 -47 28 0
-181 47 -28 0
181 47 28 0
181 -47 -28 0
-182 164 0
-182 175 0
182 -164 -175 0
-183 -112 0
-183 -49 0
183 112 49 0
-184 179 0
-184 -35 0
184 -179 35 0
-185 -36 0
-185 110 0
185 36 -110 0
-186 108 -6 0
-186 -108 6 0
186 -108 -6 0
186 108 6 0
-187 -122 0
-187 -183 0
187 122 183 0
-188 178 0
-188 -130 0
188 -178 130 0
-189 125 9 0
-189 -125 -9 0
189 -125 9 0
189 125 -9 0
-190 47 0
-190 25 0
190 -47 -25 0
-191 37 0
-191 -45 0
191 -37 45 0
-192 -165 91 0
-192 165 -91 0
192 165 91 0
192 -165 -91 0
-193 63 0
-193 93 0
193 -63 -93 0
-194 15 -39 0
-194 -15 39 0
194 -15 -39 0
194 15 39 0
-195 65 177 0
-195 -65 -177 0
195 -65 177 0
195 65 -177 0
-196 -18 0
-196 7 0
196 18 -7 0
-197 -31 0
-197 140 0
197 31 -140 0
-198 11 0
-198 125 0
198 -11 -125 0
-199 45 0
-199 131 0
199 -45 -131 0
-200 185 -76 0
-200 -185 76 0
200 -185 -76 0
200 185 76 0
-201 121 0
-201 -182 0
201 -121 182 0
-202 -143 -49 0
-202 143 49 0
202 143 -49 0
202 -143 49 0
-203 25 0
-203 -162 0
203 -25 162 0
-204 100 0
-204 191 0
204 -100 -191 0
-205 -94 0
-205 -123 0
205 94 123 0
-206 23 113 0
-206 -23 -113 0
206 -23 113 0
206 23 -113 0
-207 -25 0
-207 -148 0
207 25 148 0
-208 26 0
-208 -153 0
208 -26 153 0
-209 -5 0
-209 -115 0
209 5 115 0
-210 14 0
-210 123 0
210 -14 -123 0
-211 108 0
-211 52 0
211 -108 -52 0
-212 142 0
-212 191 0
212 -142 -191 0
-213 -143 0
-213 102 0
213 143 -102 0
-214 158 0
-214 -113 0
214 -158 113 0
-215 212 0
-215 140 0
215 -212 -140 0
-216 29 0
-216 65 0
216 -29 -65 0
-217 -42 0
-217 -132 0
217 42 132 0
-218 13 0
-218 154 0
218 -13 -154 0
-219 80 0
-219 -103 0
219 -80 103 0
-220 -204 0
-220 -41 0
220 204 41 0
-221 -26 0
-221 49 0
221 26 -49 0
-222 -214 0
-222 74 0
222 214 -74 0
-223 -37 0
-223 20 0
223 37 -20 0
-224 126 0
-224 -162 0
224 -126 162 0
-225 -54 0
-225 48 0
225 54 -48 0
-226 190 132 0
-226 -190 -132 0
226 -190 132 0
226 190 -132 0
-227 -126 0
-227 -58 0
227 126 58 0
-228 -189 0
-228 110 0
228 189 -110 0
-229 130 0
-229 -106 0
229 -130 106 0
-230 -189 0
-230 72 0
230 189 -72 0
-231 168 105 0
-231 -168 -105 0
231 -168 105 0
231 168 -105 0
-232 182 0
-232 81 0
232 -182 -81 0
-233 149 0
-233 187 0
233 -149 -187 0
-234 -225 0
-234 126 0
234 225 -126 0
-235 -47 0
-235 -222 0
235 47 222 0
-236 -132 0
-236 112 0
236 132 -112 0
-237 80 -14 0
-237 -80 14 0
237 -80 -14 0
237 80 14 0
-238 -37 0
-238 -49 0
238 37 49 0
-239 -111 0
-239 -59 0
239 111 59 0
-240 -138 66 0
-240 138 -66 0
240 138 66 0
240 -138 -66 0
-241 140 -222 0
-241 -140 222 0
241 -140 -222 0
241 140 222 0
-242 -63 0
-242 81 0
242 63 -81 0
-243 143 0
-243 48 0
243 -143 -48 0
-244 231 0
-244 7 0
244 -231 -7 0
-245 233 0
-245 135 0
245 -233 -135 0
-246 145 93 0
-246 -145 -93 0
246 -145 93 0
246 145 -93 0
-247 75 0
-247 29 0
247 -75 -29 0
-248 182 0
-248 36 0
248 -182 -36 0
-249 96 94 0
-249 -96 -94 0
249 -96 94 0
249 96 -94 0
-250 152 0
-250 -70 0
250 -152 70 0
-251 181 0
-251 -240 0
251 -181 240 0
-252 -217 0
-252 -87 0
252 217 87 0
-253 -106 0
-253 -228 0
253 106 228 0
-254 168 0
-254 -54 0
254 -168 54 0
-255 91 -30 0
-255 -91 30 0
255 -91 -30 0
255 91 30 0
-256 213 240 0
-256 -213 -240 0
256 -213 240 0
256 213 -240 0
-257 -58 -131 0
-257 58 131 0
257 58 -131 0
257 -58 131 0
-258 -144 0
-258 181 0
258 144 -181 0
-259 -60 0
-259 59 0
259 60 -59 0
-260 120 102 0
-260 -120 -102 0
260 -120 102 0
260 120 -102 0
-261 -182 -158 0
-261 182 158 0
261 182 -158 0
261 -182 158 0
-262 234 -260 0
-262 -234 260 0
262 -234 -260 0
262 234 260 0
-263 153 92 0
-263 -153 -92 0
263 -153 92 0
263 153 -92 0
-264 -147 0
-264 224 0
264 147 -224 0
-265 -166 0
-265 259 0
265 166 -259 0
-266 -136 0
-266 132 0
266 136 -132 0
-267 -80 0
-267 -45 0
267 80 45 0
-268 -242 0
-268 95 0
268 242 -95 0
-269 -162 0
-269 259 0
269 162 -259 0
-270 118 0
-270 -113 0
270 -118 113 0
-271 -2 3 0
-271 2 -3 0
271 2 3 0
271 -2 -3 0
-272 77 0
-272 198 0
272 -77 -198 0
-273 203 0
-273 -47 0
273 -203 47 0
-274 -263 0
-274 45 0
274 263 -45 0
-275 193 110 0
-275 -193 -110 0
275 -193 110 0
275 193 -110 0
-276 -49 0
-276 -33 0
276 49 33 0
-277 109 0
-277 85 0
277 -109 -85 0
-278 250 0
-278 222 0
278 -250 -222 0
-279 -49 0
-279 219 0
279 49 -219 0
-280 -232 0
-280 205 0
280 232 -205 0
-281 -122 0
-281 121 0
281 122 -121 0
-282 144 0
-282 -105 0
282 -144 105 0
-283 -254 96 0
-283 254 -96 0
283 254 96 0
283 -254 -96 0
-284 -220 -241 0
-284 220 241 0
284 220 -241 0
284 -220 241 0
-285 232 0
-285 -85 0
285 -232 85 0
-286 227 0
-286 137 0
286 -227 -137 0
-287 53 0
-287 222 0
287 -53 -222 0
-288 147 0
-288 -80 0
288 -147 80 0
-289 -148 0
-289 44 0
289 148 -44 0
-290 73 0
-290 -161 0
290 -73 161 0
-291 -145 -56 0
-291 145 56 0
291 145 -56 0
291 -145 56 0
-292 -279 0
-292 -57 0
292 279 57 0
-293 247 0
-293 174 0
293 -247 -174 0
-294 -154 0
-294 117 0
294 154 -117 0
-295 -31 -154 0
-295 31 154 0
295 31 -154 0
295 -31 154 0
-296 -230 0
-296 271 0
296 230 -271 0
-297 190 0
-297 -60 0
297 -190 60 0
-298 153 0
-298 -120 0
298 -153 120 0
-299 -196 0
-299 75 0
299 196 -75 0
-300 253 92 0
-300 -253 -92 0
300 -253 92 0
300 253 -92 0
-301 84 0
-301 -121 0
301 -84 121 0
-302 283 0
-302 201 0
302 -283 -201 0
-303 253 -177 0
-303 -253 177 0
303 -253 -177 0
303 253 177 0
-304 -47 0
-304 138 0
304 47 -138 0
-305 -109 0
-305 164 0
305 109 -164 0
-306 -70 0
-306 238 0
306 70 -238 0
-307 35 0
-307 -88 0
307 -35 88 0
-308 201 0
-308 73 0
308 -201 -73 0
-309 -8 0
-309 179 0
309 8 -179 0
-310 -239 0
-310 -269 0
310 239 269 0
-311 -22 0
-311 242 0
311 22 -242 0
-312 294 0
-312 -174 0
312 -294 174 0
-313 201 0
-313 -238 0
313 -201 238 0
-314 -23 178 0
-314 23 -178 0
314 23 178 0
314 -23 -178 0
-315 -54 0
-315 183 0
315 54 -183 0
-316 111 0
-316 -104 0
316 -111 104 0
-317 -102 0
-317 -194 0
317 102 194 0
-318 -298 0
-318 220 0
318 298 -220 0
-319 36 0
-319 -308 0
319 -36 308 0
-320 -103 0
-320 -237 0
320 103 237 0
-321 153 0
-321 291 0
321 -153 -291 0
-322 137 0
-322 27 0
322 -137 -27 0
-323 -210 38 0
-323 210 -38 0
323 210 38 0
323 -210 -38 0
-324 307 0
-324 253 0
324 -307 -253 0
-325 -222 0
-325 165 0
325 222 -165 0
-326 -31 279 0
-326 31 -279 0
326 31 279 0
326 -31 -279 0
-327 239 10 0
-327 -239 -10 0
327 -239 10 0
327 239 -10 0
-328 -97 0
-328 -266 0
328 97 266 0
-329 77 0
-329 35 0
329 -77 -35 0
-330 -289 0
-330 326 0
330 289 -326 0
-331 146 0
-331 -52 0
331 -146 52 0
-332 -303 0
-332 73 0
332 303 -73 0
-333 256 0
-333 -265 0
333 -256 265 0
-334 46 0
-334 -173 0
334 -46 173 0
-335 -304 0
-335 -224 0
335 304 224 0
-336 -75 0
-336 264 0
336 75 -264 0
-337 -205 -223 0
-337 205 223 0
337 205 -223 0
337 -205 223 0
-338 10 232 0
-338 -10 -232 0
338 -10 232 0
338 10 -232 0
-339 -113 0
-339 -44 0
339 113 44 0
-340 171 0
-340 -286 0
340 -171 286 0
-341 119 0
-341 -77 0
341 -119 77 0
-342 25 0
-342 191 0
342 -25 -191 0
-343 194 -69 0
-343 -194 69 0
343 -194 -69 0
343 194 69 0
-344 105 0
-344 341 0
344 -105 -341 0
-345 79 0
-345 212 0
345 -79 -212 0
-346 264 0
-346 -153 0
346 -264 153 0
-347 244 0
-347 -57 0
347 -244 57 0
-348 -18 0
-348 141 0
348 18 -141 0
-349 -302 0
-349 25 0
349 302 -25 0
-350 -329 0
-350 -128 0
350 329 128 0
-351 2 0
-351 73 0
351 -2 -73 0
-352 -85 0
-352 -308 0
352 85 308 0
-353 -41 120 0
-353 41 -120 0
353 41 120 0
353 -41 -120 0
-354 -230 0
-354 -197 0
354 230 197 0
-355 211 0
-355 -212 0
355 -211 212 0
-356 147 0
-356 197 0
356 -147 -197 0
-357 196 0
-357 -288 0
357 -196 288 0
-358 -181 0
-358 133 0
358 181 -133 0
-359 145 0
-359 -273 0
359 -145 273 0
-360 156 288 0
-360 -156 -288 0
360 -156 288 0
360 156 -288 0
-361 -293 329 0
-361 293 -329 0
361 293 329 0
361 -293 -329 0
-362 -234 0
-362 7 0
362 234 -7 0
-363 199 75 0
-363 -199 -75 0
363 -199 75 0
363 199 -75 0
-364 356 0
-364 -328 0
364 -356 328 0
-365 -313 0
-365 -239 0
365 313 239 0
-366 66 0
-366 364 0
366 -66 -364 0
-367 -239 298 0
-367 239 -298 0
367 239 298 0
367 -239 -298 0
-368 -171 -282 0
-368 171 282 0
368 171 -282 0
368 -171 282 0
-369 -74 154 0
-369 74 -154 0
369 74 154 0
369 -74 -154 0
-370 -68 0
-370 119 0
370 68 -119 0
-371 158 0
-371 -72 0
371 -158 72 0
-372 -270 0
-372 75 0
372 270 -75 0
-373 30 0
-373 304 0
373 -30 -304 0
-374 120 0
-374 69 0
374 -120 -69 0
-375 -237 0
-375 65 0
375 237 -65 0
-376 -10 -82 0
-376 10 82 0
376 10 -82 0
376 -10 82 0
-377 76 0
-377 48 0
377 -76 -48 0
-378 -203 101 0
-378 203 -101 0
378 203 101 0
378 -203 -101 0
-379 133 0
-379 286 0
379 -133 -286 0
-380 -81 -138 0
-380 81 138 0
380 81 -138 0
380 -81 138 0
-381 -188 0
-381 -128 0
381 188 128 0
-382 231 -160 0
-382 -231 160 0
382 -231 -160 0
382 231 160 0
-383 206 0
-383 20 0
383 -206 -20 0
-384 -189 0
-384 295 0
384 189 -295 0
-385 -131 -211 0
-385 131 211 0
385 131 -211 0
385 -131 211 0
-386 -136 -381 0
-386 136 381 0
386 136 -381 0
386 -136 381 0
-387 377 -76 0
-387 -377 76 0
387 -377 -76 0
387 377 76 0
-388 283 0
-388 -363 0
388 -283 363 0
-389 27 0
-389 -87 0
389 -27 87 0
-390 176 0
-390 14 0
390 -176 -14 0
-391 69 111 0
-391 -69 -111 0
391 -69 111 0
391 69 -111 0
-392 -253 0
-392 366 0
392 253 -366 0
-393 -195 0
-393 -134 0
393 195 134 0
-394 1 0
-394 -163 0
394 -1 163 0
-395 367 270 0
-395 -367 -270 0
395 -367 270 0
395 367 -270 0
-396 170 177 0
-396 -170 -177 0
396 -170 177 0
396 170 -177 0
-397 141 0
-397 206 0
397 -141 -206 0
-398 319 0
-398 213 0
398 -319 -213 0
-399 -53 0
-399 -71 0
399 53 71 0
-400 -265 0
-400 144 0
400 265 -144 0
-401 -355 84 0
-401 355 -84 0
401 355 84 0
401 -355 -84 0
-402 164 0
-402 -55 0
402 -164 55 0
-403 49 0
-403 219 0
403 -49 -219 0
-404 -123 0
-404 -141 0
404 123 141 0
-405 -19 0
-405 201 0
405 19 -201 0
-406 -42 0
-406 -120 0
406 42 120 0
-407 256 26 0
-407 -256 -26 0
407 -256 26 0
407 256 -26 0
-408 -59 0
-408 -216 0
408 59 216 0
-409 -318 0
-409 -84 0
409 318 84 0
-410 372 76 0
-410 -372 -76 0
410 -372 76 0
410 372 -76 0
-411 -347 0
-411 199 0
411 347 -199 0
-412 -91 294 0
-412 91 -294 0
412 91 294 0
412 -91 -294 0
-413 -24 0
-413 -181 0
413 24 181 0
-414 -348 0
-414 389 0
414 348 -389 0
-415 -315 0
-415 84 0
415 315 -84 0
-416 -162 0
-416 -202 0
416 162 202 0
-417 250 -134 0
-417 -250 134 0
417 -250 -134 0
417 250 134 0
-418 -339 0
-418 60 0
418 339 -60 0
-419 -145 0
-419 -359 0
419 145 359 0
-420 -113 0
-420 108 0
420 113 -108 0
-421 383 0
-421 -5 0
421 -383 5 0
-422 316 0
-422 415 0
422 -316 -415 0
-423 394 375 0
-423 -394 -375 0
423 -394 375 0
423 394 -375 0
-424 -64 0
-424 395 0
424 64 -395 0
-425 -314 0
-425 -368 0
425 314 368 0
-426 57 0
-426 -420 0
426 -57 420 0
-427 -394 0
-427 -40 0
427 394 40 0
-428 -304 0
-428 164 0
428 304 -164 0
-429 29 -349 0
-429 -29 349 0
429 -29 -349 0
429 29 349 0
-430 419 0
-430 -76 0
430 -419 76 0
-431 324 0
-431 302 0
431 -324 -302 0
-432 -141 0
-432 -249 0
432 141 249 0
-433 59 0
-433 316 0
433 -59 -316 0
-434 17 0
-434 279 0
434 -17 -279 0
-435 -413 0
-435 116 0
435 413 -116 0
-436 -74 0
-436 -405 0
436 74 405 0
-437 245 0
-437 -321 0
437 -245 321 0
-438 377 0
-438 273 0
438 -377 -273 0
-439 277 290 0
-439 -277 -290 0
439 -277 290 0
439 277 -290 0
-440 -128 0
-440 -381 0
440 128 381 0
-441 278 0
-441 435 0
441 -278 -435 0
-442 120 0
-442 226 0
442 -120 -226 0
-443 -8 0
-443 36 0
443 8 -36 0
-444 316 -195 0
-444 -316 195 0
444 -316 -195 0
444 316 195 0
-445 128 0
-445 148 0
445 -128 -148 0
-446 -76 0
-446 94 0
446 76 -94 0
-447 7 0
-447 -416 0
447 -7 416 0
-448 -166 0
-448 104 0
448 166 -104 0
-449 -366 0
-449 -425 0
449 366 425 0
-450 -411 -166 0
-450 411 166 0
450 411 -166 0
450 -411 166 0
-451 440 0
-451 -252 0
451 -440 252 0
-452 -370 0
-452 337 0
452 370 -337 0
-453 208 0
-453 -19 0
453 -208 19 0
-454 -124 0
-454 -158 0
454 124 158 0
-455 113 439 0
-455 -113 -439 0
455 -113 439 0
455 113 -439 0
-456 -243 0
-456 111 0
456 243 -111 0
-457 362 0
-457 94 0
457 -362 -94 0
-458 -437 0
-458 294 0
458 437 -294 0
-459 -14 0
-459 5 0
459 14 -5 0
-460 -349 0
-460 -451 0
460 349 451 0
-461 257 0
-461 1 0
461 -257 -1 0
-462 -178 0
-462 239 0
462 178 -239 0
-463 -455 0
-463 -274 0
463 455 274 0
-464 -326 -291 0
-464 326 291 0
464 326 -291 0
464 -326 291 0
-465 354 0
-465 -190 0
465 -354 190 0
-466 -188 26 0
-466 188 -26 0
466 188 26 0
466 -188 -26 0
-467 7 -24 0
-467 -7 24 0
467 -7 -24 0
467 7 24 0
-468 257 0
-468 -450 0
468 -257 450 0
-469 -69 -460 0
-469 69 460 0
469 69 -460 0
469 -69 460 0
-470 348 0
-470 76 0
470 -348 -76 0
-471 -240 0
-471 455 0
471 240 -455 0
-472 -195 0
-472 340 0
472 195 -340 0
-473 224 0
-473 -13 0
473 -224 13 0
-474 70 0
-474 315 0
474 -70 -315 0
-475 182 -341 0
-475 -182 341 0
475 -182 -341 0
475 182 341 0
-476 68 423 0
-476 -68 -423 0
476 -68 423 0
476 68 -423 0
-477 -372 0
-477 -152 0
477 372 152 0
-478 197 0
-478 -359 0
478 -197 359 0
-479 -317 0
-479 -246 0
479 317 246 0
-480 -314 -65 0
-480 314 65 0
480 314 -65 0
480 -314 65 0
-481 -145 0
-481 -324 0
481 145 324 0
-482 -372 0
-482 294 0
482 372 -294 0
-483 131 -386 0
-483 -131 386 0
483 -131 -386 0
483 131 386 0
-484 432 0
-484 42 0
484 -432 -42 0
-485 -81 0
-485 273 0
485 81 -273 0
-486 381 0
-486 421 0
486 -381 -421 0
-487 -202 -156 0
-487 202 156 0
487 202 -156 0
487 -202 156 0
-488 64 -44 0
-488 -64 44 0
488 -64 -44 0
488 64 44 0
-489 271 0
-489 -470 0
489 -271 470 0
-490 -148 0
-490 159 0
490 148 -159 0
-491 404 0
-491 -124 0
491 -404 124 0
-492 315 0
-492 -120 0
492 -315 120 0
-493 376 0
-493 -206 0
493 -376 206 0
-494 483 -443 0
-494 -483 443 0
494 -483 -443 0
494 483 443 0
-495 436 0
-495 131 0
495 -436 -131 0
-496 -35 0
-496 -127 0
496 35 127 0
-497 121 0
-497 -382 0
497 -121 382 0
-498 -89 0
-498 -424 0
498 89 424 0
-499 -317 -156 0
-499 317 156 0
499 317 -156 0
499 -317 156 0
-500 -403 0
-500 258 0
500 403 -258 0
-501 387 0
-501 -101 0
501 -387 101 0
-502 -484 -238 0
-502 484 238 0
502 484 -238 0
502 -484 238 0
-503 -150 -10 0
-503 150 10 0
503 150 -10 0
503 -150 10 0
-504 361 0
-504 -20 0
504 -361 20 0
-505 -58 -195 0
-505 58 195 0
505 58 -195 0
505 -58 195 0
-506 -395 0
-506 -376 0
506 395 376 0
-507 439 0
-507 -403 0
507 -439 403 0
-508 244 0
-508 335 0
508 -244 -335 0
-509 105 0
-509 -314 0
509 -105 314 0
-510 -415 0
-510 -271 0
510 415 271 0
-511 34 3 0
-511 -34 -3 0
511 -34 3 0
511 34 -3 0
-512 260 256 0
-512 -260 -256 0
512 -260 256 0
512 260 -256 0
-513 52 59 0
-513 -52 -59 0
513 -52 59 0
513 52 -59 0
-514 -388 0
-514 92 0
514 388 -92 0
-515 -234 0
-515 -402 0
515 234 402 0
-516 18 0
-516 -77 0
516 -18 77 0
-517 -335 0
-517 -7 0
517 335 7 0
-518 -227 306 0
-518 227 -306 0
518 227 306 0
518 -227 -306 0
-519 51 -147 0
-519 -51 147 0
519 -51 -147 0
519 51 147 0
-520 -480 -83 0
-520 480 83 0
520 480 -83 0
520 -480 83 0
-521 269 -461 0
-521 -269 461 0
521 -269 -461 0
521 269 461 0
-522 225 0
-522 -436 0
522 -225 436 0
-523 109 0
-523 -434 0
523 -109 434 0
-524 -9 0
-524 -499 0
524 9 499 0
-525 173 0
-525 -70 0
525 -173 70 0
-526 245 0
-526 -99 0
526 -245 99 0
-527 -468 0
-527 -432 0
527 468 432 0
-528 265 0
-528 -249 0
528 -265 249 0
-529 -407 -300 0
-529 407 300 0
529 407 -300 0
529 -407 300 0
-530 -140 -35 0
-530 140 35 0
530 140 -35 0
530 -140 35 0
-531 -297 0
-531 -115 0
531 297 115 0
-532 -178 0
-532 -261 0
532 178 261 0
-533 -393 0
-533 402 0
533 393 -402 0
-534 418 435 0
-534 -418 -435 0
534 -418 435 0
534 418 -435 0
-535 363 0
-535 130 0
535 -363 -130 0
-536 -187 491 0
-536 187 -491 0
536 187 491 0
536 -187 -491 0
-537 -169 -298 0
-537 169 298 0
537 169 -298 0
537 -169 298 0
-538 140 -510 0
-538 -140 510 0
538 -140 -510 0
538 140 510 0
-539 -373 0
-539 -164 0
539 373 164 0
-540 -171 0
-540 -176 0
540 171 176 0
-541 108 0
-541 -343 0
541 -108 343 0
-542 251 0
-542 204 0
542 -251 -204 0
-543 469 154 0
-543 -469 -154 0
543 -469 154 0
543 469 -154 0
-544 -235 0
-544 20 0
544 235 -20 0
-545 51 250 0
-545 -51 -250 0
545 -51 250 0
545 51 -250 0
-546 280 535 0
-546 -280 -535 0
546 -280 535 0
546 280 -535 0
-547 -66 -230 0
-547 66 230 0
547 66 -230 0
547 -66 230 0
-548 458 0
-548 214 0
548 -458 -214 0
-549 408 0
-549 238 0
549 -408 -238 0
-550 -148 0
-550 540 0
550 148 -540 0
-551 -371 0
-551 -403 0
551 371 403 0
-552 -335 0
-552 211 0
552 335 -211 0
-553 348 0
-553 178 0
553 -348 -178 0
-554 -66 0
-554 39 0
554 66 -39 0
-555 405 0
-555 17 0
555 -405 -17 0
-556 224 302 0
-556 -224 -302 0
556 -224 302 0
556 224 -302 0
-557 -264 0
-557 271 0
557 264 -271 0
-558 290 0
-558 -246 0
558 -290 246 0
-559 537 -123 0
-559 -537 123 0
559 -537 -123 0
559 537 123 0
-560 302 378 0
-560 -302 -378 0
560 -302 378 0
560 302 -378 0
-561 -303 -549 0
-561 303 549 0
561 303 -549 0
561 -303 549 0
-562 135 0
-562 213 0
562 -135 -213 0
-563 -434 0
-563 -549 0
563 434 549 0
-564 125 0
-564 296 0
564 -125 -296 0
-565 560 0
-565 335 0
565 -560 -335 0
-566 -279 0
-566 123 0
566 279 -123 0
-567 -114 0
-567 -518 0
567 114 518 0
-568 553 0
-568 -183 0
568 -553 183 0
-569 -305 0
-569 -405 0
569 305 405 0
-570 -173 -111 0
-570 173 111 0
570 173 -111 0
570 -173 111 0
-571 -545 0
-571 361 0
571 545 -361 0
-572 243 0
-572 339 0
572 -243 -339 0
-573 -83 0
-573 -390 0
573 83 390 0
-574 -467 0
-574 -311 0
574 467 311 0
-575 464 534 0
-575 -464 -534 0
575 -464 534 0
575 464 -534 0
-576 201 0
-576 480 0
576 -201 -480 0
-577 -88 564 0
-577 88 -564 0
577 88 564 0
577 -88 -564 0
-578 256 139 0
-578 -256 -139 0
578 -256 139 0
578 256 -139 0
-579 -32 0
-579 262 0
579 32 -262 0
-580 403 0
-580 121 0
580 -403 -121 0
-581 579 348 0
-581 -579 -348 0
581 -579 348 0
581 579 -348 0
-582 390 487 0
-582 -390 -487 0
582 -390 487 0
582 390 -487 0
-583 -381 275 0
-583 381 -275 0
583 381 275 0
583 -381 -275 0
-584 549 0
-584 336 0
584 -549 -336 0
-585 142 0
-585 345 0
585 -142 -345 0
-586 -169 0
-586 -541 0
586 169 541 0
-587 583 0
-587 561 0
587 -583 -561 0
-588 -217 0
-588 -525 0
588 217 525 0
-589 561 0
-589 -226 0
589 -561 226 0
-590 354 0
-590 -118 0
590 -354 118 0
-591 -227 0
-591 521 0
591 227 -521 0
-592 291 0
-592 -23 0
592 -291 23 0
-593 61 0
-593 339 0
593 -61 -339 0
-594 500 0
-594 255 0
594 -500 -255 0
-595 386 0
-595 -487 0
595 -386 487 0
-596 305 -34 0
-596 -305 34 0
596 -305 -34 0
596 305 34 0
-597 123 0
-597 31 0
597 -123 -31 0
-598 -471 0
-598 -551 0
598 471 551 0
-599 -126 -50 0
-599 126 50 0
599 126 -50 0
599 -126 50 0
-600 162 398 0
-600 -162 -398 0
600 -162 398 0
600 162 -398 0
-601 586 0
-601 285 0
601 -586 -285 0
-602 -496 373 0
-602 496 -373 0
602 496 373 0
602 -496 -373 0
-603 271 0
-603 7 0
603 -271 -7 0
-604 379 0
-604 -538 0
604 -379 538 0
-605 118 -86 0
-605 -118 86 0
605 -118 -86 0
605 118 86 0
-606 81 95 0
-606 -81 -95 0
606 -81 95 0
606 81 -95 0
-607 524 0
-607 -525 0
607 -524 525 0
-608 -595 0
-608 -176 0
608 595 176 0
-609 -543 0
-609 214 0
609 543 -214 0
-610 -164 -494 0
-610 164 494 0
610 164 -494 0
610 -164 494 0
-611 217 -34 0
-611 -217 34 0
611 -217 -34 0
611 217 34 0
-612 287 -465 0
-612 -287 465 0
612 -287 -465 0
612 287 465 0
-613 -442 0
-613 321 0
613 442 -321 0
-614 -328 382 0
-614 328 -382 0
614 328 382 0
614 -328 -382 0
-615 63 0
-615 355 0
615 -63 -355 0
-616 -422 0
-616 333 0
616 422 -333 0
-617 575 0
-617 425 0
617 -575 -425 0
-618 49 0
-618 -3 0
618 -49 3 0
-619 -99 381 0
-619 99 -381 0
619 99 381 0
619 -99 -381 0
-620 69 -555 0
-620 -69 555 0
620 -69 -555 0
620 69 555 0
-621 512 0
-621 -596 0
621 -512 596 0
-622 -62 331 0
-622 62 -331 0
622 62 331 0
622 -62 -331 0
-623 -313 0
-623 -505 0
623 313 505 0
-624 367 -287 0
-624 -367 287 0
624 -367 -287 0
624 367 287 0
-625 -32 0
-625 -219 0
625 32 219 0
-626 28 0
-626 -322 0
626 -28 322 0
-627 -536 25 0
-627 536 -25 0
627 536 25 0
627 -536 -25 0
-628 98 0
-628 619 0
628 -98 -619 0
-629 -536 0
-629 -17 0
629 536 17 0
-630 -139 -595 0
-630 139 595 0
630 139 -595 0
630 -139 595 0
-631 -3 0
-631 -157 0
631 3 157 0
-632 -148 0
-632 449 0
632 148 -449 0
-633 -458 513 0
-633 458 -513 0
633 458 513 0
633 -458 -513 0
-634 194 0
-634 325 0
634 -194 -325 0
-635 458 628 0
-635 -458 -628 0
635 -458 628 0
635 458 -628 0
-636 160 -393 0
-636 -160 393 0
636 -160 -393 0
636 160 393 0
-637 118 0
-637 -601 0
637 -118 601 0
-638 559 0
-638 -428 0
638 -559 428 0
-639 -251 0
-639 -89 0
639 251 89 0
-640 438 0
-640 385 0
640 -438 -385 0
-641 100 0
-641 -236 0
641 -100 236 0
-642 155 0
-642 -164 0
642 -155 164 0
-643 -294 266 0
-643 294 -266 0
643 294 266 0
643 -294 -266 0
-644 -97 0
-644 -229 0
644 97 229 0
-645 349 0
-645 45 0
645 -349 -45 0
-646 419 28 0
-646 -419 -28 0
646 -419 28 0
646 419 -28 0
-647 -90 0
-647 454 0
647 90 -454 0
-648 404 0
-648 463 0
648 -404 -463 0
-649 4 0
-649 202 0
649 -4 -202 0
-650 -574 0
-650 553 0
650 574 -553 0
-651 621 0
-651 -266 0
651 -621 266 0
-652 247 0
-652 -215 0
652 -247 215 0
-653 -617 0
-653 220 0
653 617 -220 0
-654 249 -290 0
-654 -249 290 0
654 -249 -290 0
654 249 290 0
-655 -143 0
-655 186 0
655 143 -186 0
-656 -583 0
-656 138 0
656 583 -138 0
-657 -58 0
-657 -361 0
657 58 361 0
-658 -289 0
-658 -420 0
658 289 420 0
-659 11 0
-659 -441 0
659 -11 441 0
-660 -138 0
-660 -312 0
660 138 312 0
-661 382 0
-661 -472 0
661 -382 472 0
-662 -392 0
-662 409 0
662 392 -409 0
-663 32 0
-663 531 0
663 -32 -531 0
-664 453 0
-664 55 0
664 -453 -55 0
-665 -434 0
-665 -217 0
665 434 217 0
-666 359 0
-666 -307 0
666 -359 307 0
-667 32 0
-667 -370 0
667 -32 370 0
-668 178 -34 0
-668 -178 34 0
668 -178 -34 0
668 178 34 0
-669 -165 -653 0
-669 165 653 0
669 165 -653 0
669 -165 653 0
-670 -278 0
-670 41 0
670 278 -41 0
-671 101 567 0
-671 -101 -567 0
671 -101 567 0
671 101 -567 0
-672 27 0
-672 301 0
672 -27 -301 0
-673 512 0
-673 -441 0
673 -512 441 0
-674 -277 0
-674 -548 0
674 277 548 0
-675 -477 0
-675 291 0
675 477 -291 0
-676 258 0
-676 8 0
676 -258 -8 0
-677 -418 0
-677 -253 0
677 418 253 0
-678 288 0
-678 19 0
678 -288 -19 0
-679 84 -331 0
-679 -84 331 0
679 -84 -331 0
679 84 331 0
-680 -485 0
-680 -34 0
680 485 34 0
-681 -272 0
-681 -107 0
681 272 107 0
-682 22 0
-682 463 0
682 -22 -463 0
-683 333 0
-683 -326 0
683 -333 326 0
-684 -4 0
-684 585 0
684 4 -585 0
-685 683 0
-685 -366 0
685 -683 366 0
-686 -445 0
-686 466 0
686 445 -466 0
-687 -10 -283 0
-687 10 283 0
687 10 -283 0
687 -10 283 0
-688 -402 178 0
-688 402 -178 0
688 402 178 0
688 -402 -178 0
-689 -641 0
-689 87 0
689 641 -87 0
-690 99 0
-690 187 0
690 -99 -187 0
-691 293 0
-691 -445 0
691 -293 445 0
-692 520 0
-692 225 0
692 -520 -225 0
-693 -614 0
-693 -471 0
693 614 471 0
-694 -690 0
-694 597 0
694 690 -597 0
-695 -685 0
-695 -270 0
695 685 270 0
-696 280 0
-696 -317 0
696 -280 317 0
-697 -54 0
-697 40 0
697 54 -40 0
-698 293 0
-698 -327 0
698 -293 327 0
-699 -337 -479 0
-699 337 479 0
699 337 -479 0
699 -337 479 0
-700 -518 0
-700 377 0
700 518 -377 0
-701 -265 0
-701 128 0
701 265 -128 0
-702 -304 0
-702 201 0
702 304 -201 0
-703 -617 555 0
-703 617 -555 0
703 617 555 0
703 -617 -555 0
-704 -22 0
-704 -63 0
704 22 63 0
-705 154 0
-705 -516 0
705 -154 516 0
-706 586 460 0
-706 -586 -460 0
706 -586 460 0
706 586 -460 0
-707 127 -675 0
-707 -127 675 0
707 -127 -675 0
707 127 675 0
-708 421 0
-708 -212 0
708 -421 212 0
-709 270 0
-709 -190 0
709 -270 190 0
-710 189 0
-710 252 0
710 -189 -252 0
-711 521 0
-711 -175 0
711 -521 175 0
-712 582 0
-712 -342 0
712 -582 342 0
-713 -234 -316 0
-713 234 316 0
713 234 -316 0
713 -234 316 0
-714 345 0
-714 331 0
714 -345 -331 0
-715 -169 273 0
-715 169 -273 0
715 169 273 0
715 -169 -273 0
-716 -260 -545 0
-716 260 545 0
716 260 -545 0
716 -260 545 0
-717 -575 -401 0
-717 575 401 0
717 575 -401 0
717 -575 401 0
-718 -519 0
-718 -538 0
718 519 538 0
-719 -340 0
-719 -522 0
719 340 522 0
-720 583 0
-720 -294 0
720 -583 294 0
-721 535 0
-721 234 0
721 -535 -234 0
-722 183 709 0
-722 -183 -709 0
722 -183 709 0
722 183 -709 0
-723 39 0
-723 562 0
723 -39 -562 0
-724 -180 0
-724 -702 0
724 180 702 0
-725 -378 0
-725 630 0
725 378 -630 0
-726 -41 0
-726 440 0
726 41 -440 0
-727 274 0
-727 723 0
727 -274 -723 0
-728 -393 0
-728 172 0
728 393 -172 0
-729 276 -353 0
-729 -276 353 0
729 -276 -353 0
729 276 353 0
-730 405 249 0
-730 -405 -249 0
730 -405 249 0
730 405 -249 0
-731 652 395 0
-731 -652 -395 0
731 -652 395 0
731 652 -395 0
-732 -207 0
-732 165 0
732 207 -165 0
-733 -609 0
-733 -590 0
733 609 590 0
-734 -524 0
-734 -688 0
734 524 688 0
-735 -244 0
-735 -614 0
735 244 614 0
-736 331 0
-736 294 0
736 -331 -294 0
-737 277 0
-737 -154 0
737 -277 154 0
-738 -526 -178 0
-738 526 178 0
738 526 -178 0
738 -526 178 0
-739 635 0
-739 -256 0
739 -635 256 0
-740 -95 0
-740 -552 0
740 95 552 0
-741 -4 0
-741 178 0
741 4 -178 0
-742 175 0
-742 -89 0
742 -175 89 0
-743 -116 0
-743 474 0
743 116 -474 0
-744 241 0
-744 -618 0
744 -241 618 0
-745 361 0
-745 -157 0
745 -361 157 0
-746 -251 0
-746 585 0
746 251 -585 0
-747 -461 528 0
-747 461 -528 0
747 461 528 0
747 -461 -528 0
-748 724 0
-748 -398 0
748 -724 398 0
-749 607 0
-749 -104 0
749 -607 104 0
-750 661 337 0
-750 -661 -337 0
750 -661 337 0
750 661 -337 0
-751 -271 702 0
-751 271 -702 0
751 271 702 0
751 -271 -702 0
-752 -124 0
-752 140 0
752 124 -140 0
-753 202 0
-753 -593 0
753 -202 593 0
-754 373 338 0
-754 -373 -338 0
754 -373 338 0
754 373 -338 0
-755 64 0
-755 -26 0
755 -64 26 0
-756 47 306 0
-756 -47 -306 0
756 -47 306 0
756 47 -306 0
-757 -441 0
-757 679 0
757 441 -679 0
-758 -493 0
-758 391 0
758 493 -391 0
-759 39 -565 0
-759 -39 565 0
759 -39 -565 0
759 39 565 0
-760 582 0
-760 -177 0
760 -582 177 0
-761 -225 0
-761 -630 0
761 225 630 0
-762 224 719 0
-762 -224 -719 0
762 -224 719 0
762 224 -719 0
-763 233 0
-763 18 0
763 -233 -18 0
-764 625 0
-764 257 0
764 -625 -257 0
-765 489 0
-765 336 0
765 -489 -336 0
-766 650 0
-766 164 0
766 -650 -164 0
-767 679 0
-767 -49 0
767 -679 49 0
-768 351 664 0
-768 -351 -664 0
768 -351 664 0
768 351 -664 0
-769 -681 0
-769 380 0
769 681 -380 0
-770 -632 0
-770 -36 0
770 632 36 0
-771 -432 0
-771 75 0
771 432 -75 0
-772 32 0
-772 -27 0
772 -32 27 0
-773 295 0
-773 750 0
773 -295 -750 0
-774 -167 0
-774 -166 0
774 167 166 0
-775 -663 0
-775 716 0
775 663 -716 0
-776 63 379 0
-776 -63 -379 0
776 -63 379 0
776 63 -379 0
-777 -305 0
-777 623 0
777 305 -623 0
-778 -657 244 0
-778 657 -244 0
778 657 244 0
778 -657 -244 0
-779 -350 0
-779 479 0
779 350 -479 0
-780 404 0
-780 715 0
780 -404 -715 0
-781 -286 0
-781 -64 0
781 286 64 0
-782 -514 0
-782 118 0
782 514 -118 0
-783 59 0
-783 -561 0
783 -59 561 0
-784 745 307 0
-784 -745 -307 0
784 -745 307 0
784 745 -307 0
-785 57 0
-785 481 0
785 -57 -481 0
-786 -14 0
-786 -295 0
786 14 295 0
-787 141 0
-787 -749 0
787 -141 749 0
-788 374 86 0
-788 -374 -86 0
788 -374 86 0
788 374 -86 0
-789 227 0
-789 349 0
789 -227 -349 0
-790 -625 0
-790 467 0
790 625 -467 0
-791 149 0
-791 745 0
791 -149 -745 0
-792 78 0
-792 383 0
792 -78 -383 0
-793 -480 0
-793 -23 0
793 480 23 0
-794 -13 0
-794 -253 0
794 13 253 0
-795 -98 0
-795 149 0
795 98 -149 0
-796 -35 0
-796 429 0
796 35 -429 0
-797 -158 0
-797 173 0
797 158 -173 0
-798 -216 0
-798 436 0
798 216 -436 0
-799 570 0
-799 -105 0
799 -570 105 0
-800 400 0
-800 371 0
800 -400 -371 0
-801 463 0
-801 373 0
801 -463 -373 0
-802 57 366 0
-802 -57 -366 0
802 -57 366 0
802 57 -366 0
-803 466 0
-803 -720 0
803 -466 720 0
-804 -676 0
-804 751 0
804 676 -751 0
-805 -487 0
-805 730 0
805 487 -730 0
-806 -630 -66 0
-806 630 66 0
806 630 -66 0
806 -630 66 0
-807 -733 0
-807 -173 0
807 733 173 0
-808 136 0
-808 -47 0
808 -136 47 0
-809 652 0
-809 674 0
809 -652 -674 0
-810 286 0
-810 339 0
810 -286 -339 0
-811 803 0
-811 149 0
811 -803 -149 0
-812 -103 138 0
-812 103 -138 0
812 103 138 0
812 -103 -138 0
-813 243 0
-813 420 0
813 -243 -420 0
-814 -436 226 0
-814 436 -226 0
814 436 226 0
814 -436 -226 0
-815 383 -212 0
-815 -383 212 0
815 -383 -212 0
815 383 212 0
-816 442 0
-816 38 0
816 -442 -38 0
-817 155 0
-817 -317 0
817 -155 317 0
-818 522 0
-818 -428 0
818 -522 428 0
-819 293 0
-819 -322 0
819 -293 322 0
-820 608 0
-820 58 0
820 -608 -58 0
-821 -527 0
-821 747 0
821 527 -747 0
-822 642 79 0
-822 -642 -79 0
822 -642 79 0
822 642 -79 0
-823 648 0
-823 220 0
823 -648 -220 0
-824 354 0
-824 -375 0
824 -354 375 0
-825 -160 0
-825 -771 0
825 160 771 0
-826 -747 813 0
-826 747 -813 0
826 747 813 0
826 -747 -813 0
-827 -191 -31 0
-827 191 31 0
827 191 -31 0
827 -191 31 0
-828 289 0
-828 -763 0
828 -289 763 0
-829 -145 0
-829 -466 0
829 145 466 0
-830 -379 0
-830 -461 0
830 379 461 0
-831 501 0
-831 -255 0
831 -501 255 0
-832 -426 0
-832 526 0
832 426 -526 0
-833 -658 0
-833 796 0
833 658 -796 0
-834 236 0
-834 -827 0
834 -236 827 0
-835 508 -388 0
-835 -508 388 0
835 -508 -388 0
835 508 388 0
-836 428 0
-836 621 0
836 -428 -621 0
-837 -475 0
-837 526 0
837 475 -526 0
-838 -516 0
-838 -609 0
838 516 609 0
-839 783 -2 0
-839 -783 2 0
839 -783 -2 0
839 783 2 0
-840 -314 528 0
-840 314 -528 0
840 314 528 0
840 -314 -528 0
-841 273 0
-841 146 0
841 -273 -146 0
-842 492 0
-842 689 0
842 -492 -689 0
-843 625 0
-843 -814 0
843 -625 814 0
-844 -751 0
-844 -343 0
844 751 343 0
-845 -491 0
-845 492 0
845 491 -492 0
-846 -252 0
-846 -197 0
846 252 197 0
-847 627 0
-847 795 0
847 -627 -795 0
-848 204 0
-848 -634 0
848 -204 634 0
-849 -584 0
-849 23 0
849 584 -23 0
-850 -242 0
-850 -471 0
850 242 471 0
-851 338 -772 0
-851 -338 772 0
851 -338 -772 0
851 338 772 0
-852 -155 0
-852 -493 0
852 155 493 0
-853 -366 0
-853 -702 0
853 366 702 0
-854 273 0
-854 555 0
854 -273 -555 0
-855 712 508 0
-855 -712 -508 0
855 -712 508 0
855 712 -508 0
-856 -141 -424 0
-856 141 424 0
856 141 -424 0
856 -141 424 0
-857 -26 0
-857 -569 0
857 26 569 0
-858 -329 0
-858 -626 0
858 329 626 0
-859 817 0
-859 -851 0
859 -817 851 0
-860 -100 -633 0
-860 100 633 0
860 100 -633 0
860 -100 633 0
-861 820 -131 0
-861 -820 131 0
861 -820 -131 0
861 820 131 0
-862 -700 0
-862 -662 0
862 700 662 0
-863 -727 0
-863 314 0
863 727 -314 0
-864 345 0
-864 -552 0
864 -345 552 0
-865 558 0
-865 -653 0
865 -558 653 0
-866 -184 0
-866 -814 0
866 184 814 0
-867 389 0
-867 -54 0
867 -389 54 0
-868 40 148 0
-868 -40 -148 0
868 -40 148 0
868 40 -148 0
-869 -828 0
-869 -776 0
869 828 776 0
-870 -92 830 0
-870 92 -830 0
870 92 830 0
870 -92 -830 0
-871 -431 0
-871 -840 0
871 431 840 0
-872 -92 0
-872 425 0
872 92 -425 0
-873 623 0
-873 531 0
873 -623 -531 0
-874 -321 283 0
-874 321 -283 0
874 321 283 0
874 -321 -283 0
-875 -331 0
-875 194 0
875 331 -194 0
-876 177 253 0
-876 -177 -253 0
876 -177 253 0
876 177 -253 0
-877 75 -414 0
-877 -75 414 0
877 -75 -414 0
877 75 414 0
-878 736 0
-878 163 0
878 -736 -163 0
-879 -757 605 0
-879 757 -605 0
879 757 605 0
879 -757 -605 0
-880 309 0
-880 210 0
880 -309 -210 0
-881 837 0
-881 -441 0
881 -837 441 0
-882 33 651 0
-882 -33 -651 0
882 -33 651 0
882 33 -651 0
-883 -298 0
-883 -856 0
883 298 856 0
-884 541 0
-884 232 0
884 -541 -232 0
-885 512 0
-885 -125 0
885 -512 125 0
-886 434 574 0
-886 -434 -574 0
886 -434 574 0
886 434 -574 0
-887 53 0
-887 -387 0
887 -53 387 0
-888 782 0
-888 -773 0
888 -782 773 0
-889 -607 -584 0
-889 607 584 0
889 607 -584 0
889 -607 584 0
-890 -571 0
-890 -31 0
890 571 31 0
-891 155 0
-891 545 0
891 -155 -545 0
-892 687 227 0
-892 -687 -227 0
892 -687 227 0
892 687 -227 0
-893 160 0
-893 -675 0
893 -160 675 0
-894 836 -282 0
-894 -836 282 0
894 -836 -282 0
894 836 282 0
-895 600 -749 0
-895 -600 749 0
895 -600 -749 0
895 600 749 0
-896 51 0
-896 327 0
896 -51 -327 0
-897 -731 0
-897 -52 0
897 731 52 0
-898 322 689 0
-898 -322 -689 0
898 -322 689 0
898 322 -689 0
-899 -651 0
-899 -738 0
899 651 738 0
-900 289 0
-900 272 0
900 -289 -272 0
-901 -255 432 0
-901 255 -432 0
901 255 432 0
901 -255 -432 0
-902 -889 0
-902 -790 0
902 889 790 0
-903 -755 620 0
-903 755 -620 0
903 755 620 0
903 -755 -620 0
-904 -67 0
-904 595 0
904 67 -595 0
-905 -641 0
-905 -747 0
905 641 747 0
-906 -519 0
-906 145 0
906 519 -145 0
-907 -847 0
-907 39 0
907 847 -39 0
-908 -97 0
-908 467 0
908 97 -467 0
-909 -212 0
-909 381 0
909 212 -381 0
-910 724 0
-910 -421 0
910 -724 421 0
-911 509 0
-911 145 0
911 -509 -145 0
-912 783 187 0
-912 -783 -187 0
912 -783 187 0
912 783 -187 0
-913 -879 0
-913 -716 0
913 879 716 0
-914 -376 0
-914 -496 0
914 376 496 0
-915 803 -8 0
-915 -803 8 0
915 -803 -8 0
915 803 8 0
-916 568 0
-916 45 0
916 -568 -45 0
-917 604 -293 0
-917 -604 293 0
917 -604 -293 0
917 604 293 0
-918 -102 0
-918 -597 0
918 102 597 0
-919 892 0
-919 -120 0
919 -892 120 0
-920 172 0
-920 814 0
920 -172 -814 0
-921 -457 0
-921 -470 0
921 457 470 0
-922 62 0
-922 905 0
922 -62 -905 0
-923 -918 0
-923 -841 0
923 918 841 0
-924 -43 0
-924 403 0
924 43 -403 0
-925 495 -88 0
-925 -495 88 0
925 -495 -88 0
925 495 88 0
-926 -463 0
-926 -57 0
926 463 57 0
-927 -81 0
-927 580 0
927 81 -580 0
-928 545 0
-928 -917 0
928 -545 917 0
-929 -481 0
-929 -466 0
929 481 466 0
-930 -884 192 0
-930 884 -192 0
930 884 192 0
930 -884 -192 0
-931 102 0
-931 861 0
931 -102 -861 0
-932 740 -832 0
-932 -740 832 0
932 -740 -832 0
932 740 832 0
-933 -530 0
-933 904 0
933 530 -904 0
-934 807 0
-934 412 0
934 -807 -412 0
-935 -765 0
-935 -594 0
935 765 594 0
-936 135 -268 0
-936 -135 268 0
936 -135 -268 0
936 135 268 0
-937 -154 780 0
-937 154 -780 0
937 154 780 0
937 -154 -780 0
-938 -86 0
-938 -126 0
938 86 126 0
-939 693 0
-939 36 0
939 -693 -36 0
-940 638 0
-940 602 0
940 -638 -602 0
-941 -761 0
-941 132 0
941 761 -132 0
-942 217 0
-942 48 0
942 -217 -48 0
-943 69 0
-943 -737 0
943 -69 737 0
-944 508 0
-944 -208 0
944 -508 208 0
-945 -794 325 0
-945 794 -325 0
945 794 325 0
945 -794 -325 0
-946 -584 0
-946 -322 0
946 584 322 0
-947 531 0
-947 386 0
947 -531 -386 0
-948 -485 0
-948 -215 0
948 485 215 0
-949 -206 0
-949 237 0
949 206 -237 0
-950 447 350 0
-950 -447 -350 0
950 -447 350 0
950 447 -350 0
-951 383 0
-951 601 0
951 -383 -601 0
-952 -697 -37 0
-952 697 37 0
952 697 -37 0
952 -697 37 0
-953 -434 0
-953 -299 0
953 434 299 0
-954 -66 0
-954 455 0
954 66 -455 0
-955 -666 0
-955 -763 0
955 666 763 0
-956 581 0
-956 463 0
956 -581 -463 0
-957 -461 0
-957 -526 0
957 461 526 0
-958 -509 0
-958 923 0
958 509 -923 0
-959 -165 0
-959 -76 0
959 165 76 0
-960 141 0
-960 315 0
960 -141 -315 0
-961 409 0
-961 -610 0
961 -409 610 0
-962 -958 0
-962 -211 0
962 958 211 0
-963 -889 455 0
-963 889 -455 0
963 889 455 0
963 -889 -455 0
-964 -623 0
-964 -896 0
964 623 896 0
-965 97 0
-965 -287 0
965 -97 287 0
-966 448 0
-966 -24 0
966 -448 24 0
-967 -222 0
-967 -121 0
967 222 121 0
-968 899 -166 0
-968 -899 166 0
968 -899 -166 0
968 899 166 0
-969 22 0
-969 -157 0
969 -22 157 0
-970 423 0
-970 574 0
970 -423 -574 0
-971 -742 0
-971 -247 0
971 742 247 0
-972 869 0
-972 -257 0
972 -869 257 0
-973 -116 0
-973 487 0
973 116 -487 0
-974 871 0
-974 -85 0
974 -871 85 0
-975 -313 0
-975 115 0
975 313 -115 0
-976 -799 0
-976 939 0
976 799 -939 0
-977 452 0
-977 167 0
977 -452 -167 0
-978 -672 -788 0
-978 672 788 0
978 672 -788 0
978 -672 788 0
-979 334 0
-979 682 0
979 -334 -682 0
-980 -588 304 0
-980 588 -304 0
980 588 304 0
980 -588 -304 0
-981 -507 0
-981 82 0
981 507 -82 0
-982 568 0
-982 -891 0
982 -568 891 0
-983 439 0
-983 -4 0
983 -439 4 0
-984 -436 0
-984 321 0
984 436 -321 0
-985 -757 0
-985 -648 0
985 757 648 0
-986 -696 0
-986 623 0
986 696 -623 0
-987 969 0
-987 422 0
987 -969 -422 0
-988 -56 0
-988 133 0
988 56 -133 0
-989 978 689 0
-989 -978 -689 0
989 -978 689 0
989 978 -689 0
-990 -342 0
-990 -542 0
990 342 542 0
-991 765 0
-991 -720 0
991 -765 720 0
-992 877 75 0
-992 -877 -75 0
992 -877 75 0
992 877 -75 0
-993 712 -838 0
-993 -712 838 0
993 -712 -838 0
993 712 838 0
-994 -547 0
-994 -163 0
994 547 163 0
-995 413 0
-995 -932 0
995 -413 932 0
-996 961 0
-996 3 0
996 -961 -3 0
-997 519 0
-997 -120 0
997 -519 120 0
-998 -241 -671 0
-998 241 671 0
998 241 -671 0
998 -241 671 0
-999 344 0
-999 -547 0
999 -344 547 0
-1000 -59 0
-1000 -388 0
1000 59 388 0
-1001 -425 0
-1001 -466 0
1001 425 466 0
-1002 193 0
-1002 -420 0
1002 -193 420 0
-1003 285 0
-1003 562 0
1003 -285 -562 0
-1004 958 0
-1004 -584 0
1004 -958 584 0
-1005 928 0
-1005 769 0
1005 -928 -769 0
-1006 409 0
-1006 725 0
1006 -409 -725 0
-1007 -892 0
-1007 626 0
1007 892 -626 0
-1008 -23 0
-1008 180 0
1008 23 -180 0
-1009 -138 645 0
-1009 138 -645 0
1009 138 645 0
1009 -138 -645 0
-1010 -496 0
-1010 219 0
1010 496 -219 0
-1011 -273 0
-1011 -331 0
1011 273 331 0
-1012 -213 0
-1012 -386 0
1012 213 386 0
-1013 -93 583 0
-1013 93 -583 0
1013 93 583 0
1013 -93 -583 0
-1014 468 336 0
-1014 -468 -336 0
1014 -468 336 0
1014 468 -336 0
-1015 959 0
-1015 204 0
1015 -959 -204 0
-1016 598 0
-1016 -491 0
1016 -598 491 0
-1017 -776 0
-1017 607 0
1017 776 -607 0
-1018 -342 -45 0
-1018 342 45 0
1018 342 -45 0
1018 -342 45 0
-1019 -56 0
-1019 -376 0
1019 56 376 0
-1020 -351 0
-1020 -592 0
1020 351 592 0
-1021 -92 0
-1021 -551 0
1021 92 551 0
-1022 702 0
-1022 -531 0
1022 -702 531 0
-1023 -117 0
-1023 115 0
1023 117 -115 0
-1024 113 0
-1024 274 0
1024 -113 -274 0
-1025 -258 0
-1025 -927 0
1025 258 927 0
-1026 -984 -966 0
-1026 984 966 0
1026 984 -966 0
1026 -984 966 0
-1027 -486 843 0
-1027 486 -843 0
1027 486 843 0
1027 -486 -843 0
-1028 411 0
-1028 348 0
1028 -411 -348 0
-1029 657 0
-1029 302 0
1029 -657 -302 0
-1030 369 0
-1030 -20 0
1030 -369 20 0
-1031 -819 0
-1031 855 0
1031 819 -855 0
-1032 -168 0
-1032 432 0
1032 168 -432 0
-1033 -859 0
-1033 -864 0
1033 859 864 0
-1034 125 0
-1034 939 0
1034 -125 -939 0
-1035 484 0
-1035 338 0
1035 -484 -338 0
-1036 637 0
-1036 -543 0
1036 -637 543 0
-1037 483 0
-1037 643 0
1037 -483 -643 0
-1038 904 0
-1038 -34 0
1038 -904 34 0
-1039 144 0
-1039 -211 0
1039 -144 211 0
-1040 -99 0
-1040 -705 0
1040 99 705 0
-1041 823 0
-1041 -317 0
1041 -823 317 0
-1042 573 0
-1042 563 0
1042 -573 -563 0
-1043 -860 1011 0
-1043 860 -1011 0
1043 860 1011 0
1043 -860 -1011 0
-1044 154 49 0
-1044 -154 -49 0
1044 -154 49 0
1044 154 -49 0
-1045 -632 0
-1045 854 0
1045 632 -854 0
-1046 -876 0
-1046 449 0
1046 876 -449 0
-1047 -916 0
-1047 -105 0
1047 916 105 0
-1048 -722 441 0
-1048 722 -441 0
1048 722 441 0
1048 -722 -441 0
-1049 636 0
-1049 -494 0
1049 -636 494 0
-1050 -612 0
-1050 412 0
1050 612 -412 0
-1051 279 0
-1051 110 0
1051 -279 -110 0
-1052 969 0
-1052 662 0
1052 -969 -662 0
-1053 745 0
-1053 -1034 0
1053 -745 1034 0
-1054 -86 -990 0
-1054 86 990 0
1054 86 -990 0
1054 -86 990 0
-1055 578 0
-1055 441 0
1055 -578 -441 0
-1056 82 209 0
-1056 -82 -209 0
1056 -82 209 0
1056 82 -209 0
-1057 321 0
-1057 657 0
1057 -321 -657 0
-1058 83 -402 0
-1058 -83 402 0
1058 -83 -402 0
1058 83 402 0
-1059 -852 0
-1059 261 0
1059 852 -261 0
-1060 511 0
-1060 118 0
1060 -511 -118 0
-1061 -188 260 0
-1061 188 -260 0
1061 188 260 0
1061 -188 -260 0
-1062 265 0
-1062 1049 0
1062 -265 -1049 0
-1063 458 0
-1063 567 0
1063 -458 -567 0
-1064 300 0
-1064 982 0
1064 -300 -982 0
-1065 54 -661 0
-1065 -54 661 0
1065 -54 -661 0
1065 54 661 0
-1066 -505 0
-1066 -965 0
1066 505 965 0
-1067 163 1036 0
-1067 -163 -1036 0
1067 -163 1036 0
1067 163 -1036 0
-1068 -190 0
-1068 -54 0
1068 190 54 0
-1069 464 0
-1069 -247 0
1069 -464 247 0
-1070 859 0
-1070 -813 0
1070 -859 813 0
-1071 -220 0
-1071 255 0
1071 220 -255 0
-1072 12 463 0
-1072 -12 -463 0
1072 -12 463 0
1072 12 -463 0
-1073 600 -4 0
-1073 -600 4 0
1073 -600 -4 0
1073 600 4 0
-1074 515 0
-1074 -803 0
1074 -515 803 0
-1075 -446 -94 0
-1075 446 94 0
1075 446 -94 0
1075 -446 94 0
-1076 -65 0
-1076 815 0
1076 65 -815 0
-1077 47 0
-1077 -18 0
1077 -47 18 0
-1078 -699 0
-1078 607 0
1078 699 -607 0
-1079 333 0
-1079 553 0
1079 -333 -553 0
-1080 720 0
-1080 284 0
1080 -720 -284 0
-1081 -477 0
-1081 -332 0
1081 477 332 0
-1082 -597 0
-1082 683 0
1082 597 -683 0
-1083 225 0
-1083 -670 0
1083 -225 670 0
-1084 867 0
-1084 -1024 0
1084 -867 1024 0
-1085 -268 0
-1085 -85 0
1085 268 85 0
-1086 -250 0
-1086 -431 0
1086 250 431 0
-1087 -1065 -813 0
-1087 1065 813 0
1087 1065 -813 0
1087 -1065 813 0
-1088 -1049 0
-1088 647 0
1088 1049 -647 0
-1089 101 0
-1089 -85 0
1089 -101 85 0
-1090 1006 0
-1090 -653 0
1090 -1006 653 0
-1091 -342 0
-1091 -913 0
1091 342 913 0
-1092 -1045 -777 0
-1092 1045 777 0
1092 1045 -777 0
1092 -1045 777 0
-1093 -186 0
-1093 -298 0
1093 186 298 0
-1094 -645 468 0
-1094 645 -468 0
1094 645 468 0
1094 -645 -468 0
-1095 492 460 0
-1095 -492 -460 0
1095 -492 460 0
1095 492 -460 0
-1096 674 -5 0
-1096 -674 5 0
1096 -674 -5 0
1096 674 5 0
-1097 731 0
-1097 1084 0
1097 -731 -1084 0
-1098 -121 0
-1098 738 0
1098 121 -738 0
-1099 -649 0
-1099 908 0
1099 649 -908 0
-1100 -651 0
-1100 1052 0
1100 651 -1052 0
-1101 -612 0
-1101 893 0
1101 612 -893 0
-1102 920 0
-1102 76 0
1102 -920 -76 0
-1103 1098 0
-1103 -34 0
1103 -1098 34 0
-1104 -313 0
-1104 -791 0
1104 313 791 0
-1105 435 0
-1105 -1035 0
1105 -435 1035 0
-1106 336 0
-1106 -199 0
1106 -336 199 0
-1107 1048 0
-1107 1085 0
1107 -1048 -1085 0
-1108 416 -275 0
-1108 -416 275 0
1108 -416 -275 0
1108 416 275 0
-1109 -244 0
-1109 981 0
1109 244 -981 0
-1110 -191 0
-1110 -78 0
1110 191 78 0
-1111 -740 0
-1111 -697 0
1111 740 697 0
-1112 -1096 0
-1112 214 0
1112 1096 -214 0
-1113 -349 0
-1113 67 0
1113 349 -67 0
-1114 -578 0
-1114 -687 0
1114 578 687 0
-1115 953 0
-1115 -270 0
1115 -953 270 0
-1116 448 0
-1116 -818 0
1116 -448 818 0
-1117 1082 0
-1117 -260 0
1117 -1082 260 0
-1118 -365 720 0
-1118 365 -720 0
1118 365 720 0
1118 -365 -720 0
-1119 -940 980 0
-1119 940 -980 0
1119 940 980 0
1119 -940 -980 0
-1120 1096 84 0
-1120 -1096 -84 0
1120 -1096 84 0
1120 1096 -84 0
-1121 -605 0
-1121 -1043 0
1121 605 1043 0
-1122 -761 0
-1122 852 0
1122 761 -852 0
-1123 1079 0
-1123 -425 0
1123 -1079 425 0
-1124 -387 0
-1124 917 0
1124 387 -917 0
-1125 654 0
-1125 -359 0
1125 -654 359 0
-1126 -697 0
-1126 -868 0
1126 697 868 0
-1127 -360 0
-1127 -672 0
1127 360 672 0
-1128 -838 0
-1128 1007 0
1128 838 -1007 0
-1129 446 0
-1129 601 0
1129 -446 -601 0
-1130 621 0
-1130 340 0
1130 -621 -340 0
-1131 -378 -1076 0
-1131 378 1076 0
1131 378 -1076 0
1131 -378 1076 0
-1132 277 0
-1132 45 0
1132 -277 -45 0
-1133 -399 -643 0
-1133 399 643 0
1133 399 -643 0
1133 -399 643 0
-1134 -381 0
-1134 -1011 0
1134 381 1011 0
-1135 -298 0
-1135 -1038 0
1135 298 1038 0
-1136 -394 0
-1136 1053 0
1136 394 -1053 0
-1137 -182 0
-1137 -220 0
1137 182 220 0
-1138 833 0
-1138 -173 0
1138 -833 173 0
-1139 1122 -1099 0
-1139 -1122 1099 0
1139 -1122 -1099 0
1139 1122 1099 0
-1140 787 0
-1140 967 0
1140 -787 -967 0
-1141 391 0
-1141 164 0
1141 -391 -164 0
-1142 462 -555 0
-1142 -462 555 0
1142 -462 -555 0
1142 462 555 0
-1143 397 -775 0
-1143 -397 775 0
1143 -397 -775 0
1143 397 775 0
-1144 -69 0
-1144 -186 0
1144 69 186 0
-1145 -391 0
-1145 372 0
1145 391 -372 0
-1146 841 0
-1146 -461 0
1146 -841 461 0
-1147 992 0
-1147 604 0
1147 -992 -604 0
-1148 330 0
-1148 662 0
1148 -330 -662 0
-1149 -228 -107 0
-1149 228 107 0
1149 228 -107 0
1149 -228 107 0
-1150 471 0
-1150 -650 0
1150 -471 650 0
-1151 1010 0
-1151 907 0
1151 -1010 -907 0
-1152 -240 0
-1152 48 0
1152 240 -48 0
-1153 342 0
-1153 -811 0
1153 -342 811 0
-1154 -1127 0
-1154 80 0
1154 1127 -80 0
-1155 1068 0
-1155 39 0
1155 -1068 -39 0
-1156 -861 0
-1156 662 0
1156 861 -662 0
-1157 -495 0
-1157 405 0
1157 495 -405 0
-1158 -483 0
-1158 401 0
1158 483 -401 0
-1159 476 0
-1159 -555 0
1159 -476 555 0
-1160 737 1026 0
-1160 -737 -1026 0
1160 -737 1026 0
1160 737 -1026 0
-1161 -720 0
-1161 981 0
1161 720 -981 0
-1162 -965 -709 0
-1162 965 709 0
1162 965 -709 0
1162 -965 709 0
-1163 217 0
-1163 854 0
1163 -217 -854 0
-1164 -151 0
-1164 -768 0
1164 151 768 0
-1165 -44 0
-1165 945 0
1165 44 -945 0
-1166 -674 0
-1166 703 0
1166 674 -703 0
-1167 -844 0
-1167 -252 0
1167 844 252 0
-1168 133 0
-1168 419 0
1168 -133 -419 0
-1169 -309 680 0
-1169 309 -680 0
1169 309 680 0
1169 -309 -680 0
-1170 -1063 0
-1170 -921 0
1170 1063 921 0
-1171 383 0
-1171 -976 0
1171 -383 976 0
-1172 -948 0
-1172 -343 0
1172 948 343 0
-1173 -309 16 0
-1173 309 -16 0
1173 309 16 0
1173 -309 -16 0
-1174 961 411 0
-1174 -961 -411 0
1174 -961 411 0
1174 961 -411 0
-1175 -719 0
-1175 146 0
1175 719 -146 0
-1176 310 0
-1176 657 0
1176 -310 -657 0
-1177 502 569 0
-1177 -502 -569 0
1177 -502 569 0
1177 502 -569 0
-1178 642 0
-1178 -939 0
1178 -642 939 0
-1179 -380 18 0
-1179 380 -18 0
1179 380 18 0
1179 -380 -18 0
-1180 -603 0
-1180 -1029 0
1180 603 1029 0
-1181 368 0
-1181 1022 0
1181 -368 -1022 0
-1182 -327 0
-1182 1116 0
1182 327 -1116 0
-1183 89 0
-1183 30 0
1183 -89 -30 0
-1184 -487 0
-1184 -693 0
1184 487 693 0
-1185 735 0
-1185 847 0
1185 -735 -847 0
-1186 1035 0
-1186 645 0
1186 -1035 -645 0
-1187 313 0
-1187 -361 0
1187 -313 361 0
-1188 -85 0
-1188 -593 0
1188 85 593 0
-1189 611 0
-1189 1128 0
1189 -611 -1128 0
-1190 258 164 0
-1190 -258 -164 0
1190 -258 164 0
1190 258 -164 0
-1191 -912 0
-1191 -983 0
1191 912 983 0
-1192 -616 0
-1192 -20 0
1192 616 20 0
-1193 1104 0
-1193 -708 0
1193 -1104 708 0
-1194 455 0
-1194 278 0
1194 -455 -278 0
-1195 258 0
-1195 63 0
1195 -258 -63 0
-1196 329 0
-1196 143 0
1196 -329 -143 0
-1197 -846 0
-1197 864 0
1197 846 -864 0
-1198 -812 0
-1198 -293 0
1198 812 293 0
-1199 -146 0
-1199 -395 0
1199 146 395 0
-1200 275 0
-1200 240 0
1200 -275 -240 0
-1201 1064 0
-1201 -428 0
1201 -1064 428 0
-1202 -803 0
-1202 -715 0
1202 803 715 0
-1203 -1095 0
-1203 -967 0
1203 1095 967 0
-1204 -38 0
-1204 -540 0
1204 38 540 0
-1205 -57 0
-1205 -636 0
1205 57 636 0
-1206 59 0
-1206 -868 0
1206 -59 868 0
-1207 127 0
-1207 -486 0
1207 -127 486 0
-1208 495 0
-1208 -1122 0
1208 -495 1122 0
-1209 -932 0
-1209 400 0
1209 932 -400 0
-1210 -222 0
-1210 454 0
1210 222 -454 0
-1211 689 0
-1211 911 0
1211 -689 -911 0
-1212 -407 0
-1212 642 0
1212 407 -642 0
-1213 156 180 0
-1213 -156 -180 0
1213 -156 180 0
1213 156 -180 0
-1214 -676 0
-1214 1046 0
1214 676 -1046 0
-1215 65 159 0
-1215 -65 -159 0
1215 -65 159 0
1215 65 -159 0
-1216 -512 0
-1216 -626 0
1216 512 626 0
-1217 -449 0
-1217 359 0
1217 449 -359 0
-1218 919 0
-1218 694 0
1218 -919 -694 0
-1219 -445 0
-1219 602 0
1219 445 -602 0
-1220 787 0
-1220 -343 0
1220 -787 343 0
-1221 1005 0
-1221 1205 0
1221 -1005 -1205 0
-1222 187 608 0
-1222 -187 -608 0
1222 -187 608 0
1222 187 -608 0
-1223 -644 774 0
-1223 644 -774 0
1223 644 774 0
1223 -644 -774 0
-1224 617 993 0
-1224 -617 -993 0
1224 -617 993 0
1224 617 -993 0
-1225 -1018 0
-1225 56 0
1225 1018 -56 0
-1226 1124 0
-1226 433 0
1226 -1124 -433 0
-1227 990 0
-1227 767 0
1227 -990 -767 0
-1228 -736 0
-1228 -1020 0
1228 736 1020 0
-1229 454 0
-1229 -400 0
1229 -454 400 0
-1230 637 0
-1230 -923 0
1230 -637 923 0
-1231 -48 -981 0
-1231 48 981 0
1231 48 -981 0
1231 -48 981 0
-1232 -52 -105 0
-1232 52 105 0
1232 52 -105 0
1232 -52 105 0
-1233 -218 0
-1233 -1212 0
1233 218 1212 0
-1234 459 0
-1234 -919 0
1234 -459 919 0
-1235 577 0
-1235 389 0
1235 -577 -389 0
-1236 1033 0
-1236 87 0
1236 -1033 -87 0
-1237 113 -1085 0
-1237 -113 1085 0
1237 -113 -1085 0
1237 113 1085 0
-1238 -126 0
-1238 55 0
1238 126 -55 0
-1239 -1075 0
-1239 -77 0
1239 1075 77 0
-1240 -424 0
-1240 476 0
1240 424 -476 0
-1241 773 0
-1241 -790 0
1241 -773 790 0
-1242 -78 0
-1242 -867 0
1242 78 867 0
-1243 -158 0
-1243 -983 0
1243 158 983 0
-1244 347 22 0
-1244 -347 -22 0
1244 -347 22 0
1244 347 -22 0
-1245 -68 0
-1245 -1074 0
1245 68 1074 0
-1246 1076 -476 0
-1246 -1076 476 0
1246 -1076 -476 0
1246 1076 476 0
-1247 292 0
-1247 -1219 0
1247 -292 1219 0
-1248 1195 0
-1248 -317 0
1248 -1195 317 0
-1249 -1015 0
-1249 368 0
1249 1015 -368 0
-1250 -613 0
-1250 241 0
1250 613 -241 0
-1251 -1092 0
-1251 -461 0
1251 1092 461 0
-1252 686 0
-1252 806 0
1252 -686 -806 0
-1253 -1127 -926 0
-1253 1127 926 0
1253 1127 -926 0
1253 -1127 926 0
-1254 334 0
-1254 249 0
1254 -334 -249 0
-1255 -49 -553 0
-1255 49 553 0
1255 49 -553 0
1255 -49 553 0
-1256 783 0
-1256 187 0
1256 -783 -187 0
-1257 38 0
-1257 -809 0
1257 -38 809 0
-1258 150 0
-1258 787 0
1258 -150 -787 0
-1259 667 0
-1259 -218 0
1259 -667 218 0
-1260 971 0
-1260 356 0
1260 -971 -356 0
-1261 1048 0
-1261 -268 0
1261 -1048 268 0
-1262 361 0
-1262 -442 0
1262 -361 442 0
-1263 292 0
-1263 682 0
1263 -292 -682 0
-1264 455 0
-1264 931 0
1264 -455 -931 0
-1265 -101 9 0
-1265 101 -9 0
1265 101 9 0
1265 -101 -9 0
-1266 442 552 0
-1266 -442 -552 0
1266 -442 552 0
1266 442 -552 0
-1267 781 -688 0
-1267 -781 688 0
1267 -781 -688 0
1267 781 688 0
-1268 -538 0
-1268 712 0
1268 538 -712 0
-1269 -590 0
-1269 -649 0
1269 590 649 0
-1270 1192 0
-1270 473 0
1270 -1192 -473 0
-1271 -966 0
-1271 91 0
1271 966 -91 0
-1272 -1200 0
-1272 -1051 0
1272 1200 1051 0
-1273 1237 0
-1273 285 0
1273 -1237 -285 0
-1274 -1078 0
-1274 398 0
1274 1078 -398 0
-1275 -26 0
-1275 -1223 0
1275 26 1223 0
-1276 149 949 0
-1276 -149 -949 0
1276 -149 949 0
1276 149 -949 0
-1277 -645 -70 0
-1277 645 70 0
1277 645 -70 0
1277 -645 70 0
-1278 319 338 0
-1278 -319 -338 0
1278 -319 338 0
1278 319 -338 0
-1279 -1047 0
-1279 -164 0
1279 1047 164 0
-1280 -905 0
-1280 513 0
1280 905 -513 0
-1281 -308 0
-1281 86 0
1281 308 -86 0
-1282 562 0
-1282 181 0
1282 -562 -181 0
-1283 882 0
-1283 10 0
1283 -882 -10 0
-1284 688 -587 0
-1284 -688 587 0
1284 -688 -587 0
1284 688 587 0
-1285 700 0
-1285 1131 0
1285 -700 -1131 0
-1286 600 0
-1286 -181 0
1286 -600 181 0
-1287 -879 0
-1287 885 0
1287 879 -885 0
-1288 1111 467 0
-1288 -1111 -467 0
1288 -1111 467 0
1288 1111 -467 0
-1289 25 0
-1289 919 0
1289 -25 -919 0
-1290 1129 0
-1290 -92 0
1290 -1129 92 0
-1291 509 57 0
-1291 -509 -57 0
1291 -509 57 0
1291 509 -57 0
-1292 632 0
-1292 -267 0
1292 -632 267 0
-1293 -1206 0
-1293 1137 0
1293 1206 -1137 0
-1294 440 455 0
-1294 -440 -455 0
1294 -440 455 0
1294 440 -455 0
-1295 -69 0
-1295 -992 0
1295 69 992 0
-1296 901 -1158 0
-1296 -901 1158 0
1296 -901 -1158 0
1296 901 1158 0
-1297 1173 0
-1297 -969 0
1297 -1173 969 0
-1298 -509 0
-1298 640 0
1298 509 -640 0
-1299 319 0
-1299 -1208 0
1299 -319 1208 0
-1300 172 -124 0
-1300 -172 124 0
1300 -172 -124 0
1300 172 124 0
-1301 442 -1208 0
-1301 -442 1208 0
1301 -442 -1208 0
1301 442 1208 0
-1302 -591 0
-1302 1210 0
1302 591 -1210 0
-1303 289 0
-1303 1234 0
1303 -289 -1234 0
-1304 125 0
-1304 241 0
1304 -125 -241 0
-1305 309 0
-1305 -91 0
1305 -309 91 0
-1306 1222 0
-1306 -1064 0
1306 -1222 1064 0
-1307 -371 74 0
-1307 371 -74 0
1307 371 74 0
1307 -371 -74 0
-1308 309 0
-1308 198 0
1308 -309 -198 0
-1309 -34 0
-1309 811 0
1309 34 -811 0
-1310 1210 0
-1310 325 0
1310 -1210 -325 0
-1311 -446 0
-1311 1042 0
1311 446 -1042 0
-1312 -583 0
-1312 421 0
1312 583 -421 0
-1313 774 0
-1313 -841 0
1313 -774 841 0
-1314 322 0
-1314 -236 0
1314 -322 236 0
-1315 -422 0
-1315 -974 0
1315 422 974 0
-1316 880 0
-1316 1071 0
1316 -880 -1071 0
-1317 -904 0
-1317 704 0
1317 904 -704 0
-1318 1204 0
-1318 -848 0
1318 -1204 848 0
-1319 -797 0
-1319 -564 0
1319 797 564 0
-1320 982 -875 0
-1320 -982 875 0
1320 -982 -875 0
1320 982 875 0
-1321 -421 0
-1321 -254 0
1321 421 254 0
-1322 -1130 0
-1322 238 0
1322 1130 -238 0
-1323 -1008 0
-1323 349 0
1323 1008 -349 0
-1324 1122 0
-1324 -204 0
1324 -1122 204 0
-1325 -913 -170 0
-1325 913 170 0
1325 913 -170 0
1325 -913 170 0
-1326 1036 0
-1326 -1144 0
1326 -1036 1144 0
-1327 81 0
-1327 -650 0
1327 -81 650 0
-1328 461 0
-1328 -1125 0
1328 -461 1125 0
-1329 202 0
-1329 -1171 0
1329 -202 1171 0
-1330 -697 0
-1330 -340 0
1330 697 340 0
-1331 981 0
-1331 262 0
1331 -981 -262 0
-1332 -736 0
-1332 -640 0
1332 736 640 0
-1333 929 0
-1333 139 0
1333 -929 -139 0
-1334 -1329 -442 0
-1334 1329 442 0
1334 1329 -442 0
1334 -1329 442 0
-1335 262 921 0
-1335 -262 -921 0
1335 -262 921 0
1335 262 -921 0
-1336 -123 -950 0
-1336 123 950 0
1336 123 -950 0
1336 -123 950 0
-1337 -239 -346 0
-1337 239 346 0
1337 239 -346 0
1337 -239 346 0
-1338 -528 0
-1338 -880 0
1338 528 880 0
-1339 -293 0
-1339 158 0
1339 293 -158 0
-1340 -440 0
-1340 273 0
1340 440 -273 0
-1341 -1283 0
-1341 -594 0
1341 1283 594 0
-1342 1007 956 0
-1342 -1007 -956 0
1342 -1007 956 0
1342 1007 -956 0
-1343 1163 0
-1343 -1195 0
1343 -1163 1195 0
-1344 -1187 0
-1344 -24 0
1344 1187 24 0
-1345 -646 0
-1345 908 0
1345 646 -908 0
-1346 900 792 0
-1346 -900 -792 0
1346 -900 792 0
1346 900 -792 0
-1347 -868 0
-1347 798 0
1347 868 -798 0
-1348 -1346 -143 0
-1348 1346 143 0
1348 1346 -143 0
1348 -1346 143 0
-1349 -1050 0
-1349 -751 0
1349 1050 751 0
-1350 1114 79 0
-1350 -1114 -79 0
1350 -1114 79 0
1350 1114 -79 0
-1351 162 0
-1351 321 0
1351 -162 -321 0
-1352 1195 0
-1352 1243 0
1352 -1195 -1243 0
-1353 -258 0
-1353 -301 0
1353 258 301 0
-1354 -454 0
-1354 1168 0
1354 454 -1168 0
-1355 937 0
-1355 348 0
1355 -937 -348 0
-1356 512 0
-1356 -288 0
1356 -512 288 0
-1357 -262 0
-1357 1202 0
1357 262 -1202 0
-1358 858 0
-1358 706 0
1358 -858 -706 0
-1359 -490 409 0
-1359 490 -409 0
1359 490 409 0
1359 -490 -409 0
-1360 -781 217 0
-1360 781 -217 0
1360 781 217 0
1360 -781 -217 0
-1361 -852 0
-1361 1194 0
1361 852 -1194 0
-1362 877 -1061 0
-1362 -877 1061 0
1362 -877 -1061 0
1362 877 1061 0
-1363 819 -327 0
-1363 -819 327 0
1363 -819 -327 0
1363 819 327 0
-1364 728 0
-1364 1150 0
1364 -728 -1150 0
-1365 552 0
-1365 931 0
1365 -552 -931 0
-1366 203 0
-1366 377 0
1366 -203 -377 0
-1367 1313 1362 0
-1367 -1313 -1362 0
1367 -1313 1362 0
1367 1313 -1362 0
-1368 -1058 0
-1368 -628 0
1368 1058 628 0
-1369 -666 0
-1369 -620 0
1369 666 620 0
-1370 875 155 0
-1370 -875 -155 0
1370 -875 155 0
1370 875 -155 0
-1371 512 -855 0
-1371 -512 855 0
1371 -512 -855 0
1371 512 855 0
-1372 453 0
-1372 -854 0
1372 -453 854 0
-1373 -1063 0
-1373 -86 0
1373 1063 86 0
-1374 -74 0
-1374 497 0
1374 74 -497 0
-1375 916 1153 0
-1375 -916 -1153 0
1375 -916 1153 0
1375 916 -1153 0
-1376 -942 97 0
-1376 942 -97 0
1376 942 97 0
1376 -942 -97 0
-1377 -1060 0
-1377 -1216 0
1377 1060 1216 0
-1378 -1080 279 0
-1378 1080 -279 0
1378 1080 279 0
1378 -1080 -279 0
-1379 1366 -9 0
-1379 -1366 9 0
1379 -1366 -9 0
1379 1366 9 0
-1380 -975 0
-1380 418 0
1380 975 -418 0
-1381 -1084 -1009 0
-1381 1084 1009 0
1381 1084 -1009 0
1381 -1084 1009 0
-1382 669 367 0
-1382 -669 -367 0
1382 -669 367 0
1382 669 -367 0
-1383 246 0
-1383 804 0
1383 -246 -804 0
-1384 465 0
-1384 656 0
1384 -465 -656 0
-1385 -472 0
-1385 -741 0
1385 472 741 0
-1386 -572 0
-1386 -912 0
1386 572 912 0
-1387 324 0
-1387 -1101 0
1387 -324 1101 0
-1388 -676 0
-1388 -1224 0
1388 676 1224 0
-1389 1286 0
-1389 -817 0
1389 -1286 817 0
-1390 -294 0
-1390 264 0
1390 294 -264 0
-1391 389 0
-1391 -440 0
1391 -389 440 0
-1392 -777 0
-1392 595 0
1392 777 -595 0
-1393 -948 0
-1393 -278 0
1393 948 278 0
-1394 -24 -922 0
-1394 24 922 0
1394 24 -922 0
1394 -24 922 0
-1395 842 0
-1395 536 0
1395 -842 -536 0
-1396 -797 -892 0
-1396 797 892 0
1396 797 -892 0
1396 -797 892 0
-1397 -1261 -599 0
-1397 1261 599 0
1397 1261 -599 0
1397 -1261 599 0
-1398 1212 0
-1398 843 0
1398 -1212 -843 0
-1399 701 903 0
-1399 -701 -903 0
1399 -701 903 0
1399 701 -903 0
-1400 -151 0
-1400 -680 0
1400 151 680 0
-1401 746 0
-1401 -139 0
1401 -746 139 0
-1402 1245 560 0
-1402 -1245 -560 0
1402 -1245 560 0
1402 1245 -560 0
-1403 550 -365 0
-1403 -550 365 0
1403 -550 -365 0
1403 550 365 0
-1404 -280 0
-1404 1222 0
1404 280 -1222 0
-1405 -962 0
-1405 -417 0
1405 962 417 0
-1406 -1268 0
-1406 663 0
1406 1268 -663 0
-1407 1021 0
-1407 -591 0
1407 -1021 591 0
-1408 -1326 0
-1408 779 0
1408 1326 -779 0
-1409 273 -525 0
-1409 -273 525 0
1409 -273 -525 0
1409 273 525 0
-1410 -1316 0
-1410 1105 0
1410 1316 -1105 0
-1411 -460 365 0
-1411 460 -365 0
1411 460 365 0
1411 -460 -365 0
-1412 1126 774 0
-1412 -1126 -774 0
1412 -1126 774 0
1412 1126 -774 0
-1413 47 0
-1413 -418 0
1413 -47 418 0
-1414 618 0
-1414 694 0
1414 -618 -694 0
-1415 255 0
-1415 582 0
1415 -255 -582 0
-1416 923 910 0
-1416 -923 -910 0
1416 -923 910 0
1416 923 -910 0
-1417 -933 0
-1417 945 0
1417 933 -945 0
-1418 -264 1013 0
-1418 264 -1013 0
1418 264 1013 0
1418 -264 -1013 0
-1419 -312 0
-1419 -871 0
1419 312 871 0
-1420 914 0
-1420 189 0
1420 -914 -189 0
-1421 -946 0
-1421 1348 0
1421 946 -1348 0
-1422 888 0
-1422 782 0
1422 -888 -782 0
-1423 592 0
-1423 727 0
1423 -592 -727 0
-1424 -317 677 0
-1424 317 -677 0
1424 317 677 0
1424 -317 -677 0
-1425 -1104 -1190 0
-1425 1104 1190 0
1425 1104 -1190 0
1425 -1104 1190 0
-1426 -631 0
-1426 830 0
1426 631 -830 0
-1427 -947 0
-1427 -1186 0
1427 947 1186 0
-1428 -474 342 0
-1428 474 -342 0
1428 474 342 0
1428 -474 -342 0
-1429 357 0
-1429 -451 0
1429 -357 451 0
-1430 285 0
-1430 -541 0
1430 -285 541 0
-1431 1123 1046 0
-1431 -1123 -1046 0
1431 -1123 1046 0
1431 1123 -1046 0
-1432 -1152 -475 0
-1432 1152 475 0
1432 1152 -475 0
1432 -1152 475 0
-1433 -1253 0
-1433 -138 0
1433 1253 138 0
-1434 1166 -123 0
-1434 -1166 123 0
1434 -1166 -123 0
1434 1166 123 0
-1435 183 0
-1435 -869 0
1435 -183 869 0
-1436 1421 0
-1436 1223 0
1436 -1421 -1223 0
-1437 -970 0
-1437 1350 0
1437 970 -1350 0
-1438 -1154 0
-1438 -8 0
1438 1154 8 0
-1439 -689 0
-1439 -667 0
1439 689 667 0
-1440 1138 472 0
-1440 -1138 -472 0
1440 -1138 472 0
1440 1138 -472 0
-1441 698 0
-1441 -1418 0
1441 -698 1418 0
-1442 -1072 0
-1442 1280 0
1442 1072 -1280 0
-1443 1438 0
-1443 -401 0
1443 -1438 401 0
-1444 1342 0
-1444 -40 0
1444 -1342 40 0
-1445 1434 0
-1445 -194 0
1445 -1434 194 0
-1446 -1274 0
-1446 220 0
1446 1274 -220 0
-1447 395 0
-1447 -1139 0
1447 -395 1139 0
-1448 -964 0
-1448 -491 0
1448 964 491 0
-1449 -1085 -347 0
-1449 1085 347 0
1449 1085 -347 0
1449 -1085 347 0
-1450 1271 0
-1450 617 0
1450 -1271 -617 0
-1451 -565 0
-1451 1051 0
1451 565 -1051 0
-1452 -228 -581 0
-1452 228 581 0
1452 228 -581 0
1452 -228 581 0
-1453 258 0
-1453 1111 0
1453 -258 -1111 0
-1454 180 0
-1454 421 0
1454 -180 -421 0
-1455 776 -988 0
-1455 -776 988 0
1455 -776 -988 0
1455 776 988 0
-1456 281 0
-1456 -1191 0
1456 -281 1191 0
-1457 700 0
-1457 -1399 0
1457 -700 1399 0
-1458 947 0
-1458 -1033 0
1458 -947 1033 0
-1459 -837 0
-1459 -1346 0
1459 837 1346 0
-1460 360 0
-1460 -1123 0
1460 -360 1123 0
-1461 1374 354 0
-1461 -1374 -354 0
1461 -1374 354 0
1461 1374 -354 0
-1462 381 0
-1462 541 0
1462 -381 -541 0
-1463 263 0
-1463 -212 0
1463 -263 212 0
-1464 -665 0
-1464 481 0
1464 665 -481 0
-1465 -925 0
-1465 -312 0
1465 925 312 0
-1466 -77 0
-1466 -40 0
1466 77 40 0
-1467 -808 0
-1467 -1048 0
1467 808 1048 0
-1468 480 0
-1468 1177 0
1468 -480 -1177 0
-1469 -164 0
-1469 -92 0
1469 164 92 0
-1470 866 0
-1470 54 0
1470 -866 -54 0
-1471 -1414 475 0
-1471 1414 -475 0
1471 1414 475 0
1471 -1414 -475 0
-1472 -926 0
-1472 -229 0
1472 926 229 0
-1473 455 -484 0
-1473 -455 484 0
1473 -455 -484 0
1473 455 484 0
-1474 721 0
-1474 865 0
1474 -721 -865 0
-1475 65 -581 0
-1475 -65 581 0
1475 -65 -581 0
1475 65 581 0
-1476 1117 0
-1476 662 0
1476 -1117 -662 0
-1477 -783 0
-1477 -1171 0
1477 783 1171 0
-1478 428 -87 0
-1478 -428 87 0
1478 -428 -87 0
1478 428 87 0
-1479 -192 0
-1479 -99 0
1479 192 99 0
-1480 444 942 0
-1480 -444 -942 0
1480 -444 942 0
1480 444 -942 0
-1481 -187 749 0
-1481 187 -749 0
1481 187 749 0
1481 -187 -749 0
-1482 907 0
-1482 1166 0
1482 -907 -1166 0
-1483 -137 0
-1483 -1285 0
1483 137 1285 0
-1484 -1272 0
-1484 -917 0
1484 1272 917 0
-1485 895 -1112 0
-1485 -895 1112 0
1485 -895 -1112 0
1485 895 1112 0
-1486 -1385 0
-1486 188 0
1486 1385 -188 0
-1487 -675 0
-1487 -934 0
1487 675 934 0
-1488 1184 0
-1488 -176 0
1488 -1184 176 0
-1489 1352 -730 0
-1489 -1352 730 0
1489 -1352 -730 0
1489 1352 730 0
-1490 -304 0
-1490 -1249 0
1490 304 1249 0
-1491 -210 881 0
-1491 210 -881 0
1491 210 881 0
1491 -210 -881 0
-1492 -526 -36 0
-1492 526 36 0
1492 526 -36 0
1492 -526 36 0
-1493 31 326 0
-1493 -31 -326 0
1493 -31 326 0
1493 31 -326 0
-1494 -328 149 0
-1494 328 -149 0
1494 328 149 0
1494 -328 -149 0
-1495 -1376 1088 0
-1495 1376 -1088 0
1495 1376 1088 0
1495 -1376 -1088 0
-1496 -133 609 0
-1496 133 -609 0
1496 133 609 0
1496 -133 -609 0
-1497 -1153 -58 0
-1497 1153 58 0
1497 1153 -58 0
1497 -1153 58 0
-1498 -425 0
-1498 857 0
1498 425 -857 0
-1499 -509 1498 0
-1499 509 -1498 0
1499 509 1498 0
1499 -509 -1498 0
-1500 634 0
-1500 -579 0
1500 -634 579 0
-1501 1021 0
-1501 -253 0
1501 -1021 253 0
-1502 695 0
-1502 209 0
1502 -695 -209 0
-1503 1098 0
-1503 303 0
1503 -1098 -303 0
-1504 -1148 7 0
-1504 1148 -7 0
1504 1148 7 0
1504 -1148 -7 0
-1505 213 0
-1505 405 0
1505 -213 -405 0
-1506 835 0
-1506 -775 0
1506 -835 775 0
-1507 654 276 0
-1507 -654 -276 0
1507 -654 276 0
1507 654 -276 0
-1508 345 0
-1508 1419 0
1508 -345 -1419 0
-1509 -521 0
-1509 -861 0
1509 521 861 0
-1510 -386 0
-1510 382 0
1510 386 -382 0
-1511 -162 0
-1511 -1004 0
1511 162 1004 0
-1512 -1043 451 0
-1512 1043 -451 0
1512 1043 451 0
1512 -1043 -451 0
-1513 -418 0
-1513 1150 0
1513 418 -1150 0
-1514 63 0
-1514 1108 0
1514 -63 -1108 0
-1515 -195 0
-1515 -409 0
1515 195 409 0
-1516 726 0
-1516 677 0
1516 -726 -677 0
-1517 1462 0
-1517 1219 0
1517 -1462 -1219 0
-1518 -271 0
-1518 1257 0
1518 271 -1257 0
-1519 1450 258 0
-1519 -1450 -258 0
1519 -1450 258 0
1519 1450 -258 0
-1520 -600 0
-1520 908 0
1520 600 -908 0
-1521 444 1353 0
-1521 -444 -1353 0
1521 -444 1353 0
1521 444 -1353 0
-1522 969 0
-1522 -407 0
1522 -969 407 0
-1523 613 0
-1523 -288 0
1523 -613 288 0
-1524 660 0
-1524 -962 0
1524 -660 962 0
-1525 1405 0
-1525 351 0
1525 -1405 -351 0
-1526 -944 0
-1526 -43 0
1526 944 43 0
-1527 48 0
-1527 406 0
1527 -48 -406 0
-1528 -781 0
-1528 -130 0
1528 781 130 0
-1529 1501 0
-1529 -573 0
1529 -1501 573 0
-1530 -1349 0
-1530 846 0
1530 1349 -846 0
-1531 -369 0
-1531 657 0
1531 369 -657 0
-1532 728 0
-1532 833 0
1532 -728 -833 0
-1533 -462 0
-1533 1475 0
1533 462 -1475 0
-1534 857 0
-1534 1252 0
1534 -857 -1252 0
-1535 -127 0
-1535 -1157 0
1535 127 1157 0
-1536 722 -967 0
-1536 -722 967 0
1536 -722 -967 0
1536 722 967 0
-1537 -1122 0
-1537 325 0
1537 1122 -325 0
-1538 -329 0
-1538 457 0
1538 329 -457 0
-1539 -1309 0
-1539 -420 0
1539 1309 420 0
-1540 1185 0
-1540 99 0
1540 -1185 -99 0
-1541 144 -1520 0
-1541 -144 1520 0
1541 -144 -1520 0
1541 144 1520 0
-1542 -213 -706 0
-1542 213 706 0
1542 213 -706 0
1542 -213 706 0
-1543 -988 0
-1543 576 0
1543 988 -576 0
-1544 1074 0
-1544 -1249 0
1544 -1074 1249 0
-1545 810 0
-1545 -1481 0
1545 -810 1481 0
-1546 914 0
-1546 1384 0
1546 -914 -1384 0
-1547 -1476 0
-1547 -134 0
1547 1476 134 0
-1548 -281 0
-1548 558 0
1548 281 -558 0
-1549 -1291 0
-1549 -443 0
1549 1291 443 0
-1550 -991 142 0
-1550 991 -142 0
1550 991 142 0
1550 -991 -142 0
-1551 1384 0
-1551 -1299 0
1551 -1384 1299 0
-1552 -729 0
-1552 -41 0
1552 729 41 0
-1553 143 0
-1553 -600 0
1553 -143 600 0
-1554 -1368 -1096 0
-1554 1368 1096 0
1554 1368 -1096 0
1554 -1368 1096 0
-1555 -238 0
-1555 689 0
1555 238 -689 0
-1556 543 0
-1556 -567 0
1556 -543 567 0
-1557 -1339 0
-1557 -1028 0
1557 1339 1028 0
-1558 -772 -70 0
-1558 772 70 0
1558 772 -70 0
1558 -772 70 0
-1559 1188 0
-1559 788 0
1559 -1188 -788 0
-1560 -1115 0
-1560 564 0
1560 1115 -564 0
-1561 1405 0
-1561 -246 0
1561 -1405 246 0
-1562 -1187 0
-1562 -278 0
1562 1187 278 0
-1563 -450 0
-1563 1314 0
1563 450 -1314 0
-1564 102 1523 0
-1564 -102 -1523 0
1564 -102 1523 0
1564 102 -1523 0
-1565 708 0
-1565 -1159 0
1565 -708 1159 0
-1566 -1118 0
-1566 681 0
1566 1118 -681 0
-1567 -1519 0
-1567 -1526 0
1567 1519 1526 0
-1568 283 0
-1568 1147 0
1568 -283 -1147 0
-1569 279 1014 0
-1569 -279 -1014 0
1569 -279 1014 0
1569 279 -1014 0
-1570 1507 -1468 0
-1570 -1507 1468 0
1570 -1507 -1468 0
1570 1507 1468 0
-1571 254 973 0
-1571 -254 -973 0
1571 -254 973 0
1571 254 -973 0
-1572 -1402 0
-1572 1092 0
1572 1402 -1092 0
-1573 918 0
-1573 -830 0
1573 -918 830 0
-1574 -432 0
-1574 -751 0
1574 432 751 0
-1575 54 0
-1575 -601 0
1575 -54 601 0
-1576 445 0
-1576 -170 0
1576 -445 170 0
-1577 542 168 0
-1577 -542 -168 0
1577 -542 168 0
1577 542 -168 0
-1578 -622 0
-1578 -1065 0
1578 622 1065 0
-1579 -1218 0
-1579 996 0
1579 1218 -996 0
-1580 -771 0
-1580 1475 0
1580 771 -1475 0
-1581 395 972 0
-1581 -395 -972 0
1581 -395 972 0
1581 395 -972 0
-1582 -180 183 0
-1582 180 -183 0
1582 180 183 0
1582 -180 -183 0
-1583 -906 0
-1583 -214 0
1583 906 214 0
-1584 503 0
-1584 873 0
1584 -503 -873 0
-1585 496 0
-1585 241 0
1585 -496 -241 0
-1586 -792 0
-1586 -1072 0
1586 792 1072 0
-1587 -1215 0
-1587 113 0
1587 1215 -113 0
-1588 791 0
-1588 -660 0
1588 -791 660 0
-1589 1100 0
-1589 -825 0
1589 -1100 825 0
-1590 -367 0
-1590 637 0
1590 367 -637 0
-1591 -1007 0
-1591 -612 0
1591 1007 612 0
-1592 921 1503 0
-1592 -921 -1503 0
1592 -921 1503 0
1592 921 -1503 0
-1593 660 -467 0
-1593 -660 467 0
1593 -660 -467 0
1593 660 467 0
-1594 792 0
-1594 533 0
1594 -792 -533 0
-1595 126 1468 0
-1595 -126 -1468 0
1595 -126 1468 0
1595 126 -1468 0
-1596 1152 1461 0
-1596 -1152 -1461 0
1596 -1152 1461 0
1596 1152 -1461 0
-1597 1228 0
-1597 372 0
1597 -1228 -372 0
-1598 -1254 574 0
-1598 1254 -574 0
1598 1254 574 0
1598 -1254 -574 0
-1599 -996 0
-1599 -249 0
1599 996 249 0
-1600 -1327 0
-1600 -163 0
1600 1327 163 0
-1601 -611 1072 0
-1601 611 -1072 0
1601 611 1072 0
1601 -611 -1072 0
-1602 927 0
-1602 -1590 0
1602 -927 1590 0
-1603 -860 0
-1603 -1210 0
1603 860 1210 0
-1604 -1222 0
-1604 1059 0
1604 1222 -1059 0
-1605 181 955 0
-1605 -181 -955 0
1605 -181 955 0
1605 181 -955 0
-1606 991 0
-1606 -509 0
1606 -991 509 0
-1607 859 0
-1607 11 0
1607 -859 -11 0
-1608 241 -968 0
-1608 -241 968 0
1608 -241 -968 0
1608 241 968 0
-1609 -1519 0
-1609 1126 0
1609 1519 -1126 0
-1610 483 0
-1610 1347 0
1610 -483 -1347 0
-1611 276 0
-1611 1407 0
1611 -276 -1407 0
-1612 1292 0
-1612 797 0
1612 -1292 -797 0
-1613 1018 0
-1613 -752 0
1613 -1018 752 0
-1614 1447 0
-1614 -198 0
1614 -1447 198 0
-1615 -1085 -664 0
-1615 1085 664 0
1615 1085 -664 0
1615 -1085 664 0
-1616 -1562 0
-1616 1358 0
1616 1562 -1358 0
-1617 27 0
-1617 -1493 0
1617 -27 1493 0
-1618 -35 0
-1618 194 0
1618 35 -194 0
-1619 -304 0
-1619 1582 0
1619 304 -1582 0
-1620 575 0
-1620 -1387 0
1620 -575 1387 0
-1621 918 1305 0
-1621 -918 -1305 0
1621 -918 1305 0
1621 918 -1305 0
-1622 149 -433 0
-1622 -149 433 0
1622 -149 -433 0
1622 149 433 0
-1623 132 0
-1623 -516 0
1623 -132 516 0
-1624 736 239 0
-1624 -736 -239 0
1624 -736 239 0
1624 736 -239 0
-1625 -1110 1433 0
-1625 1110 -1433 0
1625 1110 1433 0
1625 -1110 -1433 0
-1626 7 1398 0
-1626 -7 -1398 0
1626 -7 1398 0
1626 7 -1398 0
-1627 1305 -1580 0
-1627 -1305 1580 0
1627 -1305 -1580 0
1627 1305 1580 0
-1628 -607 0
-1628 -1005 0
1628 607 1005 0
-1629 -1092 231 0
-1629 1092 -231 0
1629 1092 231 0
1629 -1092 -231 0
-1630 -1357 0
-1630 -1531 0
1630 1357 1531 0
-1631 369 432 0
-1631 -369 -432 0
1631 -369 432 0
1631 369 -432 0
-1632 -645 281 0
-1632 645 -281 0
1632 645 281 0
1632 -645 -281 0
-1633 -1443 0
-1633 4 0
1633 1443 -4 0
-1634 -974 0
-1634 -25 0
1634 974 25 0
-1635 -331 0
-1635 -760 0
1635 331 760 0
-1636 -1036 0
-1636 1174 0
1636 1036 -1174 0
-1637 732 0
-1637 458 0
1637 -732 -458 0
-1638 -826 0
-1638 1634 0
1638 826 -1634 0
-1639 -1405 0
-1639 1016 0
1639 1405 -1016 0
-1640 -1371 0
-1640 738 0
1640 1371 -738 0
-1641 -1144 0
-1641 -114 0
1641 1144 114 0
-1642 1177 746 0
-1642 -1177 -746 0
1642 -1177 746 0
1642 1177 -746 0
-1643 506 -1198 0
-1643 -506 1198 0
1643 -506 -1198 0
1643 506 1198 0
-1644 -1528 0
-1644 722 0
1644 1528 -722 0
-1645 -279 1290 0
-1645 279 -1290 0
1645 279 1290 0
1645 -279 -1290 0
-1646 1009 0
-1646 1113 0
1646 -1009 -1113 0
-1647 409 0
-1647 -139 0
1647 -409 139 0
-1648 -929 0
-1648 1306 0
1648 929 -1306 0
-1649 1460 0
-1649 -703 0
1649 -1460 703 0
-1650 -565 0
-1650 729 0
1650 565 -729 0
-1651 814 0
-1651 1622 0
1651 -814 -1622 0
-1652 1028 0
-1652 -1209 0
1652 -1028 1209 0
-1653 251 0
-1653 -940 0
1653 -251 940 0
-1654 939 0
-1654 366 0
1654 -939 -366 0
-1655 1524 0
-1655 1173 0
1655 -1524 -1173 0
-1656 -9 -173 0
-1656 9 173 0
1656 9 -173 0
1656 -9 173 0
-1657 -1465 0
-1657 -1228 0
1657 1465 1228 0
-1658 -106 0
-1658 -1268 0
1658 106 1268 0
-1659 1404 0
-1659 1192 0
1659 -1404 -1192 0
-1660 649 0
-1660 -876 0
1660 -649 876 0
-1661 342 0
-1661 1228 0
1661 -342 -1228 0
-1662 -1514 0
-1662 -662 0
1662 1514 662 0
-1663 1578 -1471 0
-1663 -1578 1471 0
1663 -1578 -1471 0
1663 1578 1471 0
-1664 551 0
-1664 1474 0
1664 -551 -1474 0
-1665 -191 -917 0
-1665 191 917 0
1665 191 -917 0
1665 -191 917 0
-1666 693 0
-1666 -1460 0
1666 -693 1460 0
-1667 -112 0
-1667 1354 0
1667 112 -1354 0
-1668 360 1560 0
-1668 -360 -1560 0
1668 -360 1560 0
1668 360 -1560 0
-1669 -448 -698 0
-1669 448 698 0
1669 448 -698 0
1669 -448 698 0
-1670 668 0
-1670 1580 0
1670 -668 -1580 0
-1671 1199 1631 0
-1671 -1199 -1631 0
1671 -1199 1631 0
1671 1199 -1631 0
-1672 460 0
-1672 -538 0
1672 -460 538 0
-1673 943 0
-1673 1578 0
1673 -943 -1578 0
-1674 645 1082 0
-1674 -645 -1082 0
1674 -645 1082 0
1674 645 -1082 0
-1675 -1475 0
-1675 1347 0
1675 1475 -1347 0
-1676 -1222 0
-1676 -767 0
1676 1222 767 0
-1677 904 0
-1677 895 0
1677 -904 -895 0
-1678 251 0
-1678 291 0
1678 -251 -291 0
-1679 442 0
-1679 1354 0
1679 -442 -1354 0
-1680 653 0
-1680 -591 0
1680 -653 591 0
-1681 -183 0
-1681 -1558 0
1681 183 1558 0
-1682 -826 0
-1682 -402 0
1682 826 402 0
-1683 139 0
-1683 -1330 0
1683 -139 1330 0
-1684 393 0
-1684 -565 0
1684 -393 565 0
-1685 691 0
-1685 -464 0
1685 -691 464 0
-1686 -473 0
-1686 -1362 0
1686 473 1362 0
-1687 1566 0
-1687 894 0
1687 -1566 -894 0
-1688 -414 0
-1688 1544 0
1688 414 -1544 0
-1689 -1564 974 0
-1689 1564 -974 0
1689 1564 974 0
1689 -1564 -974 0
-1690 -228 1674 0
-1690 228 -1674 0
1690 228 1674 0
1690 -228 -1674 0
-1691 -994 0
-1691 1494 0
1691 994 -1494 0
-1692 1353 0
-1692 -665 0
1692 -1353 665 0
-1693 -1642 0
-1693 -826 0
1693 1642 826 0
-1694 1590 0
-1694 205 0
1694 -1590 -205 0
-1695 1559 -933 0
-1695 -1559 933 0
1695 -1559 -933 0
1695 1559 933 0
-1696 1066 1257 0
-1696 -1066 -1257 0
1696 -1066 1257 0
1696 1066 -1257 0
-1697 824 840 0
-1697 -824 -840 0
1697 -824 840 0
1697 824 -840 0
-1698 1223 0
-1698 -229 0
1698 -1223 229 0
-1699 -567 0
-1699 -98 0
1699 567 98 0
-1700 -767 -243 0
-1700 767 243 0
1700 767 -243 0
1700 -767 243 0
-1701 1678 -1390 0
-1701 -1678 1390 0
1701 -1678 -1390 0
1701 1678 1390 0
-1702 79 0
-1702 548 0
1702 -79 -548 0
-1703 908 0
-1703 1246 0
1703 -908 -1246 0
-1704 731 573 0
-1704 -731 -573 0
1704 -731 573 0
1704 731 -573 0
-1705 1602 -1302 0
-1705 -1602 1302 0
1705 -1602 -1302 0
1705 1602 1302 0
-1706 -1363 0
-1706 -1313 0
1706 1363 1313 0
-1707 -1518 0
-1707 -1175 0
1707 1518 1175 0
-1708 1692 0
-1708 604 0
1708 -1692 -604 0
-1709 -1589 0
-1709 637 0
1709 1589 -637 0
-1710 -229 0
-1710 138 0
1710 229 -138 0
-1711 -416 0
-1711 -87 0
1711 416 87 0
-1712 1470 0
-1712 464 0
1712 -1470 -464 0
-1713 301 -557 0
-1713 -301 557 0
1713 -301 -557 0
1713 301 557 0
-1714 -442 1649 0
-1714 442 -1649 0
1714 442 1649 0
1714 -442 -1649 0
-1715 -499 645 0
-1715 499 -645 0
1715 499 645 0
1715 -499 -645 0
-1716 761 0
-1716 -302 0
1716 -761 302 0
-1717 -868 1055 0
-1717 868 -1055 0
1717 868 1055 0
1717 -868 -1055 0
-1718 1260 0
-1718 -1441 0
1718 -1260 1441 0
-1719 531 0
-1719 -1372 0
1719 -531 1372 0
-1720 -1367 713 0
-1720 1367 -713 0
1720 1367 713 0
1720 -1367 -713 0
-1721 269 0
-1721 -857 0
1721 -269 857 0
-1722 205 188 0
-1722 -205 -188 0
1722 -205 188 0
1722 205 -188 0
-1723 1290 581 0
-1723 -1290 -581 0
1723 -1290 581 0
1723 1290 -581 0
-1724 -998 0
-1724 1692 0
1724 998 -1692 0
-1725 974 -831 0
-1725 -974 831 0
1725 -974 -831 0
1725 974 831 0
-1726 1505 0
-1726 1393 0
1726 -1505 -1393 0
-1727 -860 0
-1727 489 0
1727 860 -489 0
-1728 -803 0
-1728 420 0
1728 803 -420 0
-1729 -770 0
-1729 411 0
1729 770 -411 0
-1730 -357 0
-1730 1697 0
1730 357 -1697 0
-1731 1376 0
-1731 -1166 0
1731 -1376 1166 0
-1732 -1491 -431 0
-1732 1491 431 0
1732 1491 -431 0
1732 -1491 431 0
-1733 400 -1354 0
-1733 -400 1354 0
1733 -400 -1354 0
1733 400 1354 0
-1734 -541 810 0
-1734 541 -810 0
1734 541 810 0
1734 -541 -810 0
-1735 -840 0
-1735 573 0
1735 840 -573 0
-1736 164 0
-1736 567 0
1736 -164 -567 0
-1737 -874 0
-1737 1463 0
1737 874 -1463 0
-1738 -1223 -463 0
-1738 1223 463 0
1738 1223 -463 0
1738 -1223 463 0
-1739 -318 0
-1739 -1554 0
1739 318 1554 0
-1740 -12 0
-1740 -696 0
1740 12 696 0
-1741 -490 0
-1741 -392 0
1741 490 392 0
-1742 366 0
-1742 -1093 0
1742 -366 1093 0
-1743 1666 0
-1743 -891 0
1743 -1666 891 0
-1744 -948 0
-1744 1723 0
1744 948 -1723 0
-1745 -425 0
-1745 1551 0
1745 425 -1551 0
-1746 521 0
-1746 -1380 0
1746 -521 1380 0
-1747 -907 0
-1747 -1029 0
1747 907 1029 0
-1748 -68 526 0
-1748 68 -526 0
1748 68 526 0
1748 -68 -526 0
-1749 -1574 0
-1749 -97 0
1749 1574 97 0
-1750 244 0
-1750 -610 0
1750 -244 610 0
-1751 32 0
-1751 859 0
1751 -32 -859 0
-1752 1257 0
-1752 -446 0
1752 -1257 446 0
-1753 1382 0
-1753 482 0
1753 -1382 -482 0
-1754 1142 1448 0
-1754 -1142 -1448 0
1754 -1142 1448 0
1754 1142 -1448 0
-1755 836 0
-1755 1647 0
1755 -836 -1647 0
-1756 -461 0
-1756 398 0
1756 461 -398 0
-1757 753 0
-1757 -205 0
1757 -753 205 0
-1758 1591 0
-1758 -546 0
1758 -1591 546 0
-1759 942 0
-1759 1403 0
1759 -942 -1403 0
-1760 -843 0
-1760 1533 0
1760 843 -1533 0
-1761 -866 0
-1761 -1301 0
1761 866 1301 0
-1762 -1367 0
-1762 -1522 0
1762 1367 1522 0
-1763 1492 0
-1763 -1318 0
1763 -1492 1318 0
-1764 39 0
-1764 522 0
1764 -39 -522 0
-1765 -1595 -1298 0
-1765 1595 1298 0
1765 1595 -1298 0
1765 -1595 1298 0
-1766 -1579 0
-1766 -1384 0
1766 1579 1384 0
-1767 -513 0
-1767 -1480 0
1767 513 1480 0
-1768 -128 -1393 0
-1768 128 1393 0
1768 128 -1393 0
1768 -128 1393 0
-1769 1249 0
-1769 211 0
1769 -1249 -211 0
-1770 1427 0
-1770 -1642 0
1770 -1427 1642 0
-1771 69 0
-1771 1230 0
1771 -69 -1230 0
-1772 -357 -1138 0
-1772 357 1138 0
1772 357 -1138 0
1772 -357 1138 0
-1773 -329 0
-1773 -546 0
1773 329 546 0
-1774 -255 196 0
-1774 255 -196 0
1774 255 196 0
1774 -255 -196 0
-1775 1567 0
-1775 -810 0
1775 -1567 810 0
-1776 777 -989 0
-1776 -777 989 0
1776 -777 -989 0
1776 777 989 0
-1777 -330 362 0
-1777 330 -362 0
1777 330 362 0
1777 -330 -362 0
-1778 -1653 0
-1778 371 0
1778 1653 -371 0
-1779 -1299 0
-1779 695 0
1779 1299 -695 0
-1780 -715 0
-1780 910 0
1780 715 -910 0
-1781 -878 0
-1781 -1663 0
1781 878 1663 0
-1782 -1285 1658 0
-1782 1285 -1658 0
1782 1285 1658 0
1782 -1285 -1658 0
-1783 511 267 0
-1783 -511 -267 0
1783 -511 267 0
1783 511 -267 0
-1784 1120 0
-1784 -396 0
1784 -1120 396 0
-1785 1741 -557 0
-1785 -1741 557 0
1785 -1741 -557 0
1785 1741 557 0
-1786 -740 0
-1786 1180 0
1786 740 -1180 0
-1787 -812 0
-1787 -171 0
1787 812 171 0
-1788 1673 0
-1788 -1491 0
1788 -1673 1491 0
-1789 427 -1413 0
-1789 -427 1413 0
1789 -427 -1413 0
1789 427 1413 0
-1790 1496 -798 0
-1790 -1496 798 0
1790 -1496 -798 0
1790 1496 798 0
-1791 -1424 1576 0
-1791 1424 -1576 0
1791 1424 1576 0
1791 -1424 -1576 0
-1792 -1030 0
-1792 1374 0
1792 1030 -1374 0
-1793 1734 780 0
-1793 -1734 -780 0
1793 -1734 780 0
1793 1734 -780 0
-1794 -1697 0
-1794 929 0
1794 1697 -929 0
-1795 -1693 0
-1795 1572 0
1795 1693 -1572 0
-1796 -1665 0
-1796 -230 0
1796 1665 230 0
-1797 -901 0
-1797 1166 0
1797 901 -1166 0
-1798 -352 0
-1798 -1485 0
1798 352 1485 0
-1799 733 0
-1799 -1376 0
1799 -733 1376 0
-1800 -963 0
-1800 -1280 0
1800 963 1280 0
-1801 -949 0
-1801 -891 0
1801 949 891 0
-1802 -1570 -1078 0
-1802 1570 1078 0
1802 1570 -1078 0
1802 -1570 1078 0
-1803 848 0
-1803 -42 0
1803 -848 42 0
-1804 -1680 0
-1804 -93 0
1804 1680 93 0
-1805 -642 -1742 0
-1805 642 1742 0
1805 642 -1742 0
1805 -642 1742 0
-1806 -137 0
-1806 -742 0
1806 137 742 0
-1807 1566 0
-1807 730 0
1807 -1566 -730 0
-1808 1442 0
-1808 -567 0
1808 -1442 567 0
-1809 690 0
-1809 -260 0
1809 -690 260 0
-1810 836 0
-1810 -337 0
1810 -836 337 0
-1811 -1808 -850 0
-1811 1808 850 0
1811 1808 -850 0
1811 -1808 850 0
-1812 674 0
-1812 -24 0
1812 -674 24 0
-1813 1146 0
-1813 -1271 0
1813 -1146 1271 0
-1814 638 1633 0
-1814 -638 -1633 0
1814 -638 1633 0
1814 638 -1633 0
-1815 -1271 0
-1815 -1263 0
1815 1271 1263 0
-1816 1034 0
-1816 1112 0
1816 -1034 -1112 0
-1817 -1813 0
-1817 1215 0
1817 1813 -1215 0
-1818 -1647 0
-1818 -1390 0
1818 1647 1390 0
-1819 -1511 0
-1819 233 0
1819 1511 -233 0
-1820 -477 0
-1820 -105 0
1820 477 105 0
-1821 1588 0
-1821 -248 0
1821 -1588 248 0
-1822 -1036 93 0
-1822 1036 -93 0
1822 1036 93 0
1822 -1036 -93 0
-1823 -1199 0
-1823 1109 0
1823 1199 -1109 0
-1824 -311 0
-1824 1387 0
1824 311 -1387 0
-1825 1136 0
-1825 1457 0
1825 -1136 -1457 0
-1826 1143 0
-1826 -150 0
1826 -1143 150 0
-1827 -536 0
-1827 126 0
1827 536 -126 0
-1828 -626 0
-1828 -1142 0
1828 626 1142 0
-1829 1405 422 0
-1829 -1405 -422 0
1829 -1405 422 0
1829 1405 -422 0
-1830 -82 0
-1830 -185 0
1830 82 185 0
-1831 -10 0
-1831 1643 0
1831 10 -1643 0
-1832 1377 0
-1832 -235 0
1832 -1377 235 0
-1833 695 0
-1833 147 0
1833 -695 -147 0
-1834 962 0
-1834 -1634 0
1834 -962 1634 0
-1835 232 0
-1835 793 0
1835 -232 -793 0
-1836 1749 0
-1836 -1363 0
1836 -1749 1363 0
-1837 627 0
-1837 516 0
1837 -627 -516 0
-1838 -1821 -523 0
-1838 1821 523 0
1838 1821 -523 0
1838 -1821 523 0
-1839 -770 -893 0
-1839 770 893 0
1839 770 -893 0
1839 -770 893 0
-1840 377 526 0
-1840 -377 -526 0
1840 -377 526 0
1840 377 -526 0
-1841 1318 0
-1841 420 0
1841 -1318 -420 0
-1842 618 0
-1842 -955 0
1842 -618 955 0
-1843 -848 0
-1843 647 0
1843 848 -647 0
-1844 1731 0
-1844 -679 0
1844 -1731 679 0
-1845 960 0
-1845 1536 0
1845 -960 -1536 0
-1846 50 0
-1846 433 0
1846 -50 -433 0
-1847 1630 1601 0
-1847 -1630 -1601 0
1847 -1630 1601 0
1847 1630 -1601 0
-1848 1313 274 0
-1848 -1313 -274 0
1848 -1313 274 0
1848 1313 -274 0
-1849 -781 0
-1849 -256 0
1849 781 256 0
-1850 1237 0
-1850 -381 0
1850 -1237 381 0
-1851 -433 0
-1851 1698 0
1851 433 -1698 0
-1852 1777 -1147 0
-1852 -1777 1147 0
1852 -1777 -1147 0
1852 1777 1147 0
-1853 996 0
-1853 1232 0
1853 -996 -1232 0
-1854 1008 0
-1854 -1530 0
1854 -1008 1530 0
-1855 1799 -214 0
-1855 -1799 214 0
1855 -1799 -214 0
1855 1799 214 0
-1856 -1666 -1102 0
-1856 1666 1102 0
1856 1666 -1102 0
1856 -1666 1102 0
-1857 275 1366 0
-1857 -275 -1366 0
1857 -275 1366 0
1857 275 -1366 0
-1858 1362 -668 0
-1858 -1362 668 0
1858 -1362 -668 0
1858 1362 668 0
-1859 -36 0
-1859 -1136 0
1859 36 1136 0
-1860 1640 1410 0
-1860 -1640 -1410 0
1860 -1640 1410 0
1860 1640 -1410 0
-1861 213 584 0
-1861 -213 -584 0
1861 -213 584 0
1861 213 -584 0
-1862 1417 0
-1862 1087 0
1862 -1417 -1087 0
-1863 1569 941 0
-1863 -1569 -941 0
1863 -1569 941 0
1863 1569 -941 0
-1864 1152 0
-1864 -1377 0
1864 -1152 1377 0
-1865 549 0
-1865 -735 0
1865 -549 735 0
-1866 1583 0
-1866 1013 0
1866 -1583 -1013 0
-1867 197 0
-1867 -760 0
1867 -197 760 0
-1868 -1274 -1440 0
-1868 1274 1440 0
1868 1274 -1440 0
1868 -1274 1440 0
-1869 -1621 -1312 0
-1869 1621 1312 0
1869 1621 -1312 0
1869 -1621 1312 0
-1870 -1751 0
-1870 1266 0
1870 1751 -1266 0
-1871 -1161 0
-1871 1580 0
1871 1161 -1580 0
-1872 -1607 0
-1872 -369 0
1872 1607 369 0
-1873 -666 0
-1873 779 0
1873 666 -779 0
-1874 809 0
-1874 1791 0
1874 -809 -1791 0
-1875 -1219 0
-1875 -273 0
1875 1219 273 0
-1876 -734 -1218 0
-1876 734 1218 0
1876 734 -1218 0
1876 -734 1218 0
-1877 -1714 0
-1877 -441 0
1877 1714 441 0
-1878 -1236 0
-1878 -1668 0
1878 1236 1668 0
-1879 1171 0
-1879 -2 0
1879 -1171 2 0
-1880 805 0
-1880 -426 0
1880 -805 426 0
-1881 851 0
-1881 596 0
1881 -851 -596 0
-1882 -215 0
-1882 -348 0
1882 215 348 0
-1883 -1053 -1780 0
-1883 1053 1780 0
1883 1053 -1780 0
1883 -1053 1780 0
-1884 -1080 0
-1884 -1339 0
1884 1080 1339 0
-1885 1447 0
-1885 21 0
1885 -1447 -21 0
-1886 -746 0
-1886 -1232 0
1886 746 1232 0
-1887 813 0
-1887 -773 0
1887 -813 773 0
-1888 -1179 0
-1888 119 0
1888 1179 -119 0
-1889 444 -1235 0
-1889 -444 1235 0
1889 -444 -1235 0
1889 444 1235 0
-1890 -1719 -1486 0
-1890 1719 1486 0
1890 1719 -1486 0
1890 -1719 1486 0
-1891 1036 0
-1891 -968 0
1891 -1036 968 0
-1892 109 0
-1892 -372 0
1892 -109 372 0
-1893 1074 0
-1893 -1348 0
1893 -1074 1348 0
-1894 1037 0
-1894 1058 0
1894 -1037 -1058 0
-1895 1660 0
-1895 1534 0
1895 -1660 -1534 0
-1896 310 0
-1896 -1632 0
1896 -310 1632 0
-1897 -69 -321 0
-1897 69 321 0
1897 69 -321 0
1897 -69 321 0
-1898 714 0
-1898 -1793 0
1898 -714 1793 0
-1899 1258 0
-1899 809 0
1899 -1258 -809 0
-1900 -1186 1655 0
-1900 1186 -1655 0
1900 1186 1655 0
1900 -1186 -1655 0
-1901 650 0
-1901 -696 0
1901 -650 696 0
-1902 1191 0
-1902 706 0
1902 -1191 -706 0
-1903 -862 0
-1903 236 0
1903 862 -236 0
-1904 -1096 0
-1904 -1819 0
1904 1096 1819 0
-1905 822 0
-1905 -793 0
1905 -822 793 0
-1906 -878 0
-1906 -763 0
1906 878 763 0
-1907 -713 0
-1907 -926 0
1907 713 926 0
-1908 79 -246 0
-1908 -79 246 0
1908 -79 -246 0
1908 79 246 0
-1909 -823 0
-1909 1614 0
1909 823 -1614 0
-1910 1400 0
-1910 -427 0
1910 -1400 427 0
-1911 379 0
-1911 -1309 0
1911 -379 1309 0
-1912 799 0
-1912 -506 0
1912 -799 506 0
-1913 1902 0
-1913 450 0
1913 -1902 -450 0
-1914 405 -689 0
-1914 -405 689 0
1914 -405 -689 0
1914 405 689 0
-1915 1862 0
-1915 654 0
1915 -1862 -654 0
-1916 -1264 0
-1916 882 0
1916 1264 -882 0
-1917 1339 -1470 0
-1917 -1339 1470 0
1917 -1339 -1470 0
1917 1339 1470 0
-1918 929 0
-1918 1199 0
1918 -929 -1199 0
-1919 -1311 0
-1919 -929 0
1919 1311 929 0
-1920 636 0
-1920 -427 0
1920 -636 427 0
-1921 36 0
-1921 922 0
1921 -36 -922 0
-1922 -910 0
-1922 1428 0
1922 910 -1428 0
-1923 -1348 935 0
-1923 1348 -935 0
1923 1348 935 0
1923 -1348 -935 0
-1924 501 0
-1924 -922 0
1924 -501 922 0
-1925 -1105 0
-1925 -1153 0
1925 1105 1153 0
-1926 -1450 -131 0
-1926 1450 131 0
1926 1450 -131 0
1926 -1450 131 0
-1927 1164 1356 0
-1927 -1164 -1356 0
1927 -1164 1356 0
1927 1164 -1356 0
-1928 63 0
-1928 -1454 0
1928 -63 1454 0
-1929 115 1510 0
-1929 -115 -1510 0
1929 -115 1510 0
1929 115 -1510 0
-1930 -1591 0
-1930 645 0
1930 1591 -645 0
-1931 1515 0
-1931 1646 0
1931 -1515 -1646 0
-1932 -1112 -1186 0
-1932 1112 1186 0
1932 1112 -1186 0
1932 -1112 1186 0
-1933 720 0
-1933 -187 0
1933 -720 187 0
-1934 -1110 0
-1934 156 0
1934 1110 -156 0
-1935 -911 -660 0
-1935 911 660 0
1935 911 -660 0
1935 -911 660 0
-1936 -1378 -1916 0
-1936 1378 1916 0
1936 1378 -1916 0
1936 -1378 1916 0
-1937 1647 -1187 0
-1937 -1647 1187 0
1937 -1647 -1187 0
1937 1647 1187 0
-1938 -13 0
-1938 -4 0
1938 13 4 0
-1939 1365 0
-1939 1549 0
1939 -1365 -1549 0
-1940 -487 0
-1940 -1488 0
1940 487 1488 0
-1941 -1358 0
-1941 1178 0
1941 1358 -1178 0
-1942 -1602 -1245 0
-1942 1602 1245 0
1942 1602 -1245 0
1942 -1602 1245 0
-1943 -1106 229 0
-1943 1106 -229 0
1943 1106 229 0
1943 -1106 -229 0
-1944 1756 0
-1944 -1149 0
1944 -1756 1149 0
-1945 1040 1917 0
-1945 -1040 -1917 0
1945 -1040 1917 0
1945 1040 -1917 0
-1946 -1914 0
-1946 565 0
1946 1914 -565 0
-1947 910 0
-1947 -384 0
1947 -910 384 0
-1948 -839 0
-1948 617 0
1948 839 -617 0
-1949 -1578 0
-1949 544 0
1949 1578 -544 0
-1950 1266 -1611 0
-1950 -1266 1611 0
1950 -1266 -1611 0
1950 1266 1611 0
-1951 -44 -1274 0
-1951 44 1274 0
1951 44 -1274 0
1951 -44 1274 0
-1952 1510 -69 0
-1952 -1510 69 0
1952 -1510 -69 0
1952 1510 69 0
-1953 1208 -460 0
-1953 -1208 460 0
1953 -1208 -460 0
1953 1208 460 0
-1954 -1827 0
-1954 722 0
1954 1827 -722 0
-1955 -1735 1727 0
-1955 1735 -1727 0
1955 1735 1727 0
1955 -1735 -1727 0
-1956 -1476 0
-1956 -1887 0
1956 1476 1887 0
-1957 -367 0
-1957 42 0
1957 367 -42 0
-1958 1925 0
-1958 -1297 0
1958 -1925 1297 0
-1959 -639 0
-1959 316 0
1959 639 -316 0
-1960 94 0
-1960 -100 0
1960 -94 100 0
-1961 39 -1714 0
-1961 -39 1714 0
1961 -39 -1714 0
1961 39 1714 0
-1962 1737 -1234 0
-1962 -1737 1234 0
1962 -1737 -1234 0
1962 1737 1234 0
-1963 520 0
-1963 -1169 0
1963 -520 1169 0
-1964 1037 1848 0
-1964 -1037 -1848 0
1964 -1037 1848 0
1964 1037 -1848 0
-1965 -1833 0
-1965 -1280 0
1965 1833 1280 0
-1966 645 0
-1966 1456 0
1966 -645 -1456 0
-1967 1792 0
-1967 1466 0
1967 -1792 -1466 0
-1968 27 1806 0
-1968 -27 -1806 0
1968 -27 1806 0
1968 27 -1806 0
-1969 -1333 0
-1969 -1258 0
1969 1333 1258 0
-1970 -1386 0
-1970 939 0
1970 1386 -939 0
-1971 1867 0
-1971 -577 0
1971 -1867 577 0
-1972 974 -630 0
-1972 -974 630 0
1972 -974 -630 0
1972 974 630 0
-1973 -878 0
-1973 -529 0
1973 878 529 0
-1974 1366 0
-1974 -723 0
1974 -1366 723 0
-1975 1142 0
-1975 878 0
1975 -1142 -878 0
-1976 1275 0
-1976 -337 0
1976 -1275 337 0
-1977 354 0
-1977 1174 0
1977 -354 -1174 0
-1978 -1333 0
-1978 1117 0
1978 1333 -1117 0
-1979 -1823 -830 0
-1979 1823 830 0
1979 1823 -830 0
1979 -1823 830 0
-1980 1552 -567 0
-1980 -1552 567 0
1980 -1552 -567 0
1980 1552 567 0
-1981 1277 1946 0
-1981 -1277 -1946 0
1981 -1277 1946 0
1981 1277 -1946 0
-1982 179 -83 0
-1982 -179 83 0
1982 -179 -83 0
1982 179 83 0
-1983 35 -1502 0
-1983 -35 1502 0
1983 -35 -1502 0
1983 35 1502 0
-1984 -506 0
-1984 1278 0
1984 506 -1278 0
-1985 -975 0
-1985 1219 0
1985 975 -1219 0
-1986 -1065 -1524 0
-1986 1065 1524 0
1986 1065 -1524 0
1986 -1065 1524 0
-1987 -1325 0
-1987 -1247 0
1987 1325 1247 0
-1988 1084 307 0
-1988 -1084 -307 0
1988 -1084 307 0
1988 1084 -307 0
-1989 1275 -934 0
-1989 -1275 934 0
1989 -1275 -934 0
1989 1275 934 0
-1990 -1798 1904 0
-1990 1798 -1904 0
1990 1798 1904 0
1990 -1798 -1904 0
-1991 1365 0
-1991 339 0
1991 -1365 -339 0
-1992 -1726 0
-1992 -1855 0
1992 1726 1855 0
-1993 -1328 0
-1993 -1542 0
1993 1328 1542 0
-1994 992 0
-1994 -36 0
1994 -992 36 0
-1995 -823 -1623 0
-1995 823 1623 0
1995 823 -1623 0
1995 -823 1623 0
-1996 1652 0
-1996 1633 0
1996 -1652 -1633 0
-1997 445 0
-1997 1994 0
1997 -445 -1994 0
-1998 109 0
-1998 -872 0
1998 -109 872 0
-1999 -85 0
-1999 -1384 0
1999 85 1384 0
-2000 -1304 -849 0
-2000 1304 849 0
2000 1304 -849 0
2000 -1304 849 0
-2001 1759 0
-2001 747 0
2001 -1759 -747 0
-2002 -1052 0
-2002 1679 0
2002 1052 -1679 0
-2003 -942 0
-2003 517 0
2003 942 -517 0
-2004 748 0
-2004 1968 0
2004 -748 -1968 0
-2005 1842 0
-2005 1290 0
2005 -1842 -1290 0
-2006 -74 -1929 0
-2006 74 1929 0
2006 74 -1929 0
2006 -74 1929 0
-2007 456 0
-2007 418 0
2007 -456 -418 0
-2008 129 0
-2008 -1294 0
2008 -129 1294 0
-2009 702 0
-2009 -694 0
2009 -702 694 0
-2010 1079 0
-2010 374 0
2010 -1079 -374 0
-2011 -1633 -1406 0
-2011 1633 1406 0
2011 1633 -1406 0
2011 -1633 1406 0
-2012 345 0
-2012 888 0
2012 -345 -888 0
-2013 -1194 -203 0
-2013 1194 203 0
2013 1194 -203 0
2013 -1194 203 0
-2014 1400 345 0
-2014 -1400 -345 0
2014 -1400 345 0
2014 1400 -345 0
-2015 -198 0
-2015 -1419 0
2015 198 1419 0
-2016 -220 0
-2016 247 0
2016 220 -247 0
-2017 -416 0
-2017 1014 0
2017 416 -1014 0
-2018 -1206 -142 0
-2018 1206 142 0
2018 1206 -142 0
2018 -1206 142 0
-2019 621 747 0
-2019 -621 -747 0
2019 -621 747 0
2019 621 -747 0
-2020 1962 -311 0
-2020 -1962 311 0
2020 -1962 -311 0
2020 1962 311 0
-2021 976 0
-2021 -821 0
2021 -976 821 0
-2022 -1488 818 0
-2022 1488 -818 0
2022 1488 818 0
2022 -1488 -818 0
-2023 1325 0
-2023 815 0
2023 -1325 -815 0
-2024 624 759 0
-2024 -624 -759 0
2024 -624 759 0
2024 624 -759 0
-2025 820 0
-2025 1534 0
2025 -820 -1534 0
-2026 -1983 -808 0
-2026 1983 808 0
2026 1983 -808 0
2026 -1983 808 0
-2027 1996 0
-2027 -1335 0
2027 -1996 1335 0
-2028 1991 0
-2028 312 0
2028 -1991 -312 0
-2029 -118 0
-2029 -985 0
2029 118 985 0
-2030 188 0
-2030 -263 0
2030 -188 263 0
-2031 -535 0
-2031 -1627 0
2031 535 1627 0
-2032 166 0
-2032 1998 0
2032 -166 -1998 0
-2033 -1648 0
-2033 -865 0
2033 1648 865 0
-2034 1259 0
-2034 -1624 0
2034 -1259 1624 0
-2035 182 0
-2035 -1361 0
2035 -182 1361 0
-2036 1535 0
-2036 1152 0
2036 -1535 -1152 0
-2037 -321 780 0
-2037 321 -780 0
2037 321 780 0
2037 -321 -780 0
-2038 -1432 0
-2038 -1431 0
2038 1432 1431 0
-2039 -2004 0
-2039 -87 0
2039 2004 87 0
-2040 1240 0
-2040 241 0
2040 -1240 -241 0
-2041 27 0
-2041 211 0
2041 -27 -211 0
-2042 1566 0
-2042 1361 0
2042 -1566 -1361 0
-2043 1396 0
-2043 -1262 0
2043 -1396 1262 0
-2044 558 557 0
-2044 -558 -557 0
2044 -558 557 0
2044 558 -557 0
-2045 1078 0
-2045 118 0
2045 -1078 -118 0
-2046 135 -1867 0
-2046 -135 1867 0
2046 -135 -1867 0
2046 135 1867 0
-2047 340 0
-2047 -295 0
2047 -340 295 0
-2048 -1572 0
-2048 -838 0
2048 1572 838 0
-2049 -8 0
-2049 -121 0
2049 8 121 0
-2050 363 1886 0
-2050 -363 -1886 0
2050 -363 1886 0
2050 363 -1886 0
-2051 1956 76 0
-2051 -1956 -76 0
2051 -1956 76 0
2051 1956 -76 0
-2052 -108 0
-2052 -1269 0
2052 108 1269 0
-2053 -1102 0
-2053 -871 0
2053 1102 871 0
-2054 -1199 0
-2054 852 0
2054 1199 -852 0
-2055 2017 0
-2055 -335 0
2055 -2017 335 0
-2056 1666 -1423 0
-2056 -1666 1423 0
2056 -1666 -1423 0
2056 1666 1423 0
-2057 -1157 0
-2057 -1991 0
2057 1157 1991 0
-2058 -1653 0
-2058 -1841 0
2058 1653 1841 0
-2059 1714 0
-2059 -148 0
2059 -1714 148 0
-2060 708 -281 0
-2060 -708 281 0
2060 -708 -281 0
2060 708 281 0
-2061 246 0
-2061 477 0
2061 -246 -477 0
-2062 1566 -1609 0
-2062 -1566 1609 0
2062 -1566 -1609 0
2062 1566 1609 0
-2063 -1857 0
-2063 1294 0
2063 1857 -1294 0
-2064 1909 0
-2064 1794 0
2064 -1909 -1794 0
-2065 -629 0
-2065 -586 0
2065 629 586 0
-2066 -405 0
-2066 -68 0
2066 405 68 0
-2067 -394 0
-2067 -716 0
2067 394 716 0
-2068 -173 0
-2068 -1479 0
2068 173 1479 0
-2069 1829 0
-2069 574 0
2069 -1829 -574 0
-2070 -784 0
-2070 -637 0
2070 784 637 0
-2071 -852 0
-2071 -1350 0
2071 852 1350 0
-2072 1314 985 0
-2072 -1314 -985 0
2072 -1314 985 0
2072 1314 -985 0
-2073 -2012 0
-2073 1386 0
2073 2012 -1386 0
-2074 1104 0
-2074 -1697 0
2074 -1104 1697 0
-2075 762 0
-2075 -1822 0
2075 -762 1822 0
-2076 1933 0
-2076 1230 0
2076 -1933 -1230 0
-2077 -290 0
-2077 -1691 0
2077 290 1691 0
-2078 -1001 0
-2078 64 0
2078 1001 -64 0
-2079 1290 0
-2079 -1876 0
2079 -1290 1876 0
-2080 301 0
-2080 -430 0
2080 -301 430 0
-2081 -1490 12 0
-2081 1490 -12 0
2081 1490 12 0
2081 -1490 -12 0
-2082 1651 0
-2082 974 0
2082 -1651 -974 0
-2083 1945 0
-2083 1928 0
2083 -1945 -1928 0
-2084 -606 0
-2084 69 0
2084 606 -69 0
-2085 1564 -713 0
-2085 -1564 713 0
2085 -1564 -713 0
2085 1564 713 0
-2086 666 0
-2086 -453 0
2086 -666 453 0
-2087 2015 0
-2087 -274 0
2087 -2015 274 0
-2088 -1639 0
-2088 367 0
2088 1639 -367 0
-2089 1881 0
-2089 1418 0
2089 -1881 -1418 0
-2090 -1156 0
-2090 207 0
2090 1156 -207 0
-2091 1440 -1855 0
-2091 -1440 1855 0
2091 -1440 -1855 0
2091 1440 1855 0
-2092 1478 0
-2092 -1880 0
2092 -1478 1880 0
-2093 895 0
-2093 -1272 0
2093 -895 1272 0
-2094 553 0
-2094 877 0
2094 -553 -877 0
-2095 -1489 0
-2095 352 0
2095 1489 -352 0
-2096 -454 0
-2096 -823 0
2096 454 823 0
-2097 638 0
-2097 215 0
2097 -638 -215 0
-2098 -115 0
-2098 -2058 0
2098 115 2058 0
-2099 -1518 0
-2099 -32 0
2099 1518 32 0
-2100 1555 1229 0
-2100 -1555 -1229 0
2100 -1555 1229 0
2100 1555 -1229 0
-2101 155 1294 0
-2101 -155 -1294 0
2101 -155 1294 0
2101 155 -1294 0
-2102 319 0
-2102 1641 0
2102 -319 -1641 0
-2103 389 874 0
-2103 -389 -874 0
2103 -389 874 0
2103 389 -874 0
-2104 -681 0
-2104 -736 0
2104 681 736 0
-2105 -1676 0
-2105 -539 0
2105 1676 539 0
-2106 -994 1387 0
-2106 994 -1387 0
2106 994 1387 0
2106 -994 -1387 0
-2107 292 0
-2107 -377 0
2107 -292 377 0
-2108 486 -108 0
-2108 -486 108 0
2108 -486 -108 0
2108 486 108 0
-2109 133 0
-2109 -427 0
2109 -133 427 0
-2110 1791 0
-2110 -1211 0
2110 -1791 1211 0
-2111 130 0
-2111 -77 0
2111 -130 77 0
-2112 -285 0
-2112 -2069 0
2112 285 2069 0
-2113 271 -653 0
-2113 -271 653 0
2113 -271 -653 0
2113 271 653 0
-2114 822 731 0
-2114 -822 -731 0
2114 -822 731 0
2114 822 -731 0
-2115 642 0
-2115 1356 0
2115 -642 -1356 0
-2116 1137 0
-2116 -1949 0
2116 -1137 1949 0
-2117 -42 0
-2117 -371 0
2117 42 371 0
-2118 -835 0
-2118 605 0
2118 835 -605 0
-2119 -85 0
-2119 -796 0
2119 85 796 0
-2120 -342 0
-2120 -433 0
2120 342 433 0
-2121 823 0
-2121 1552 0
2121 -823 -1552 0
-2122 1771 460 0
-2122 -1771 -460 0
2122 -1771 460 0
2122 1771 -460 0
-2123 1388 0
-2123 1083 0
2123 -1388 -1083 0
-2124 -1441 0
-2124 -317 0
2124 1441 317 0
-2125 -355 0
-2125 -1610 0
2125 355 1610 0
-2126 -1573 0
-2126 -497 0
2126 1573 497 0
-2127 629 0
-2127 1481 0
2127 -629 -1481 0
-2128 659 -1045 0
-2128 -659 1045 0
2128 -659 -1045 0
2128 659 1045 0
-2129 540 0
-2129 1722 0
2129 -540 -1722 0
-2130 1476 0
-2130 -746 0
2130 -1476 746 0
-2131 1925 0
-2131 -1384 0
2131 -1925 1384 0
-2132 1101 0
-2132 1189 0
2132 -1101 -1189 0
-2133 -1762 -671 0
-2133 1762 671 0
2133 1762 -671 0
2133 -1762 671 0
-2134 -420 0
-2134 -1319 0
2134 420 1319 0
-2135 -2017 0
-2135 273 0
2135 2017 -273 0
-2136 -693 0
-2136 -67 0
2136 693 67 0
-2137 34 0
-2137 -860 0
2137 -34 860 0
-2138 -1318 0
-2138 1489 0
2138 1318 -1489 0
-2139 705 0
-2139 -702 0
2139 -705 702 0
-2140 566 0
-2140 1990 0
2140 -566 -1990 0
-2141 -1585 -69 0
-2141 1585 69 0
2141 1585 -69 0
2141 -1585 69 0
-2142 -1167 0
-2142 804 0
2142 1167 -804 0
-2143 -229 -1658 0
-2143 229 1658 0
2143 229 -1658 0
2143 -229 1658 0
-2144 1867 0
-2144 1619 0
2144 -1867 -1619 0
-2145 -4 0
-2145 2035 0
2145 4 -2035 0
-2146 -111 0
-2146 -1666 0
2146 111 1666 0
-2147 -812 0
-2147 -214 0
2147 812 214 0
-2148 -873 0
-2148 -472 0
2148 873 472 0
-2149 1628 -1693 0
-2149 -1628 1693 0
2149 -1628 -1693 0
2149 1628 1693 0
-2150 -1618 0
-2150 -1365 0
2150 1618 1365 0
-2151 -405 0
-2151 -1770 0
2151 405 1770 0
-2152 -605 0
-2152 -1821 0
2152 605 1821 0
-2153 -39 1149 0
-2153 39 -1149 0
2153 39 1149 0
2153 -39 -1149 0
-2154 1059 0
-2154 -651 0
2154 -1059 651 0
-2155 -703 0
-2155 -2092 0
2155 703 2092 0
-2156 -583 -1487 0
-2156 583 1487 0
2156 583 -1487 0
2156 -583 1487 0
-2157 1360 0
-2157 -1618 0
2157 -1360 1618 0
-2158 1920 0
-2158 426 0
2158 -1920 -426 0
-2159 -1407 0
-2159 -354 0
2159 1407 354 0
-2160 874 0
-2160 952 0
2160 -874 -952 0
-2161 1984 0
-2161 526 0
2161 -1984 -526 0
-2162 419 0
-2162 -1084 0
2162 -419 1084 0
-2163 120 0
-2163 -1157 0
2163 -120 1157 0
-2164 1095 0
-2164 1219 0
2164 -1095 -1219 0
-2165 1520 0
-2165 -2143 0
2165 -1520 2143 0
-2166 -44 1701 0
-2166 44 -1701 0
2166 44 1701 0
2166 -44 -1701 0
-2167 1034 0
-2167 -1092 0
2167 -1034 1092 0
-2168 1788 0
-2168 1964 0
2168 -1788 -1964 0
-2169 2164 0
-2169 -1638 0
2169 -2164 1638 0
-2170 547 0
-2170 -1733 0
2170 -547 1733 0
-2171 -1597 1756 0
-2171 1597 -1756 0
2171 1597 1756 0
2171 -1597 -1756 0
-2172 1374 1655 0
-2172 -1374 -1655 0
2172 -1374 1655 0
2172 1374 -1655 0
-2173 397 0
-2173 139 0
2173 -397 -139 0
-2174 -2012 0
-2174 -633 0
2174 2012 633 0
-2175 -1868 594 0
-2175 1868 -594 0
2175 1868 594 0
2175 -1868 -594 0
-2176 -1004 0
-2176 668 0
2176 1004 -668 0
-2177 1955 -2149 0
-2177 -1955 2149 0
2177 -1955 -2149 0
2177 1955 2149 0
-2178 -1472 0
-2178 636 0
2178 1472 -636 0
-2179 -1610 0
-2179 -1049 0
2179 1610 1049 0
-2180 -2052 0
-2180 968 0
2180 2052 -968 0
-2181 -991 -1666 0
-2181 991 1666 0
2181 991 -1666 0
2181 -991 1666 0
-2182 -314 0
-2182 -1079 0
2182 314 1079 0
-2183 873 0
-2183 1137 0
2183 -873 -1137 0
-2184 -1232 0
-2184 -940 0
2184 1232 940 0
-2185 1110 -1302 0
-2185 -1110 1302 0
2185 -1110 -1302 0
2185 1110 1302 0
-2186 490 1761 0
-2186 -490 -1761 0
2186 -490 1761 0
2186 490 -1761 0
-2187 904 0
-2187 -1160 0
2187 -904 1160 0
-2188 -1480 0
-2188 -1851 0
2188 1480 1851 0
-2189 674 0
-2189 -281 0
2189 -674 281 0
-2190 2092 0
-2190 383 0
2190 -2092 -383 0
-2191 -1751 0
-2191 -608 0
2191 1751 608 0
-2192 -197 0
-2192 -1973 0
2192 197 1973 0
-2193 -559 0
-2193 -1542 0
2193 559 1542 0
-2194 -1260 0
-2194 -1993 0
2194 1260 1993 0
-2195 -452 -1097 0
-2195 452 1097 0
2195 452 -1097 0
2195 -452 1097 0
-2196 -467 0
-2196 1097 0
2196 467 -1097 0
-2197 -1226 0
-2197 264 0
2197 1226 -264 0
-2198 995 0
-2198 802 0
2198 -995 -802 0
-2199 -2084 75 0
-2199 2084 -75 0
2199 2084 75 0
2199 -2084 -75 0
-2200 1831 0
-2200 -193 0
2200 -1831 193 0
-2201 1133 0
-2201 2096 0
2201 -1133 -2096 0
-2202 -46 0
-2202 -2127 0
2202 46 2127 0
-2203 1431 0
-2203 259 0
2203 -1431 -259 0
-2204 -681 548 0
-2204 681 -548 0
2204 681 548 0
2204 -681 -548 0
-2205 -1146 0
-2205 2126 0
2205 1146 -2126 0
-2206 -2041 0
-2206 137 0
2206 2041 -137 0
-2207 -991 1463 0
-2207 991 -1463 0
2207 991 1463 0
2207 -991 -1463 0
-2208 1429 0
-2208 113 0
2208 -1429 -113 0
-2209 -195 0
-2209 -833 0
2209 195 833 0
-2210 268 -1657 0
-2210 -268 1657 0
2210 -268 -1657 0
2210 268 1657 0
-2211 482 0
-2211 965 0
2211 -482 -965 0
-2212 377 2119 0
-2212 -377 -2119 0
2212 -377 2119 0
2212 377 -2119 0
-2213 1041 0
-2213 -2152 0
2213 -1041 2152 0
-2214 -1933 68 0
-2214 1933 -68 0
2214 1933 68 0
2214 -1933 -68 0
-2215 -460 0
-2215 -1462 0
2215 460 1462 0
-2216 1443 1819 0
-2216 -1443 -1819 0
2216 -1443 1819 0
2216 1443 -1819 0
-2217 -702 -1469 0
-2217 702 1469 0
2217 702 -1469 0
2217 -702 1469 0
-2218 -1502 0
-2218 1415 0
2218 1502 -1415 0
-2219 1494 0
-2219 678 0
2219 -1494 -678 0
-2220 -959 0
-2220 -2082 0
2220 959 2082 0
-2221 1161 0
-2221 1782 0
2221 -1161 -1782 0
-2222 2066 -781 0
-2222 -2066 781 0
2222 -2066 -781 0
2222 2066 781 0
-2223 -1570 0
-2223 -7 0
2223 1570 7 0
-2224 1454 0
-2224 182 0
2224 -1454 -182 0
-2225 2199 1459 0
-2225 -2199 -1459 0
2225 -2199 1459 0
2225 2199 -1459 0
-2226 -472 0
-2226 -803 0
2226 472 803 0
-2227 375 0
-2227 2128 0
2227 -375 -2128 0
-2228 157 0
-2228 -59 0
2228 -157 59 0
-2229 1746 -366 0
-2229 -1746 366 0
2229 -1746 -366 0
2229 1746 366 0
-2230 2197 1524 0
-2230 -2197 -1524 0
2230 -2197 1524 0
2230 2197 -1524 0
-2231 -782 907 0
-2231 782 -907 0
2231 782 907 0
2231 -782 -907 0
-2232 756 0
-2232 -1257 0
2232 -756 1257 0
-2233 564 -2199 0
-2233 -564 2199 0
2233 -564 -2199 0
2233 564 2199 0
-2234 -280 2120 0
-2234 280 -2120 0
2234 280 2120 0
2234 -280 -2120 0
-2235 -2216 0
-2235 -1664 0
2235 2216 1664 0
-2236 2232 1423 0
-2236 -2232 -1423 0
2236 -2232 1423 0
2236 2232 -1423 0
-2237 1776 0
-2237 322 0
2237 -1776 -322 0
-2238 -1165 0
-2238 -787 0
2238 1165 787 0
-2239 -1657 0
-2239 -1125 0
2239 1657 1125 0
-2240 144 -1004 0
-2240 -144 1004 0
2240 -144 -1004 0
2240 144 1004 0
-2241 1749 -1849 0
-2241 -1749 1849 0
2241 -1749 -1849 0
2241 1749 1849 0
-2242 -1354 0
-2242 583 0
2242 1354 -583 0
-2243 -1544 328 0
-2243 1544 -328 0
2243 1544 328 0
2243 -1544 -328 0
-2244 -276 0
-2244 1231 0
2244 276 -1231 0
-2245 -1171 0
-2245 369 0
2245 1171 -369 0
-2246 2072 -1836 0
-2246 -2072 1836 0
2246 -2072 -1836 0
2246 2072 1836 0
-2247 -1308 0
-2247 -182 0
2247 1308 182 0
-2248 2237 30 0
-2248 -2237 -30 0
2248 -2237 30 0
2248 2237 -30 0
-2249 -299 -190 0
-2249 299 190 0
2249 299 -190 0
2249 -299 190 0
-2250 -498 501 0
-2250 498 -501 0
2250 498 501 0
2250 -498 -501 0
-2251 -1278 0
-2251 1330 0
2251 1278 -1330 0
-2252 -52 0
-2252 1018 0
2252 52 -1018 0
-2253 -478 0
-2253 1046 0
2253 478 -1046 0
-2254 -1673 0
-2254 -1063 0
2254 1673 1063 0
-2255 -1290 0
-2255 953 0
2255 1290 -953 0
-2256 2249 699 0
-2256 -2249 -699 0
2256 -2249 699 0
2256 2249 -699 0
-2257 -1175 0
-2257 452 0
2257 1175 -452 0
-2258 -999 0
-2258 -44 0
2258 999 44 0
-2259 -794 0
-2259 240 0
2259 794 -240 0
-2260 1469 0
-2260 -2254 0
2260 -1469 2254 0
-2261 -2211 0
-2261 1867 0
2261 2211 -1867 0
-2262 -1351 0
-2262 1987 0
2262 1351 -1987 0
-2263 1584 0
-2263 384 0
2263 -1584 -384 0
-2264 -588 0
-2264 -451 0
2264 588 451 0
-2265 2208 -2085 0
-2265 -2208 2085 0
2265 -2208 -2085 0
2265 2208 2085 0
-2266 1732 2132 0
-2266 -1732 -2132 0
2266 -1732 2132 0
2266 1732 -2132 0
-2267 1382 0
-2267 -2069 0
2267 -1382 2069 0
-2268 -1600 0
-2268 -110 0
2268 1600 110 0
-2269 2073 0
-2269 1408 0
2269 -2073 -1408 0
-2270 1923 0
-2270 2010 0
2270 -1923 -2010 0
-2271 1116 0
-2271 -226 0
2271 -1116 226 0
-2272 1619 0
-2272 1436 0
2272 -1619 -1436 0
-2273 167 0
-2273 -391 0
2273 -167 391 0
-2274 408 0
-2274 665 0
2274 -408 -665 0
-2275 -1579 1543 0
-2275 1579 -1543 0
2275 1579 1543 0
2275 -1579 -1543 0
-2276 -1206 327 0
-2276 1206 -327 0
2276 1206 327 0
2276 -1206 -327 0
-2277 -2208 0
-2277 2156 0
2277 2208 -2156 0
-2278 -1177 -150 0
-2278 1177 150 0
2278 1177 -150 0
2278 -1177 150 0
-2279 1764 0
-2279 -1429 0
2279 -1764 1429 0
-2280 1908 -935 0
-2280 -1908 935 0
2280 -1908 -935 0
2280 1908 935 0
-2281 1792 0
-2281 -291 0
2281 -1792 291 0
-2282 760 1855 0
-2282 -760 -1855 0
2282 -760 1855 0
2282 760 -1855 0
-2283 1122 0
-2283 -2135 0
2283 -1122 2135 0
-2284 198 0
-2284 522 0
2284 -198 -522 0
-2285 1936 0
-2285 1375 0
2285 -1936 -1375 0
-2286 1272 0
-2286 -779 0
2286 -1272 779 0
-2287 2016 0
-2287 1035 0
2287 -2016 -1035 0
-2288 576 1091 0
-2288 -576 -1091 0
2288 -576 1091 0
2288 576 -1091 0
-2289 -2120 0
-2289 1613 0
2289 2120 -1613 0
-2290 -1910 202 0
-2290 1910 -202 0
2290 1910 202 0
2290 -1910 -202 0
-2291 -42 0
-2291 -683 0
2291 42 683 0
-2292 -832 1500 0
-2292 832 -1500 0
2292 832 1500 0
2292 -832 -1500 0
-2293 565 0
-2293 1790 0
2293 -565 -1790 0
-2294 2240 0
-2294 -1709 0
2294 -2240 1709 0
-2295 -1587 0
-2295 353 0
2295 1587 -353 0
-2296 -912 -1043 0
-2296 912 1043 0
2296 912 -1043 0
2296 -912 1043 0
-2297 1705 -847 0
-2297 -1705 847 0
2297 -1705 -847 0
2297 1705 847 0
-2298 -2137 0
-2298 -661 0
2298 2137 661 0
-2299 -1339 0
-2299 -947 0
2299 1339 947 0
-2300 1755 0
-2300 1255 0
2300 -1755 -1255 0
-2301 402 0
-2301 1672 0
2301 -402 -1672 0
-2302 1808 0
-2302 -1758 0
2302 -1808 1758 0
-2303 194 0
-2303 -1340 0
2303 -194 1340 0
-2304 -1457 0
-2304 2073 0
2304 1457 -2073 0
-2305 -906 418 0
-2305 906 -418 0
2305 906 418 0
2305 -906 -418 0
-2306 -1603 0
-2306 -1164 0
2306 1603 1164 0
-2307 2091 0
-2307 -101 0
2307 -2091 101 0
-2308 -1571 0
-2308 -1196 0
2308 1571 1196 0
-2309 -1439 0
-2309 2163 0
2309 1439 -2163 0
-2310 1095 0
-2310 -2261 0
2310 -1095 2261 0
-2311 -588 -1330 0
-2311 588 1330 0
2311 588 -1330 0
2311 -588 1330 0
-2312 -1715 0
-2312 -197 0
2312 1715 197 0
-2313 -630 0
-2313 1421 0
2313 630 -1421 0
-2314 1196 0
-2314 1540 0
2314 -1196 -1540 0
-2315 1283 0
-2315 1374 0
2315 -1283 -1374 0
-2316 69 0
-2316 913 0
2316 -69 -913 0
-2317 -1474 0
-2317 -18 0
2317 1474 18 0
-2318 554 0
-2318 1999 0
2318 -554 -1999 0
-2319 -1709 0
-2319 -1501 0
2319 1709 1501 0
-2320 -211 0
-2320 635 0
2320 211 -635 0
-2321 1010 0
-2321 -288 0
2321 -1010 288 0
-2322 2199 -514 0
-2322 -2199 514 0
2322 -2199 -514 0
2322 2199 514 0
-2323 -885 442 0
-2323 885 -442 0
2323 885 442 0
2323 -885 -442 0
-2324 856 0
-2324 1619 0
2324 -856 -1619 0
-2325 1972 -1474 0
-2325 -1972 1474 0
2325 -1972 -1474 0
2325 1972 1474 0
-2326 436 0
-2326 1288 0
2326 -436 -1288 0
-2327 969 0
-2327 -936 0
2327 -969 936 0
-2328 85 0
-2328 -1571 0
2328 -85 1571 0
-2329 -1791 327 0
-2329 1791 -327 0
2329 1791 327 0
2329 -1791 -327 0
-2330 84 0
-2330 1701 0
2330 -84 -1701 0
-2331 -486 2292 0
-2331 486 -2292 0
2331 486 2292 0
2331 -486 -2292 0
-2332 1390 0
-2332 2271 0
2332 -1390 -2271 0
-2333 849 0
-2333 1517 0
2333 -849 -1517 0
-2334 -648 0
-2334 2298 0
2334 648 -2298 0
-2335 -2160 0
-2335 1357 0
2335 2160 -1357 0
-2336 -578 728 0
-2336 578 -728 0
2336 578 728 0
2336 -578 -728 0
-2337 -1553 0
-2337 -1177 0
2337 1553 1177 0
-2338 -1244 0
-2338 110 0
2338 1244 -110 0
-2339 -2038 442 0
-2339 2038 -442 0
2339 2038 442 0
2339 -2038 -442 0
-2340 1576 580 0
-2340 -1576 -580 0
2340 -1576 580 0
2340 1576 -580 0
-2341 -2167 0
-2341 -624 0
2341 2167 624 0
-2342 -715 0
-2342 2322 0
2342 715 -2322 0
-2343 1178 0
-2343 2038 0
2343 -1178 -2038 0
-2344 -1211 1412 0
-2344 1211 -1412 0
2344 1211 1412 0
2344 -1211 -1412 0
-2345 505 0
-2345 1310 0
2345 -505 -1310 0
-2346 -1100 -312 0
-2346 1100 312 0
2346 1100 -312 0
2346 -1100 312 0
-2347 2207 0
-2347 -222 0
2347 -2207 222 0
-2348 752 0
-2348 -622 0
2348 -752 622 0
-2349 -2273 -1713 0
-2349 2273 1713 0
2349 2273 -1713 0
2349 -2273 1713 0
-2350 -2 0
-2350 -1488 0
2350 2 1488 0
-2351 -200 -261 0
-2351 200 261 0
2351 200 -261 0
2351 -200 261 0
-2352 -1548 -1905 0
-2352 1548 1905 0
2352 1548 -1905 0
2352 -1548 1905 0
-2353 -614 0
-2353 84 0
2353 614 -84 0
-2354 1008 0
-2354 -2351 0
2354 -1008 2351 0
-2355 -827 0
-2355 -1405 0
2355 827 1405 0
-2356 464 0
-2356 2207 0
2356 -464 -2207 0
-2357 -1202 0
-2357 -574 0
2357 1202 574 0
-2358 2155 1491 0
-2358 -2155 -1491 0
2358 -2155 1491 0
2358 2155 -1491 0
-2359 -1181 0
-2359 866 0
2359 1181 -866 0
-2360 1486 0
-2360 1401 0
2360 -1486 -1401 0
-2361 -1745 0
-2361 459 0
2361 1745 -459 0
-2362 503 0
-2362 2137 0
2362 -503 -2137 0
-2363 790 0
-2363 -191 0
2363 -790 191 0
-2364 28 0
-2364 -550 0
2364 -28 550 0
-2365 -1886 0
-2365 -39 0
2365 1886 39 0
-2366 -345 0
-2366 -88 0
2366 345 88 0
-2367 1260 0
-2367 -305 0
2367 -1260 305 0
-2368 -938 0
-2368 -1332 0
2368 938 1332 0
-2369 -1085 0
-2369 794 0
2369 1085 -794 0
-2370 -900 0
-2370 568 0
2370 900 -568 0
-2371 -1894 0
-2371 -941 0
2371 1894 941 0
-2372 113 0
-2372 -1385 0
2372 -113 1385 0
-2373 -2204 0
-2373 174 0
2373 2204 -174 0
-2374 1372 0
-2374 -1820 0
2374 -1372 1820 0
-2375 -52 0
-2375 -1413 0
2375 52 1413 0
-2376 -1224 0
-2376 1262 0
2376 1224 -1262 0
-2377 -809 -2078 0
-2377 809 2078 0
2377 809 -2078 0
2377 -809 2078 0
-2378 1692 0
-2378 1260 0
2378 -1692 -1260 0
-2379 967 0
-2379 645 0
2379 -967 -645 0
-2380 94 -2150 0
-2380 -94 2150 0
2380 -94 -2150 0
2380 94 2150 0
-2381 471 0
-2381 93 0
2381 -471 -93 0
-2382 -2237 0
-2382 1353 0
2382 2237 -1353 0
-2383 180 -1642 0
-2383 -180 1642 0
2383 -180 -1642 0
2383 180 1642 0
-2384 2173 0
-2384 1717 0
2384 -2173 -1717 0
-2385 729 -1040 0
-2385 -729 1040 0
2385 -729 -1040 0
2385 729 1040 0
-2386 1768 0
-2386 112 0
2386 -1768 -112 0
-2387 -528 0
-2387 -2076 0
2387 528 2076 0
-2388 -381 0
-2388 746 0
2388 381 -746 0
-2389 2128 0
-2389 1839 0
2389 -2128 -1839 0
-2390 65 0
-2390 -1976 0
2390 -65 1976 0
-2391 989 -438 0
-2391 -989 438 0
2391 -989 -438 0
2391 989 438 0
-2392 -946 1531 0
-2392 946 -1531 0
2392 946 1531 0
2392 -946 -1531 0
-2393 112 0
-2393 1768 0
2393 -112 -1768 0
-2394 -285 -1346 0
-2394 285 1346 0
2394 285 -1346 0
2394 -285 1346 0
-2395 1960 0
-2395 -68 0
2395 -1960 68 0
-2396 98 0
-2396 -605 0
2396 -98 605 0
-2397 -978 0
-2397 750 0
2397 978 -750 0
-2398 1439 1159 0
-2398 -1439 -1159 0
2398 -1439 1159 0
2398 1439 -1159 0
-2399 -1319 0
-2399 401 0
2399 1319 -401 0
-2400 1734 966 0
-2400 -1734 -966 0
2400 -1734 966 0
2400 1734 -966 0
-2401 2102 0
-2401 287 0
2401 -2102 -287 0
-2402 -896 0
-2402 -1428 0
2402 896 1428 0
-2403 -2251 0
-2403 -1898 0
2403 2251 1898 0
-2404 -2245 -815 0
-2404 2245 815 0
2404 2245 -815 0
2404 -2245 815 0
-2405 511 1981 0
-2405 -511 -1981 0
2405 -511 1981 0
2405 511 -1981 0
-2406 -1182 0
-2406 -587 0
2406 1182 587 0
-2407 1608 0
-2407 -1787 0
2407 -1608 1787 0
-2408 2226 0
-2408 1765 0
2408 -2226 -1765 0
-2409 1054 0
-2409 1877 0
2409 -1054 -1877 0
-2410 2274 -818 0
-2410 -2274 818 0
2410 -2274 -818 0
2410 2274 818 0
-2411 -758 0
-2411 -1752 0
2411 758 1752 0
-2412 1866 0
-2412 1888 0
2412 -1866 -1888 0
-2413 599 -2275 0
-2413 -599 2275 0
2413 -599 -2275 0
2413 599 2275 0
-2414 597 1323 0
-2414 -597 -1323 0
2414 -597 1323 0
2414 597 -1323 0
-2415 -128 2398 0
-2415 128 -2398 0
2415 128 2398 0
2415 -128 -2398 0
-2416 1560 0
-2416 1111 0
2416 -1560 -1111 0
-2417 -1209 0
-2417 -1428 0
2417 1209 1428 0
-2418 -1357 -1931 0
-2418 1357 1931 0
2418 1357 -1931 0
2418 -1357 1931 0
-2419 1291 0
-2419 -1316 0
2419 -1291 1316 0
-2420 1208 0
-2420 40 0
2420 -1208 -40 0
-2421 -1582 0
-2421 -976 0
2421 1582 976 0
-2422 1925 0
-2422 2407 0
2422 -1925 -2407 0
-2423 1047 0
-2423 -307 0
2423 -1047 307 0
-2424 -1941 -719 0
-2424 1941 719 0
2424 1941 -719 0
2424 -1941 719 0
-2425 -1746 233 0
-2425 1746 -233 0
2425 1746 233 0
2425 -1746 -233 0
-2426 -530 41 0
-2426 530 -41 0
2426 530 41 0
2426 -530 -41 0
-2427 714 0
-2427 -1286 0
2427 -714 1286 0
-2428 -1354 2006 0
-2428 1354 -2006 0
2428 1354 2006 0
2428 -1354 -2006 0
-2429 2114 0
-2429 -1618 0
2429 -2114 1618 0
-2430 2096 0
-2430 -1990 0
2430 -2096 1990 0
-2431 -1371 0
-2431 -1857 0
2431 1371 1857 0
-2432 170 -2290 0
-2432 -170 2290 0
2432 -170 -2290 0
2432 170 2290 0
-2433 -516 0
-2433 1978 0
2433 516 -1978 0
-2434 1969 0
-2434 -424 0
2434 -1969 424 0
-2435 2264 0
-2435 339 0
2435 -2264 -339 0
-2436 -1359 950 0
-2436 1359 -950 0
2436 1359 950 0
2436 -1359 -950 0
-2437 990 0
-2437 1726 0
2437 -990 -1726 0
-2438 770 474 0
-2438 -770 -474 0
2438 -770 474 0
2438 770 -474 0
-2439 292 0
-2439 2059 0
2439 -292 -2059 0
-2440 -2106 0
-2440 -1716 0
2440 2106 1716 0
-2441 -1975 0
-2441 -59 0
2441 1975 59 0
-2442 -1111 0
-2442 -655 0
2442 1111 655 0
-2443 -1815 0
-2443 19 0
2443 1815 -19 0
-2444 -2176 -1612 0
-2444 2176 1612 0
2444 2176 -1612 0
2444 -2176 1612 0
-2445 1561 0
-2445 70 0
2445 -1561 -70 0
-2446 -2017 0
-2446 -1821 0
2446 2017 1821 0
-2447 1513 0
-2447 1441 0
2447 -1513 -1441 0
-2448 -1810 298 0
-2448 1810 -298 0
2448 1810 298 0
2448 -1810 -298 0
-2449 -1469 0
-2449 -393 0
2449 1469 393 0
-2450 608 727 0
-2450 -608 -727 0
2450 -608 727 0
2450 608 -727 0
-2451 1571 0
-2451 300 0
2451 -1571 -300 0
-2452 -2402 0
-2452 2113 0
2452 2402 -2113 0
-2453 71 0
-2453 1759 0
2453 -71 -1759 0
-2454 -2137 206 0
-2454 2137 -206 0
2454 2137 206 0
2454 -2137 -206 0
-2455 -835 606 0
-2455 835 -606 0
2455 835 606 0
2455 -835 -606 0
-2456 1095 0
-2456 -502 0
2456 -1095 502 0
-2457 1350 0
-2457 -2450 0
2457 -1350 2450 0
-2458 1133 0
-2458 -1094 0
2458 -1133 1094 0
-2459 678 0
-2459 -823 0
2459 -678 823 0
-2460 -659 0
-2460 687 0
2460 659 -687 0
-2461 425 0
-2461 -1048 0
2461 -425 1048 0
-2462 -539 0
-2462 2116 0
2462 539 -2116 0
-2463 -2049 0
-2463 -2374 0
2463 2049 2374 0
-2464 -811 -788 0
-2464 811 788 0
2464 811 -788 0
2464 -811 788 0
-2465 -1934 0
-2465 -1872 0
2465 1934 1872 0
-2466 -2100 -8 0
-2466 2100 8 0
2466 2100 -8 0
2466 -2100 8 0
-2467 1253 0
-2467 891 0
2467 -1253 -891 0
-2468 1487 0
-2468 292 0
2468 -1487 -292 0
-2469 1933 0
-2469 -1133 0
2469 -1933 1133 0
-2470 -915 0
-2470 -533 0
2470 915 533 0
-2471 -1075 0
-2471 1468 0
2471 1075 -1468 0
-2472 456 0
-2472 574 0
2472 -456 -574 0
-2473 -119 0
-2473 -8 0
2473 119 8 0
-2474 1350 0
-2474 2112 0
2474 -1350 -2112 0
-2475 1261 0
-2475 1936 0
2475 -1261 -1936 0
-2476 -780 0
-2476 -2115 0
2476 780 2115 0
-2477 576 893 0
-2477 -576 -893 0
2477 -576 893 0
2477 576 -893 0
-2478 1131 0
-2478 -1614 0
2478 -1131 1614 0
-2479 1360 0
-2479 -869 0
2479 -1360 869 0
-2480 1291 0
-2480 -1116 0
2480 -1291 1116 0
-2481 262 0
-2481 1763 0
2481 -262 -1763 0
-2482 372 0
-2482 1564 0
2482 -372 -1564 0
-2483 -1315 0
-2483 -1064 0
2483 1315 1064 0
-2484 -1219 315 0
-2484 1219 -315 0
2484 1219 315 0
2484 -1219 -315 0
-2485 -2263 0
-2485 -1880 0
2485 2263 1880 0
-2486 -2316 -1016 0
-2486 2316 1016 0
2486 2316 -1016 0
2486 -2316 1016 0
-2487 -76 0
-2487 1835 0
2487 76 -1835 0
-2488 -1388 0
-2488 -199 0
2488 1388 199 0
-2489 -1948 -1009 0
-2489 1948 1009 0
2489 1948 -1009 0
2489 -1948 1009 0
-2490 -1922 0
-2490 102 0
2490 1922 -102 0
-2491 2224 -2081 0
-2491 -2224 2081 0
2491 -2224 -2081 0
2491 2224 2081 0
-2492 1749 1912 0
-2492 -1749 -1912 0
2492 -1749 1912 0
2492 1749 -1912 0
-2493 610 -1138 0
-2493 -610 1138 0
2493 -610 -1138 0
2493 610 1138 0
-2494 -2034 -2401 0
-2494 2034 2401 0
2494 2034 -2401 0
2494 -2034 2401 0
-2495 -172 -1690 0
-2495 172 1690 0
2495 172 -1690 0
2495 -172 1690 0
-2496 -1441 0
-2496 -355 0
2496 1441 355 0
-2497 -1838 0
-2497 -1538 0
2497 1838 1538 0
-2498 2036 0
-2498 -922 0
2498 -2036 922 0
-2499 2072 0
-2499 1189 0
2499 -2072 -1189 0
-2500 384 0
-2500 -559 0
2500 -384 559 0
-2501 -1434 538 0
-2501 1434 -538 0
2501 1434 538 0
2501 -1434 -538 0
-2502 2410 0
-2502 2473 0
2502 -2410 -2473 0
-2503 -472 0
-2503 -2090 0
2503 472 2090 0
-2504 2406 0
-2504 -1046 0
2504 -2406 1046 0
-2505 1843 2429 0
-2505 -1843 -2429 0
2505 -1843 2429 0
2505 1843 -2429 0
-2506 2491 0
-2506 1251 0
2506 -2491 -1251 0
-2507 -1874 0
-2507 -596 0
2507 1874 596 0
-2508 1409 0
-2508 14 0
2508 -1409 -14 0
-2509 4 0
-2509 -2309 0
2509 -4 2309 0
-2510 1787 0
-2510 -2396 0
2510 -1787 2396 0
-2511 -1726 0
-2511 -2496 0
2511 1726 2496 0
-2512 -290 0
-2512 629 0
2512 290 -629 0
-2513 430 0
-2513 1344 0
2513 -430 -1344 0
-2514 -898 0
-2514 -1172 0
2514 898 1172 0
-2515 387 0
-2515 2053 0
2515 -387 -2053 0
-2516 82 0
-2516 -1654 0
2516 -82 1654 0
-2517 39 0
-2517 742 0
2517 -39 -742 0
-2518 1858 0
-2518 -728 0
2518 -1858 728 0
-2519 -965 -1420 0
-2519 965 1420 0
2519 965 -1420 0
2519 -965 1420 0
-2520 -535 0
-2520 -1525 0
2520 535 1525 0
-2521 -2302 -2220 0
-2521 2302 2220 0
2521 2302 -2220 0
2521 -2302 2220 0
-2522 -1159 0
-2522 116 0
2522 1159 -116 0
-2523 776 1629 0
-2523 -776 -1629 0
2523 -776 1629 0
2523 776 -1629 0
-2524 -966 0
-2524 2339 0
2524 966 -2339 0
-2525 734 0
-2525 393 0
2525 -734 -393 0
-2526 -1055 1095 0
-2526 1055 -1095 0
2526 1055 1095 0
2526 -1055 -1095 0
-2527 486 0
-2527 507 0
2527 -486 -507 0
-2528 363 0
-2528 709 0
2528 -363 -709 0
-2529 75 0
-2529 -1598 0
2529 -75 1598 0
-2530 -2506 1344 0
-2530 2506 -1344 0
2530 2506 1344 0
2530 -2506 -1344 0
-2531 2016 0
-2531 1788 0
2531 -2016 -1788 0
-2532 -609 431 0
-2532 609 -431 0
2532 609 431 0
2532 -609 -431 0
-2533 -1477 -1699 0
-2533 1477 1699 0
2533 1477 -1699 0
2533 -1477 1699 0
-2534 -1701 0
-2534 1233 0
2534 1701 -1233 0
-2535 2068 2047 0
-2535 -2068 -2047 0
2535 -2068 2047 0
2535 2068 -2047 0
-2536 -81 0
-2536 -450 0
2536 81 450 0
-2537 1768 0
-2537 676 0
2537 -1768 -676 0
-2538 -2476 0
-2538 -2149 0
2538 2476 2149 0
-2539 1005 0
-2539 -1585 0
2539 -1005 1585 0
-2540 248 1461 0
-2540 -248 -1461 0
2540 -248 1461 0
2540 248 -1461 0
-2541 1026 0
-2541 584 0
2541 -1026 -584 0
-2542 2208 0
-2542 -1157 0
2542 -2208 1157 0
-2543 -254 2277 0
-2543 254 -2277 0
2543 254 2277 0
2543 -254 -2277 0
-2544 -2039 0
-2544 -826 0
2544 2039 826 0
-2545 -1235 0
-2545 2327 0
2545 1235 -2327 0
-2546 -383 0
-2546 2495 0
2546 383 -2495 0
-2547 -941 0
-2547 1451 0
2547 941 -1451 0
-2548 1661 0
-2548 -1219 0
2548 -1661 1219 0
-2549 -255 0
-2549 1346 0
2549 255 -1346 0
-2550 -272 0
-2550 1212 0
2550 272 -1212 0
-2551 -14 0
-2551 2101 0
2551 14 -2101 0
-2552 226 -2049 0
-2552 -226 2049 0
2552 -226 -2049 0
2552 226 2049 0
-2553 -60 0
-2553 -1049 0
2553 60 1049 0
-2554 2140 0
-2554 1210 0
2554 -2140 -1210 0
-2555 1044 0
-2555 -638 0
2555 -1044 638 0
-2556 1407 0
-2556 -1634 0
2556 -1407 1634 0
-2557 2229 0
-2557 -259 0
2557 -2229 259 0
-2558 2220 0
-2558 1039 0
2558 -2220 -1039 0
-2559 46 -577 0
-2559 -46 577 0
2559 -46 -577 0
2559 46 577 0
-2560 -2280 0
-2560 654 0
2560 2280 -654 0
-2561 -1263 0
-2561 -2311 0
2561 1263 2311 0
-2562 -582 0
-2562 1174 0
2562 582 -1174 0
-2563 -1875 0
-2563 1624 0
2563 1875 -1624 0
-2564 1186 0
-2564 -920 0
2564 -1186 920 0
-2565 2229 1199 0
-2565 -2229 -1199 0
2565 -2229 1199 0
2565 2229 -1199 0
-2566 667 0
-2566 -879 0
2566 -667 879 0
-2567 -387 0
-2567 -2487 0
2567 387 2487 0
-2568 -2536 0
-2568 58 0
2568 2536 -58 0
-2569 2075 820 0
-2569 -2075 -820 0
2569 -2075 820 0
2569 2075 -820 0
-2570 1245 0
-2570 -660 0
2570 -1245 660 0
-2571 1299 0
-2571 1519 0
2571 -1299 -1519 0
-2572 38 0
-2572 -762 0
2572 -38 762 0
-2573 2442 -16 0
-2573 -2442 16 0
2573 -2442 -16 0
2573 2442 16 0
-2574 -561 0
-2574 1633 0
2574 561 -1633 0
-2575 -409 2230 0
-2575 409 -2230 0
2575 409 2230 0
2575 -409 -2230 0
-2576 1849 0
-2576 -204 0
2576 -1849 204 0
-2577 1849 0
-2577 2433 0
2577 -1849 -2433 0
-2578 1605 0
-2578 1575 0
2578 -1605 -1575 0
-2579 2514 909 0
-2579 -2514 -909 0
2579 -2514 909 0
2579 2514 -909 0
-2580 2027 0
-2580 137 0
2580 -2027 -137 0
-2581 1491 0
-2581 -2218 0
2581 -1491 2218 0
-2582 -1282 0
-2582 1696 0
2582 1282 -1696 0
-2583 1109 0
-2583 361 0
2583 -1109 -361 0
-2584 882 0
-2584 1261 0
2584 -882 -1261 0
-2585 235 0
-2585 2268 0
2585 -235 -2268 0
-2586 250 0
-2586 -1682 0
2586 -250 1682 0
-2587 123 2478 0
-2587 -123 -2478 0
2587 -123 2478 0
2587 123 -2478 0
-2588 2163 0
-2588 -878 0
2588 -2163 878 0
-2589 2279 0
-2589 710 0
2589 -2279 -710 0
-2590 1086 -2127 0
-2590 -1086 2127 0
2590 -1086 -2127 0
2590 1086 2127 0
-2591 1543 0
-2591 466 0
2591 -1543 -466 0
-2592 698 0
-2592 506 0
2592 -698 -506 0
-2593 -1900 0
-2593 -1998 0
2593 1900 1998 0
-2594 1890 0
-2594 1756 0
2594 -1890 -1756 0
-2595 507 0
-2595 -1724 0
2595 -507 1724 0
-2596 -1609 0
-2596 421 0
2596 1609 -421 0
-2597 2465 0
-2597 1731 0
2597 -2465 -1731 0
-2598 268 0
-2598 -2387 0
2598 -268 2387 0
-2599 652 1772 0
-2599 -652 -1772 0
2599 -652 1772 0
2599 652 -1772 0
-2600 -230 0
-2600 1132 0
2600 230 -1132 0
-2601 2281 1807 0
-2601 -2281 -1807 0
2601 -2281 1807 0
2601 2281 -1807 0
-2602 -1767 0
-2602 -671 0
2602 1767 671 0
-2603 -1388 0
-2603 -739 0
2603 1388 739 0
-2604 -1265 0
-2604 1031 0
2604 1265 -1031 0
-2605 -1786 -2470 0
-2605 1786 2470 0
2605 1786 -2470 0
2605 -1786 2470 0
-2606 -863 0
-2606 713 0
2606 863 -713 0
-2607 -1118 0
-2607 -396 0
2607 1118 396 0
-2608 2372 0
-2608 487 0
2608 -2372 -487 0
-2609 2302 0
-2609 2198 0
2609 -2302 -2198 0
-2610 1940 0
-2610 -2277 0
2610 -1940 2277 0
-2611 2287 0
-2611 -1913 0
2611 -2287 1913 0
-2612 664 958 0
-2612 -664 -958 0
2612 -664 958 0
2612 664 -958 0
-2613 -1690 0
-2613 -1648 0
2613 1690 1648 0
-2614 1509 0
-2614 -1131 0
2614 -1509 1131 0
-2615 -232 0
-2615 -1078 0
2615 232 1078 0
-2616 1057 0
-2616 171 0
2616 -1057 -171 0
-2617 139 0
-2617 642 0
2617 -139 -642 0
-2618 2394 0
-2618 447 0
2618 -2394 -447 0
-2619 -1099 0
-2619 1781 0
2619 1099 -1781 0
-2620 1582 -168 0
-2620 -1582 168 0
2620 -1582 -168 0
2620 1582 168 0
-2621 230 0
-2621 -2187 0
2621 -230 2187 0
-2622 481 -1096 0
-2622 -481 1096 0
2622 -481 -1096 0
2622 481 1096 0
-2623 -2298 0
-2623 1991 0
2623 2298 -1991 0
-2624 438 0
-2624 588 0
2624 -438 -588 0
-2625 702 0
-2625 -1079 0
2625 -702 1079 0
-2626 894 -1752 0
-2626 -894 1752 0
2626 -894 -1752 0
2626 894 1752 0
-2627 1706 0
-2627 -472 0
2627 -1706 472 0
-2628 -163 0
-2628 -298 0
2628 163 298 0
-2629 -13 0
-2629 2368 0
2629 13 -2368 0
-2630 1886 0
-2630 -1616 0
2630 -1886 1616 0
-2631 1133 0
-2631 300 0
2631 -1133 -300 0
-2632 -78 0
-2632 2489 0
2632 78 -2489 0
-2633 416 0
-2633 2113 0
2633 -416 -2113 0
-2634 618 0
-2634 -1919 0
2634 -618 1919 0
-2635 -1283 0
-2635 -2420 0
2635 1283 2420 0
-2636 -1865 0
-2636 -817 0
2636 1865 817 0
-2637 1013 1727 0
-2637 -1013 -1727 0
2637 -1013 1727 0
2637 1013 -1727 0
-2638 2022 0
-2638 1834 0
2638 -2022 -1834 0
-2639 -2418 0
-2639 -699 0
2639 2418 699 0
-2640 2333 0
-2640 -89 0
2640 -2333 89 0
-2641 259 0
-2641 -530 0
2641 -259 530 0
-2642 50 0
-2642 2108 0
2642 -50 -2108 0
-2643 2087 1774 0
-2643 -2087 -1774 0
2643 -2087 1774 0
2643 2087 -1774 0
-2644 926 1143 0
-2644 -926 -1143 0
2644 -926 1143 0
2644 926 -1143 0
-2645 691 0
-2645 -1556 0
2645 -691 1556 0
-2646 -2194 0
-2646 -1379 0
2646 2194 1379 0
-2647 517 249 0
-2647 -517 -249 0
2647 -517 249 0
2647 517 -249 0
-2648 896 614 0
-2648 -896 -614 0
2648 -896 614 0
2648 896 -614 0
-2649 -1908 0
-2649 1085 0
2649 1908 -1085 0
-2650 2095 0
-2650 771 0
2650 -2095 -771 0
-2651 2035 0
-2651 2197 0
2651 -2035 -2197 0
-2652 -88 0
-2652 -1840 0
2652 88 1840 0
-2653 395 0
-2653 -46 0
2653 -395 46 0
-2654 1173 -1072 0
-2654 -1173 1072 0
2654 -1173 -1072 0
2654 1173 1072 0
-2655 721 0
-2655 -1032 0
2655 -721 1032 0
-2656 -2026 0
-2656 2047 0
2656 2026 -2047 0
-2657 189 0
-2657 -2406 0
2657 -189 2406 0
-2658 -1138 0
-2658 2463 0
2658 1138 -2463 0
-2659 630 0
-2659 -184 0
2659 -630 184 0
-2660 2126 -1631 0
-2660 -2126 1631 0
2660 -2126 -1631 0
2660 2126 1631 0
-2661 309 0
-2661 1538 0
2661 -309 -1538 0
-2662 -1209 0
-2662 1036 0
2662 1209 -1036 0
-2663 -731 0
-2663 -2387 0
2663 731 2387 0
-2664 -804 0
-2664 -1600 0
2664 804 1600 0
-2665 2449 2025 0
-2665 -2449 -2025 0
2665 -2449 2025 0
2665 2449 -2025 0
-2666 44 0
-2666 2185 0
2666 -44 -2185 0
-2667 1237 -806 0
-2667 -1237 806 0
2667 -1237 -806 0
2667 1237 806 0
-2668 -2541 0
-2668 1149 0
2668 2541 -1149 0
-2669 -1651 0
-2669 1493 0
2669 1651 -1493 0
-2670 1546 0
-2670 2415 0
2670 -1546 -2415 0
-2671 2101 0
-2671 2076 0
2671 -2101 -2076 0
-2672 -1728 0
-2672 -1032 0
2672 1728 1032 0
-2673 -541 0
-2673 -1301 0
2673 541 1301 0
-2674 1001 0
-2674 -2158 0
2674 -1001 2158 0
-2675 -2134 0
-2675 -425 0
2675 2134 425 0
-2676 507 1724 0
-2676 -507 -1724 0
2676 -507 1724 0
2676 507 -1724 0
-2677 1524 0
-2677 442 0
2677 -1524 -442 0
-2678 -1081 0
-2678 1376 0
2678 1081 -1376 0
-2679 2279 -1832 0
-2679 -2279 1832 0
2679 -2279 -1832 0
2679 2279 1832 0
-2680 731 0
-2680 2643 0
2680 -731 -2643 0
-2681 -913 -640 0
-2681 913 640 0
2681 913 -640 0
2681 -913 640 0
-2682 -1343 0
-2682 -296 0
2682 1343 296 0
-2683 2048 194 0
-2683 -2048 -194 0
2683 -2048 194 0
2683 2048 -194 0
-2684 1744 0
-2684 1870 0
2684 -1744 -1870 0
-2685 153 0
-2685 1029 0
2685 -153 -1029 0
-2686 -2487 1950 0
-2686 2487 -1950 0
2686 2487 1950 0
2686 -2487 -1950 0
-2687 2073 0
-2687 -1474 0
2687 -2073 1474 0
-2688 -1176 278 0
-2688 1176 -278 0
2688 1176 278 0
2688 -1176 -278 0
-2689 2075 0
-2689 -1087 0
2689 -2075 1087 0
-2690 -721 0
-2690 2146 0
2690 721 -2146 0
-2691 895 0
-2691 -1824 0
2691 -895 1824 0
-2692 539 232 0
-2692 -539 -232 0
2692 -539 232 0
2692 539 -232 0
-2693 -682 0
-2693 2555 0
2693 682 -2555 0
-2694 2381 1342 0
-2694 -2381 -1342 0
2694 -2381 1342 0
2694 2381 -1342 0
-2695 2494 0
-2695 -1394 0
2695 -2494 1394 0
-2696 1564 1048 0
-2696 -1564 -1048 0
2696 -1564 1048 0
2696 1564 -1048 0
-2697 1039 0
-2697 -2095 0
2697 -1039 2095 0
-2698 -784 0
-2698 1043 0
2698 784 -1043 0
-2699 -218 -2276 0
-2699 218 2276 0
2699 218 -2276 0
2699 -218 2276 0
-2700 977 1462 0
-2700 -977 -1462 0
2700 -977 1462 0
2700 977 -1462 0
-2701 -220 0
-2701 2158 0
2701 220 -2158 0
-2702 1489 119 0
-2702 -1489 -119 0
2702 -1489 119 0
2702 1489 -119 0
-2703 -2102 0
-2703 -48 0
2703 2102 48 0
-2704 -2321 0
-2704 -2308 0
2704 2321 2308 0
-2705 2697 0
-2705 1743 0
2705 -2697 -1743 0
-2706 -1642 0
-2706 -560 0
2706 1642 560 0
-2707 1692 0
-2707 -2657 0
2707 -1692 2657 0
-2708 -1973 0
-2708 -1213 0
2708 1973 1213 0
-2709 -1267 0
-2709 107 0
2709 1267 -107 0
-2710 -2501 0
-2710 -1061 0
2710 2501 1061 0
-2711 -1662 0
-2711 1061 0
2711 1662 -1061 0
-2712 -1774 0
-2712 1767 0
2712 1774 -1767 0
-2713 1272 0
-2713 426 0
2713 -1272 -426 0
-2714 -2121 1565 0
-2714 2121 -1565 0
2714 2121 1565 0
2714 -2121 -1565 0
-2715 -1037 0
-2715 -2216 0
2715 1037 2216 0
-2716 -1155 0
-2716 -736 0
2716 1155 736 0
-2717 -691 0
-2717 -2332 0
2717 691 2332 0
-2718 1936 0
-2718 1637 0
2718 -1936 -1637 0
-2719 -1135 2094 0
-2719 1135 -2094 0
2719 1135 2094 0
2719 -1135 -2094 0
-2720 -1350 1742 0
-2720 1350 -1742 0
2720 1350 1742 0
2720 -1350 -1742 0
-2721 -1844 2118 0
-2721 1844 -2118 0
2721 1844 2118 0
2721 -1844 -2118 0
-2722 -1470 0
-2722 -614 0
2722 1470 614 0
-2723 -1004 0
-2723 -314 0
2723 1004 314 0
-2724 2051 1442 0
-2724 -2051 -1442 0
2724 -2051 1442 0
2724 2051 -1442 0
-2725 2102 0
-2725 -1107 0
2725 -2102 1107 0
-2726 1764 -546 0
-2726 -1764 546 0
2726 -1764 -546 0
2726 1764 546 0
-2727 747 0
-2727 2637 0
2727 -747 -2637 0
-2728 -1823 -374 0
-2728 1823 374 0
2728 1823 -374 0
2728 -1823 374 0
-2729 -198 0
-2729 834 0
2729 198 -834 0
-2730 -632 2031 0
-2730 632 -2031 0
2730 632 2031 0
2730 -632 -2031 0
-2731 -384 0
-2731 -1787 0
2731 384 1787 0
-2732 -1106 0
-2732 -1386 0
2732 1106 1386 0
-2733 -941 0
-2733 -2479 0
2733 941 2479 0
-2734 1552 0
-2734 865 0
2734 -1552 -865 0
-2735 -2351 0
-2735 -2025 0
2735 2351 2025 0
-2736 995 -2197 0
-2736 -995 2197 0
2736 -995 -2197 0
2736 995 2197 0
-2737 1613 0
-2737 198 0
2737 -1613 -198 0
-2738 -2448 0
-2738 2593 0
2738 2448 -2593 0
-2739 1318 0
-2739 -343 0
2739 -1318 343 0
-2740 2641 0
-2740 -1740 0
2740 -2641 1740 0
-2741 -587 0
-2741 -662 0
2741 587 662 0
-2742 1942 0
-2742 -507 0
2742 -1942 507 0
-2743 -2453 0
-2743 -1939 0
2743 2453 1939 0
-2744 1018 0
-2744 -813 0
2744 -1018 813 0
-2745 -1373 -1435 0
-2745 1373 1435 0
2745 1373 -1435 0
2745 -1373 1435 0
-2746 1530 423 0
-2746 -1530 -423 0
2746 -1530 423 0
2746 1530 -423 0
-2747 2693 0
-2747 -866 0
2747 -2693 866 0
-2748 -2308 0
-2748 1502 0
2748 2308 -1502 0
-2749 -1724 0
-2749 2108 0
2749 1724 -2108 0
-2750 -1516 0
-2750 -1792 0
2750 1516 1792 0
-2751 -1768 0
-2751 101 0
2751 1768 -101 0
-2752 2012 383 0
-2752 -2012 -383 0
2752 -2012 383 0
2752 2012 -383 0
-2753 -2122 2315 0
-2753 2122 -2315 0
2753 2122 2315 0
2753 -2122 -2315 0
-2754 -1200 0
-2754 1267 0
2754 1200 -1267 0
-2755 2194 743 0
-2755 -2194 -743 0
2755 -2194 743 0
2755 2194 -743 0
-2756 1783 0
-2756 1053 0
2756 -1783 -1053 0
-2757 2350 0
-2757 -1368 0
2757 -2350 1368 0
-2758 -292 0
-2758 1164 0
2758 292 -1164 0
-2759 241 0
-2759 -980 0
2759 -241 980 0
-2760 2218 0
-2760 -1196 0
2760 -2218 1196 0
-2761 399 0
-2761 -2549 0
2761 -399 2549 0
-2762 1644 0
-2762 2685 0
2762 -1644 -2685 0
-2763 2322 653 0
-2763 -2322 -653 0
2763 -2322 653 0
2763 2322 -653 0
-2764 -2275 0
-2764 1917 0
2764 2275 -1917 0
-2765 -1196 0
-2765 1834 0
2765 1196 -1834 0
-2766 1566 -2538 0
-2766 -1566 2538 0
2766 -1566 -2538 0
2766 1566 2538 0
-2767 -1182 0
-2767 -2111 0
2767 1182 2111 0
-2768 -2512 0
-2768 -451 0
2768 2512 451 0
-2769 1319 0
-2769 -2424 0
2769 -1319 2424 0
-2770 1358 0
-2770 1829 0
2770 -1358 -1829 0
-2771 -2555 0
-2771 2139 0
2771 2555 -2139 0
-2772 -950 0
-2772 -20 0
2772 950 20 0
-2773 -2727 1687 0
-2773 2727 -1687 0
2773 2727 1687 0
2773 -2727 -1687 0
-2774 -1017 0
-2774 -1456 0
2774 1017 1456 0
-2775 1535 1714 0
-2775 -1535 -1714 0
2775 -1535 1714 0
2775 1535 -1714 0
-2776 -928 1667 0
-2776 928 -1667 0
2776 928 1667 0
2776 -928 -1667 0
-2777 328 0
-2777 1743 0
2777 -328 -1743 0
-2778 1270 -2426 0
-2778 -1270 2426 0
2778 -1270 -2426 0
2778 1270 2426 0
-2779 -1744 0
-2779 -330 0
2779 1744 330 0
-2780 -758 -2131 0
-2780 758 2131 0
2780 758 -2131 0
2780 -758 2131 0
-2781 903 0
-2781 -523 0
2781 -903 523 0
-2782 1232 0
-2782 284 0
2782 -1232 -284 0
-2783 2664 0
-2783 2134 0
2783 -2664 -2134 0
-2784 279 0
-2784 1380 0
2784 -279 -1380 0
-2785 -2193 0
-2785 1098 0
2785 2193 -1098 0
-2786 1853 -2094 0
-2786 -1853 2094 0
2786 -1853 -2094 0
2786 1853 2094 0
-2787 1366 202 0
-2787 -1366 -202 0
2787 -1366 202 0
2787 1366 -202 0
-2788 -463 0
-2788 -1416 0
2788 463 1416 0
-2789 -2768 0
-2789 -1495 0
2789 2768 1495 0
-2790 -307 0
-2790 670 0
2790 307 -670 0
-2791 15 -2058 0
-2791 -15 2058 0
2791 -15 -2058 0
2791 15 2058 0
-2792 1262 0
-2792 949 0
2792 -1262 -949 0
-2793 1059 0
-2793 -2720 0
2793 -1059 2720 0
-2794 -1661 -453 0
-2794 1661 453 0
2794 1661 -453 0
2794 -1661 453 0
-2795 540 1829 0
-2795 -540 -1829 0
2795 -540 1829 0
2795 540 -1829 0
-2796 -846 0
-2796 2369 0
2796 846 -2369 0
-2797 -284 0
-2797 2616 0
2797 284 -2616 0
-2798 2664 0
-2798 -787 0
2798 -2664 787 0
-2799 -479 -23 0
-2799 479 23 0
2799 479 -23 0
2799 -479 23 0
-2800 -561 0
-2800 262 0
2800 561 -262 0
-2801 -1173 0
-2801 -1668 0
2801 1173 1668 0
-2802 -1997 -1127 0
-2802 1997 1127 0
2802 1997 -1127 0
2802 -1997 1127 0
-2803 -32 0
-2803 -1956 0
2803 32 1956 0
-2804 -2601 0
-2804 -2212 0
2804 2601 2212 0
-2805 1949 0
-2805 1951 0
2805 -1949 -1951 0
-2806 -1492 0
-2806 502 0
2806 1492 -502 0
-2807 1247 0
-2807 2251 0
2807 -1247 -2251 0
-2808 2091 0
-2808 -2696 0
2808 -2091 2696 0
-2809 1654 0
-2809 2763 0
2809 -1654 -2763 0
-2810 -106 0
-2810 2784 0
2810 106 -2784 0
-2811 2516 0
-2811 -2388 0
2811 -2516 2388 0
-2812 2302 0
-2812 -2470 0
2812 -2302 2470 0
-2813 1121 0
-2813 -2703 0
2813 -1121 2703 0
-2814 -1269 -1946 0
-2814 1269 1946 0
2814 1269 -1946 0
2814 -1269 1946 0
-2815 -832 0
-2815 -1368 0
2815 832 1368 0
-2816 594 0
-2816 2424 0
2816 -594 -2424 0
-2817 2134 0
-2817 249 0
2817 -2134 -249 0
-2818 -1753 0
-2818 -1463 0
2818 1753 1463 0
-2819 360 0
-2819 1564 0
2819 -360 -1564 0
-2820 -774 0
-2820 -1434 0
2820 774 1434 0
-2821 -2241 0
-2821 -1000 0
2821 2241 1000 0
-2822 2082 -1561 0
-2822 -2082 1561 0
2822 -2082 -1561 0
2822 2082 1561 0
-2823 -2726 0
-2823 -1875 0
2823 2726 1875 0
-2824 -826 0
-2824 1755 0
2824 826 -1755 0
-2825 186 0
-2825 -2428 0
2825 -186 2428 0
-2826 684 0
-2826 -301 0
2826 -684 301 0
-2827 2090 -2156 0
-2827 -2090 2156 0
2827 -2090 -2156 0
2827 2090 2156 0
-2828 1661 0
-2828 1952 0
2828 -1661 -1952 0
-2829 -1153 0
-2829 1510 0
2829 1153 -1510 0
-2830 2371 0
-2830 -50 0
2830 -2371 50 0
-2831 -2329 34 0
-2831 2329 -34 0
2831 2329 34 0
2831 -2329 -34 0
-2832 -1892 0
-2832 -306 0
2832 1892 306 0
-2833 1073 0
-2833 499 0
2833 -1073 -499 0
-2834 227 0
-2834 2163 0
2834 -227 -2163 0
-2835 -2188 0
-2835 -1423 0
2835 2188 1423 0
-2836 -1054 0
-2836 2762 0
2836 1054 -2762 0
-2837 -1441 0
-2837 1356 0
2837 1441 -1356 0
-2838 1213 -2536 0
-2838 -1213 2536 0
2838 -1213 -2536 0
2838 1213 2536 0
-2839 -43 0
-2839 1241 0
2839 43 -1241 0
-2840 -1406 0
-2840 -2170 0
2840 1406 2170 0
-2841 1099 0
-2841 -1918 0
2841 -1099 1918 0
-2842 -2655 0
-2842 1143 0
2842 2655 -1143 0
-2843 -2136 0
-2843 -2778 0
2843 2136 2778 0
-2844 621 0
-2844 808 0
2844 -621 -808 0
-2845 -2347 0
-2845 1965 0
2845 2347 -1965 0
-2846 2715 939 0
-2846 -2715 -939 0
2846 -2715 939 0
2846 2715 -939 0
-2847 -461 0
-2847 -1147 0
2847 461 1147 0
-2848 -1280 0
-2848 1929 0
2848 1280 -1929 0
-2849 -942 2083 0
-2849 942 -2083 0
2849 942 2083 0
2849 -942 -2083 0
-2850 1934 0
-2850 453 0
2850 -1934 -453 0
-2851 -1674 -2619 0
-2851 1674 2619 0
2851 1674 -2619 0
2851 -1674 2619 0
-2852 2807 0
-2852 -2677 0
2852 -2807 2677 0
-2853 -1527 0
-2853 -139 0
2853 1527 139 0
-2854 -2032 0
-2854 136 0
2854 2032 -136 0
-2855 -2549 0
-2855 2058 0
2855 2549 -2058 0
-2856 -1127 -2693 0
-2856 1127 2693 0
2856 1127 -2693 0
2856 -1127 2693 0
-2857 -1179 0
-2857 2424 0
2857 1179 -2424 0
-2858 1126 0
-2858 -1644 0
2858 -1126 1644 0
-2859 -1232 2803 0
-2859 1232 -2803 0
2859 1232 2803 0
2859 -1232 -2803 0
-2860 -2222 0
-2860 134 0
2860 2222 -134 0
-2861 -2095 0
-2861 -2839 0
2861 2095 2839 0
-2862 -1127 0
-2862 534 0
2862 1127 -534 0
-2863 2587 0
-2863 1289 0
2863 -2587 -1289 0
-2864 -1895 0
-2864 -2542 0
2864 1895 2542 0
-2865 -1619 -2454 0
-2865 1619 2454 0
2865 1619 -2454 0
2865 -1619 2454 0
-2866 919 -2723 0
-2866 -919 2723 0
2866 -919 -2723 0
2866 919 2723 0
-2867 816 0
-2867 910 0
2867 -816 -910 0
-2868 -2725 391 0
-2868 2725 -391 0
2868 2725 391 0
2868 -2725 -391 0
-2869 -2243 0
-2869 -1316 0
2869 2243 1316 0
-2870 -1678 0
-2870 -2385 0
2870 1678 2385 0
-2871 -876 -1725 0
-2871 876 1725 0
2871 876 -1725 0
2871 -876 1725 0
-2872 -312 0
-2872 -187 0
2872 312 187 0
-2873 -1989 0
-2873 -433 0
2873 1989 433 0
-2874 -2541 0
-2874 2451 0
2874 2541 -2451 0
-2875 -560 0
-2875 2059 0
2875 560 -2059 0
-2876 -1554 0
-2876 2164 0
2876 1554 -2164 0
-2877 600 -701 0
-2877 -600 701 0
2877 -600 -701 0
2877 600 701 0
-2878 676 0
-2878 -309 0
2878 -676 309 0
-2879 -2792 0
-2879 -952 0
2879 2792 952 0
-2880 -217 0
-2880 -1922 0
2880 217 1922 0
-2881 1234 0
-2881 326 0
2881 -1234 -326 0
-2882 589 0
-2882 -258 0
2882 -589 258 0
-2883 -1395 0
-2883 -2659 0
2883 1395 2659 0
-2884 -655 0
-2884 372 0
2884 655 -372 0
-2885 -1414 0
-2885 -2190 0
2885 1414 2190 0
-2886 -125 0
-2886 1679 0
2886 125 -1679 0
-2887 1419 0
-2887 -158 0
2887 -1419 158 0
-2888 -628 0
-2888 2255 0
2888 628 -2255 0
-2889 -1282 0
-2889 -2147 0
2889 1282 2147 0
-2890 212 0
-2890 -2685 0
2890 -212 2685 0
-2891 158 -397 0
-2891 -158 397 0
2891 -158 -397 0
2891 158 397 0
-2892 -2603 0
-2892 -561 0
2892 2603 561 0
-2893 205 0
-2893 2199 0
2893 -205 -2199 0
-2894 1512 -550 0
-2894 -1512 550 0
2894 -1512 -550 0
2894 1512 550 0
-2895 1994 2696 0
-2895 -1994 -2696 0
2895 -1994 2696 0
2895 1994 -2696 0
-2896 2795 0
-2896 -2592 0
2896 -2795 2592 0
-2897 509 0
-2897 278 0
2897 -509 -278 0
-2898 -2010 0
-2898 1863 0
2898 2010 -1863 0
-2899 -515 -2031 0
-2899 515 2031 0
2899 515 -2031 0
2899 -515 2031 0
-2900 760 -1753 0
-2900 -760 1753 0
2900 -760 -1753 0
2900 760 1753 0
-2901 25 0
-2901 -625 0
2901 -25 625 0
-2902 2489 0
-2902 129 0
2902 -2489 -129 0
-2903 -2473 0
-2903 -2858 0
2903 2473 2858 0
-2904 343 0
-2904 -1210 0
2904 -343 1210 0
-2905 428 0
-2905 -145 0
2905 -428 145 0
-2906 2520 0
-2906 1790 0
2906 -2520 -1790 0
-2907 -2314 0
-2907 -1822 0
2907 2314 1822 0
-2908 2709 0
-2908 -667 0
2908 -2709 667 0
-2909 1603 0
-2909 -436 0
2909 -1603 436 0
-2910 683 0
-2910 -773 0
2910 -683 773 0
-2911 939 -1548 0
-2911 -939 1548 0
2911 -939 -1548 0
2911 939 1548 0
-2912 1954 0
-2912 -120 0
2912 -1954 120 0
-2913 540 0
-2913 -1712 0
2913 -540 1712 0
-2914 -178 0
-2914 -452 0
2914 178 452 0
-2915 -2518 0
-2915 1840 0
2915 2518 -1840 0
-2916 973 0
-2916 85 0
2916 -973 -85 0
-2917 671 -472 0
-2917 -671 472 0
2917 -671 -472 0
2917 671 472 0
-2918 -530 0
-2918 -2753 0
2918 530 2753 0
-2919 -1267 0
-2919 -2729 0
2919 1267 2729 0
-2920 984 0
-2920 -130 0
2920 -984 130 0
-2921 998 0
-2921 -2758 0
2921 -998 2758 0
-2922 -266 0
-2922 2024 0
2922 266 -2024 0
-2923 1634 0
-2923 2402 0
2923 -1634 -2402 0
-2924 -2758 -2880 0
-2924 2758 2880 0
2924 2758 -2880 0
2924 -2758 2880 0
-2925 -101 0
-2925 1301 0
2925 101 -1301 0
-2926 1845 0
-2926 16 0
2926 -1845 -16 0
-2927 1656 0
-2927 83 0
2927 -1656 -83 0
-2928 804 0
-2928 -1869 0
2928 -804 1869 0
-2929 1648 0
-2929 -864 0
2929 -1648 864 0
-2930 484 0
-2930 -2668 0
2930 -484 2668 0
-2931 1909 0
-2931 1224 0
2931 -1909 -1224 0
-2932 1737 0
-2932 -211 0
2932 -1737 211 0
-2933 -2782 0
-2933 -1302 0
2933 2782 1302 0
-2934 -677 0
-2934 94 0
2934 677 -94 0
-2935 1888 0
-2935 1536 0
2935 -1888 -1536 0
-2936 -2260 -1271 0
-2936 2260 1271 0
2936 2260 -1271 0
2936 -2260 1271 0
-2937 -2695 0
-2937 1853 0
2937 2695 -1853 0
-2938 -1213 0
-2938 1367 0
2938 1213 -1367 0
-2939 -554 0
-2939 457 0
2939 554 -457 0
-2940 -685 0
-2940 2439 0
2940 685 -2439 0
-2941 -544 0
-2941 173 0
2941 544 -173 0
-2942 -1887 0
-2942 1977 0
2942 1887 -1977 0
-2943 85 0
-2943 1317 0
2943 -85 -1317 0
-2944 -914 -1563 0
-2944 914 1563 0
2944 914 -1563 0
2944 -914 1563 0
-2945 -68 0
-2945 -1050 0
2945 68 1050 0
-2946 -1604 0
-2946 -36 0
2946 1604 36 0
-2947 723 2383 0
-2947 -723 -2383 0
2947 -723 2383 0
2947 723 -2383 0
-2948 2204 0
-2948 -1112 0
2948 -2204 1112 0
-2949 2372 0
-2949 349 0
2949 -2372 -349 0
-2950 -156 0
-2950 2745 0
2950 156 -2745 0
-2951 -456 -1711 0
-2951 456 1711 0
2951 456 -1711 0
2951 -456 1711 0
-2952 -1875 0
-2952 -1833 0
2952 1875 1833 0
-2953 2701 0
-2953 1181 0
2953 -2701 -1181 0
-2954 2508 0
-2954 42 0
2954 -2508 -42 0
-2955 1023 0
-2955 -774 0
2955 -1023 774 0
-2956 381 0
-2956 1107 0
2956 -381 -1107 0
-2957 -2703 -423 0
-2957 2703 423 0
2957 2703 -423 0
2957 -2703 423 0
-2958 1217 0
-2958 -517 0
2958 -1217 517 0
-2959 34 0
-2959 -1251 0
2959 -34 1251 0
-2960 -1518 -1486 0
-2960 1518 1486 0
2960 1518 -1486 0
2960 -1518 1486 0
-2961 1965 0
-2961 -1914 0
2961 -1965 1914 0
-2962 -2289 0
-2962 804 0
2962 2289 -804 0
-2963 -358 0
-2963 -467 0
2963 358 467 0
-2964 1346 0
-2964 1404 0
2964 -1346 -1404 0
-2965 -2034 0
-2965 -1211 0
2965 2034 1211 0
-2966 150 -2137 0
-2966 -150 2137 0
2966 -150 -2137 0
2966 150 2137 0
-2967 -2891 0
-2967 -759 0
2967 2891 759 0
-2968 -1021 0
-2968 707 0
2968 1021 -707 0
-2969 1601 0
-2969 2907 0
2969 -1601 -2907 0
-2970 642 0
-2970 -2056 0
2970 -642 2056 0
-2971 118 0
-2971 -81 0
2971 -118 81 0
-2972 992 0
-2972 1731 0
2972 -992 -1731 0
-2973 -927 -1099 0
-2973 927 1099 0
2973 927 -1099 0
2973 -927 1099 0
-2974 -760 0
-2974 -2431 0
2974 760 2431 0
-2975 -2016 0
-2975 2065 0
2975 2016 -2065 0
-2976 -1186 0
-2976 2476 0
2976 1186 -2476 0
-2977 -1021 900 0
-2977 1021 -900 0
2977 1021 900 0
2977 -1021 -900 0
-2978 1928 0
-2978 340 0
2978 -1928 -340 0
-2979 -633 733 0
-2979 633 -733 0
2979 633 733 0
2979 -633 -733 0
-2980 1482 2549 0
-2980 -1482 -2549 0
2980 -1482 2549 0
2980 1482 -2549 0
-2981 799 0
-2981 -642 0
2981 -799 642 0
-2982 -1932 0
-2982 -271 0
2982 1932 271 0
-2983 1555 0
-2983 194 0
2983 -1555 -194 0
-2984 -2471 0
-2984 -2772 0
2984 2471 2772 0
-2985 -148 0
-2985 -98 0
2985 148 98 0
-2986 -978 0
-2986 -505 0
2986 978 505 0
-2987 -2545 0
-2987 1283 0
2987 2545 -1283 0
-2988 -543 0
-2988 -612 0
2988 543 612 0
-2989 -1423 0
-2989 1356 0
2989 1423 -1356 0
-2990 -2407 0
-2990 -452 0
2990 2407 452 0
-2991 2706 2197 0
-2991 -2706 -2197 0
2991 -2706 2197 0
2991 2706 -2197 0
-2992 1025 0
-2992 2187 0
2992 -1025 -2187 0
-2993 2550 0
-2993 1351 0
2993 -2550 -1351 0
-2994 3 0
-2994 439 0
2994 -3 -439 0
-2995 -933 0
-2995 -1121 0
2995 933 1121 0
-2996 2519 284 0
-2996 -2519 -284 0
2996 -2519 284 0
2996 2519 -284 0
-2997 -2286 0
-2997 -2188 0
2997 2286 2188 0
-2998 -2175 0
-2998 -732 0
2998 2175 732 0
-2999 2471 2670 0
-2999 -2471 -2670 0
2999 -2471 2670 0
2999 2471 -2670 0
-3000 2639 0
-3000 2438 0
3000 -2639 -2438 0
-3001 762 0
-3001 2208 0
3001 -762 -2208 0
-3002 -1822 0
-3002 2348 0
3002 1822 -2348 0
-3003 -2938 -2488 0
-3003 2938 2488 0
3003 2938 -2488 0
3003 -2938 2488 0
-3004 2344 0
-3004 709 0
3004 -2344 -709 0
-3005 -1535 0
-3005 865 0
3005 1535 -865 0
-3006 -174 0
-3006 -786 0
3006 174 786 0
-3007 -795 0
-3007 2010 0
3007 795 -2010 0
-3008 -2937 0
-3008 -763 0
3008 2937 763 0
-3009 -318 0
-3009 419 0
3009 318 -419 0
-3010 -660 -2677 0
-3010 660 2677 0
3010 660 -2677 0
3010 -660 2677 0
-3011 -426 0
-3011 -1732 0
3011 426 1732 0
-3012 2383 -1343 0
-3012 -2383 1343 0
3012 -2383 -1343 0
3012 2383 1343 0
-3013 -1040 0
-3013 2236 0
3013 1040 -2236 0
-3014 -2253 0
-3014 -701 0
3014 2253 701 0
-3015 -1943 0
-3015 -1081 0
3015 1943 1081 0
-3016 -978 0
-3016 1954 0
3016 978 -1954 0
-3017 1897 0
-3017 -1659 0
3017 -1897 1659 0
-3018 -1951 0
-3018 -2090 0
3018 1951 2090 0
-3019 -2155 0
-3019 -1442 0
3019 2155 1442 0
-3020 2190 0
-3020 -342 0
3020 -2190 342 0
-3021 -2036 0
-3021 -402 0
3021 2036 402 0
-3022 929 0
-3022 -544 0
3022 -929 544 0
-3023 -1855 0
-3023 1055 0
3023 1855 -1055 0
-3024 -2944 0
-3024 1059 0
3024 2944 -1059 0
-3025 -1638 0
-3025 875 0
3025 1638 -875 0
-3026 1632 -2389 0
-3026 -1632 2389 0
3026 -1632 -2389 0
3026 1632 2389 0
-3027 2344 0
-3027 -1086 0
3027 -2344 1086 0
-3028 1594 0
-3028 -1479 0
3028 -1594 1479 0
-3029 1972 0
-3029 936 0
3029 -1972 -936 0
-3030 -554 0
-3030 214 0
3030 554 -214 0
-3031 2342 0
-3031 -145 0
3031 -2342 145 0
-3032 -2232 0
-3032 -1537 0
3032 2232 1537 0
-3033 -2319 0
-3033 946 0
3033 2319 -946 0
-3034 -864 0
-3034 1816 0
3034 864 -1816 0
-3035 1489 0
-3035 -1177 0
3035 -1489 1177 0
-3036 -1877 0
-3036 -2879 0
3036 1877 2879 0
-3037 1515 0
-3037 536 0
3037 -1515 -536 0
-3038 130 0
-3038 -521 0
3038 -130 521 0
-3039 -2576 -2010 0
-3039 2576 2010 0
3039 2576 -2010 0
3039 -2576 2010 0
-3040 2718 0
-3040 960 0
3040 -2718 -960 0
-3041 1857 0
-3041 -1204 0
3041 -1857 1204 0
-3042 1429 0
-3042 -814 0
3042 -1429 814 0
-3043 2531 -2605 0
-3043 -2531 2605 0
3043 -2531 -2605 0
3043 2531 2605 0
-3044 1510 -636 0
-3044 -1510 636 0
3044 -1510 -636 0
3044 1510 636 0
-3045 607 0
-3045 353 0
3045 -607 -353 0
-3046 -2158 1002 0
-3046 2158 -1002 0
3046 2158 1002 0
3046 -2158 -1002 0
-3047 201 -2180 0
-3047 -201 2180 0
3047 -201 -2180 0
3047 201 2180 0
-3048 -1051 0
-3048 1779 0
3048 1051 -1779 0
-3049 718 0
-3049 535 0
3049 -718 -535 0
-3050 2744 0
-3050 -1768 0
3050 -2744 1768 0
-3051 -113 0
-3051 1358 0
3051 113 -1358 0
-3052 -1409 0
-3052 180 0
3052 1409 -180 0
-3053 -454 0
-3053 -2772 0
3053 454 2772 0
-3054 -1949 0
-3054 1626 0
3054 1949 -1626 0
-3055 369 131 0
-3055 -369 -131 0
3055 -369 131 0
3055 369 -131 0
-3056 1413 0
-3056 2678 0
3056 -1413 -2678 0
-3057 2843 0
-3057 -272 0
3057 -2843 272 0
-3058 -2713 0
-3058 1300 0
3058 2713 -1300 0
-3059 937 0
-3059 2736 0
3059 -937 -2736 0
-3060 -1387 0
-3060 -634 0
3060 1387 634 0
-3061 -2183 0
-3061 -1197 0
3061 2183 1197 0
-3062 -142 0
-3062 -2718 0
3062 142 2718 0
-3063 2782 0
-3063 -1873 0
3063 -2782 1873 0
-3064 -869 0
-3064 -272 0
3064 869 272 0
-3065 2997 0
-3065 229 0
3065 -2997 -229 0
-3066 1872 0
-3066 2784 0
3066 -1872 -2784 0
-3067 -42 0
-3067 101 0
3067 42 -101 0
-3068 3037 -794 0
-3068 -3037 794 0
3068 -3037 -794 0
3068 3037 794 0
-3069 1182 0
-3069 -2130 0
3069 -1182 2130 0
-3070 -2027 0
-3070 -1941 0
3070 2027 1941 0
-3071 453 0
-3071 36 0
3071 -453 -36 0
-3072 -2079 0
-3072 636 0
3072 2079 -636 0
-3073 428 0
-3073 -1776 0
3073 -428 1776 0
-3074 -1476 0
-3074 345 0
3074 1476 -345 0
-3075 1425 0
-3075 1940 0
3075 -1425 -1940 0
-3076 -2572 -158 0
-3076 2572 158 0
3076 2572 -158 0
3076 -2572 158 0
-3077 406 0
-3077 -611 0
3077 -406 611 0
-3078 -2073 0
-3078 712 0
3078 2073 -712 0
-3079 1995 0
-3079 2274 0
3079 -1995 -2274 0
-3080 -2873 -974 0
-3080 2873 974 0
3080 2873 -974 0
3080 -2873 974 0
-3081 1763 206 0
-3081 -1763 -206 0
3081 -1763 206 0
3081 1763 -206 0
-3082 -814 0
-3082 -1203 0
3082 814 1203 0
-3083 457 0
-3083 -200 0
3083 -457 200 0
-3084 2866 0
-3084 -1264 0
3084 -2866 1264 0
-3085 735 0
-3085 816 0
3085 -735 -816 0
-3086 -2945 1901 0
-3086 2945 -1901 0
3086 2945 1901 0
3086 -2945 -1901 0
-3087 -506 176 0
-3087 506 -176 0
3087 506 176 0
3087 -506 -176 0
-3088 607 0
-3088 -126 0
3088 -607 126 0
-3089 180 -864 0
-3089 -180 864 0
3089 -180 -864 0
3089 180 864 0
-3090 -23 0
-3090 819 0
3090 23 -819 0
-3091 454 3065 0
-3091 -454 -3065 0
3091 -454 3065 0
3091 454 -3065 0
-3092 -1499 0
-3092 -2737 0
3092 1499 2737 0
-3093 -1821 0
-3093 2334 0
3093 1821 -2334 0
-3094 -1076 0
-3094 2180 0
3094 1076 -2180 0
-3095 1889 0
-3095 2698 0
3095 -1889 -2698 0
-3096 1495 -1917 0
-3096 -1495 1917 0
3096 -1495 -1917 0
3096 1495 1917 0
-3097 2954 3005 0
-3097 -2954 -3005 0
3097 -2954 3005 0
3097 2954 -3005 0
-3098 -99 0
-3098 -2407 0
3098 99 2407 0
-3099 1943 0
-3099 -3024 0
3099 -1943 3024 0
-3100 1229 0
-3100 1431 0
3100 -1229 -1431 0
-3101 -1661 1255 0
-3101 1661 -1255 0
3101 1661 1255 0
3101 -1661 -1255 0
-3102 249 0
-3102 2137 0
3102 -249 -2137 0
-3103 2157 0
-3103 -1959 0
3103 -2157 1959 0
-3104 2057 -2181 0
-3104 -2057 2181 0
3104 -2057 -2181 0
3104 2057 2181 0
-3105 -537 0
-3105 -1496 0
3105 537 1496 0
-3106 833 3014 0
-3106 -833 -3014 0
3106 -833 3014 0
3106 833 -3014 0
-3107 427 3021 0
-3107 -427 -3021 0
3107 -427 3021 0
3107 427 -3021 0
-3108 2447 -1606 0
-3108 -2447 1606 0
3108 -2447 -1606 0
3108 2447 1606 0
-3109 -2241 0
-3109 2935 0
3109 2241 -2935 0
-3110 2798 0
-3110 -869 0
3110 -2798 869 0
-3111 2825 0
-3111 2196 0
3111 -2825 -2196 0
-3112 -1477 0
-3112 1516 0
3112 1477 -1516 0
-3113 627 -3040 0
-3113 -627 3040 0
3113 -627 -3040 0
3113 627 3040 0
-3114 -1589 -2526 0
-3114 1589 2526 0
3114 1589 -2526 0
3114 -1589 2526 0
-3115 524 -237 0
-3115 -524 237 0
3115 -524 -237 0
3115 524 237 0
-3116 -2803 32 0
-3116 2803 -32 0
3116 2803 32 0
3116 -2803 -32 0
-3117 332 1866 0
-3117 -332 -1866 0
3117 -332 1866 0
3117 332 -1866 0
-3118 -1617 0
-3118 -142 0
3118 1617 142 0
-3119 -1864 0
-3119 -3027 0
3119 1864 3027 0
-3120 353 0
-3120 -3089 0
3120 -353 3089 0
-3121 -1964 1902 0
-3121 1964 -1902 0
3121 1964 1902 0
3121 -1964 -1902 0
-3122 -317 0
-3122 -72 0
3122 317 72 0
-3123 -1691 0
-3123 2848 0
3123 1691 -2848 0
-3124 2206 0
-3124 300 0
3124 -2206 -300 0
-3125 -113 0
-3125 -1680 0
3125 113 1680 0
-3126 2160 -2428 0
-3126 -2160 2428 0
3126 -2160 -2428 0
3126 2160 2428 0
-3127 107 0
-3127 -1026 0
3127 -107 1026 0
-3128 -158 0
-3128 -3125 0
3128 158 3125 0
-3129 1524 298 0
-3129 -1524 -298 0
3129 -1524 298 0
3129 1524 -298 0
-3130 2075 0
-3130 -1546 0
3130 -2075 1546 0
-3131 -2748 -1970 0
-3131 2748 1970 0
3131 2748 -1970 0
3131 -2748 1970 0
-3132 -1593 0
-3132 -759 0
3132 1593 759 0
-3133 -2010 404 0
-3133 2010 -404 0
3133 2010 404 0
3133 -2010 -404 0
-3134 -1352 0
-3134 328 0
3134 1352 -328 0
-3135 306 0
-3135 2986 0
3135 -306 -2986 0
-3136 -2186 0
-3136 645 0
3136 2186 -645 0
-3137 -3037 0
-3137 -2297 0
3137 3037 2297 0
-3138 -2692 461 0
-3138 2692 -461 0
3138 2692 461 0
3138 -2692 -461 0
-3139 -3012 0
-3139 1923 0
3139 3012 -1923 0
-3140 -2212 2453 0
-3140 2212 -2453 0
3140 2212 2453 0
3140 -2212 -2453 0
-3141 1244 -2546 0
-3141 -1244 2546 0
3141 -1244 -2546 0
3141 1244 2546 0
-3142 -720 0
-3142 -1329 0
3142 720 1329 0
-3143 2107 0
-3143 3037 0
3143 -2107 -3037 0
-3144 468 0
-3144 -2127 0
3144 -468 2127 0
-3145 -114 0
-3145 2166 0
3145 114 -2166 0
-3146 -2305 0
-3146 1294 0
3146 2305 -1294 0
-3147 615 0
-3147 2216 0
3147 -615 -2216 0
-3148 2753 0
-3148 2909 0
3148 -2753 -2909 0
-3149 -669 0
-3149 141 0
3149 669 -141 0
-3150 204 0
-3150 2658 0
3150 -204 -2658 0
-3151 -1903 0
-3151 -181 0
3151 1903 181 0
-3152 -1085 -82 0
-3152 1085 82 0
3152 1085 -82 0
3152 -1085 82 0
-3153 -1523 3016 0
-3153 1523 -3016 0
3153 1523 3016 0
3153 -1523 -3016 0
-3154 576 0
-3154 1904 0
3154 -576 -1904 0
-3155 1702 0
-3155 -440 0
3155 -1702 440 0
-3156 -210 0
-3156 -846 0
3156 210 846 0
-3157 2422 0
-3157 -1330 0
3157 -2422 1330 0
-3158 2472 0
-3158 38 0
3158 -2472 -38 0
-3159 -2102 0
-3159 -2439 0
3159 2102 2439 0
-3160 863 0
-3160 3010 0
3160 -863 -3010 0
-3161 -1004 0
-3161 -1249 0
3161 1004 1249 0
-3162 -190 0
-3162 -2488 0
3162 190 2488 0
-3163 2617 0
-3163 -2875 0
3163 -2617 2875 0
-3164 -2812 -1662 0
-3164 2812 1662 0
3164 2812 -1662 0
3164 -2812 1662 0
-3165 973 0
-3165 2195 0
3165 -973 -2195 0
-3166 -776 0
-3166 -2247 0
3166 776 2247 0
-3167 205 0
-3167 -116 0
3167 -205 116 0
-3168 841 0
-3168 -2147 0
3168 -841 2147 0
-3169 -2775 -2156 0
-3169 2775 2156 0
3169 2775 -2156 0
3169 -2775 2156 0
-3170 2975 0
-3170 -2214 0
3170 -2975 2214 0
-3171 1197 0
-3171 -2665 0
3171 -1197 2665 0
-3172 -2379 0
-3172 1708 0
3172 2379 -1708 0
-3173 200 0
-3173 -641 0
3173 -200 641 0
-3174 -891 0
-3174 2218 0
3174 891 -2218 0
-3175 -1401 0
-3175 -2496 0
3175 1401 2496 0
-3176 3002 392 0
-3176 -3002 -392 0
3176 -3002 392 0
3176 3002 -392 0
-3177 -892 -1595 0
-3177 892 1595 0
3177 892 -1595 0
3177 -892 1595 0
-3178 -1074 0
-3178 1290 0
3178 1074 -1290 0
-3179 -2740 0
-3179 73 0
3179 2740 -73 0
-3180 1208 0
-3180 3027 0
3180 -1208 -3027 0
-3181 -1844 0
-3181 -1578 0
3181 1844 1578 0
-3182 1316 0
-3182 -1697 0
3182 -1316 1697 0
-3183 -2349 -834 0
-3183 2349 834 0
3183 2349 -834 0
3183 -2349 834 0
-3184 -1346 0
-3184 -2475 0
3184 1346 2475 0
-3185 3097 0
-3185 877 0
3185 -3097 -877 0
-3186 14 2721 0
-3186 -14 -2721 0
3186 -14 2721 0
3186 14 -2721 0
-3187 -1373 -2831 0
-3187 1373 2831 0
3187 1373 -2831 0
3187 -1373 2831 0
-3188 -997 0
-3188 -1122 0
3188 997 1122 0
-3189 -1712 0
-3189 2688 0
3189 1712 -2688 0
-3190 2334 -779 0
-3190 -2334 779 0
3190 -2334 -779 0
3190 2334 779 0
-3191 -1630 0
-3191 2673 0
3191 1630 -2673 0
-3192 319 2112 0
-3192 -319 -2112 0
3192 -319 2112 0
3192 319 -2112 0
-3193 -1975 0
-3193 296 0
3193 1975 -296 0
-3194 -679 0
-3194 2723 0
3194 679 -2723 0
-3195 -1431 0
-3195 -1768 0
3195 1431 1768 0
-3196 -1988 0
-3196 -2857 0
3196 1988 2857 0
-3197 -3003 0
-3197 -128 0
3197 3003 128 0
-3198 -2144 0
-3198 -2652 0
3198 2144 2652 0
-3199 3000 0
-3199 1538 0
3199 -3000 -1538 0
-3200 1373 0
-3200 423 0
3200 -1373 -423 0
-3201 783 0
-3201 -2014 0
3201 -783 2014 0
-3202 1028 0
-3202 1059 0
3202 -1028 -1059 0
-3203 3156 0
-3203 -830 0
3203 -3156 830 0
-3204 2957 -2366 0
-3204 -2957 2366 0
3204 -2957 -2366 0
3204 2957 2366 0
-3205 -735 0
-3205 3147 0
3205 735 -3147 0
-3206 -1161 0
-3206 1921 0
3206 1161 -1921 0
-3207 3136 0
-3207 608 0
3207 -3136 -608 0
-3208 1654 0
-3208 914 0
3208 -1654 -914 0
-3209 -214 0
-3209 1697 0
3209 214 -1697 0
-3210 540 -2952 0
-3210 -540 2952 0
3210 -540 -2952 0
3210 540 2952 0
-3211 824 0
-3211 1653 0
3211 -824 -1653 0
-3212 -778 0
-3212 2375 0
3212 778 -2375 0
-3213 -116 0
-3213 -2852 0
3213 116 2852 0
-3214 -3043 -544 0
-3214 3043 544 0
3214 3043 -544 0
3214 -3043 544 0
-3215 2799 0
-3215 1682 0
3215 -2799 -1682 0
-3216 -684 0
-3216 409 0
3216 684 -409 0
-3217 -1900 0
-3217 1334 0
3217 1900 -1334 0
-3218 -1385 483 0
-3218 1385 -483 0
3218 1385 483 0
3218 -1385 -483 0
-3219 1148 1548 0
-3219 -1148 -1548 0
3219 -1148 1548 0
3219 1148 -1548 0
-3220 -2019 0
-3220 -889 0
3220 2019 889 0
-3221 -145 0
-3221 815 0
3221 145 -815 0
-3222 2481 -2204 0
-3222 -2481 2204 0
3222 -2481 -2204 0
3222 2481 2204 0
-3223 -2330 0
-3223 2829 0
3223 2330 -2829 0
-3224 -1125 1713 0
-3224 1125 -1713 0
3224 1125 1713 0
3224 -1125 -1713 0
-3225 -1814 0
-3225 -1951 0
3225 1814 1951 0
-3226 2697 0
-3226 2812 0
3226 -2697 -2812 0
-3227 -2955 0
-3227 485 0
3227 2955 -485 0
-3228 1983 0
-3228 -1630 0
3228 -1983 1630 0
-3229 2789 0
-3229 778 0
3229 -2789 -778 0
-3230 -1729 0
-3230 -3212 0
3230 1729 3212 0
-3231 2137 0
-3231 829 0
3231 -2137 -829 0
-3232 -2342 0
-3232 914 0
3232 2342 -914 0
-3233 -3056 0
-3233 1177 0
3233 3056 -1177 0
-3234 -494 -514 0
-3234 494 514 0
3234 494 -514 0
3234 -494 514 0
-3235 -2451 0
-3235 -107 0
3235 2451 107 0
-3236 -604 0
-3236 -2782 0
3236 604 2782 0
-3237 -1407 -338 0
-3237 1407 338 0
3237 1407 -338 0
3237 -1407 338 0
-3238 1506 -483 0
-3238 -1506 483 0
3238 -1506 -483 0
3238 1506 483 0
-3239 -2181 -1962 0
-3239 2181 1962 0
3239 2181 -1962 0
3239 -2181 1962 0
-3240 2066 0
-3240 3224 0
3240 -2066 -3224 0
-3241 -275 0
-3241 -3081 0
3241 275 3081 0
-3242 -2712 0
-3242 2171 0
3242 2712 -2171 0
-3243 1197 0
-3243 -2441 0
3243 -1197 2441 0
-3244 2389 0
-3244 625 0
3244 -2389 -625 0
-3245 1437 166 0
-3245 -1437 -166 0
3245 -1437 166 0
3245 1437 -166 0
-3246 -1221 0
-3246 1653 0
3246 1221 -1653 0
-3247 -755 0
-3247 -2746 0
3247 755 2746 0
-3248 966 -847 0
-3248 -966 847 0
3248 -966 -847 0
3248 966 847 0
-3249 3039 0
-3249 -35 0
3249 -3039 35 0
-3250 2933 0
-3250 1479 0
3250 -2933 -1479 0
-3251 428 -1041 0
-3251 -428 1041 0
3251 -428 -1041 0
3251 428 1041 0
-3252 760 0
-3252 2093 0
3252 -760 -2093 0
-3253 2657 17 0
-3253 -2657 -17 0
3253 -2657 17 0
3253 2657 -17 0
-3254 937 1819 0
-3254 -937 -1819 0
3254 -937 1819 0
3254 937 -1819 0
-3255 -3094 2368 0
-3255 3094 -2368 0
3255 3094 2368 0
3255 -3094 -2368 0
-3256 -14 3023 0
-3256 14 -3023 0
3256 14 3023 0
3256 -14 -3023 0
-3257 2053 -1025 0
-3257 -2053 1025 0
3257 -2053 -1025 0
3257 2053 1025 0
-3258 2755 0
-3258 991 0
3258 -2755 -991 0
-3259 1055 0
-3259 -2929 0
3259 -1055 2929 0
-3260 -1529 0
-3260 1060 0
3260 1529 -1060 0
-3261 2870 0
-3261 1978 0
3261 -2870 -1978 0
-3262 -1566 0
-3262 3100 0
3262 1566 -3100 0
-3263 1336 0
-3263 2681 0
3263 -1336 -2681 0
-3264 2760 0
-3264 933 0
3264 -2760 -933 0
-3265 1580 -1879 0
-3265 -1580 1879 0
3265 -1580 -1879 0
3265 1580 1879 0
-3266 -704 -1540 0
-3266 704 1540 0
3266 704 -1540 0
3266 -704 1540 0
-3267 -2959 1446 0
-3267 2959 -1446 0
3267 2959 1446 0
3267 -2959 -1446 0
-3268 -1336 0
-3268 -2697 0
3268 1336 2697 0
-3269 272 0
-3269 -339 0
3269 -272 339 0
-3270 2987 -2300 0
-3270 -2987 2300 0
3270 -2987 -2300 0
3270 2987 2300 0
-3271 60 0
-3271 -1233 0
3271 -60 1233 0
-3272 -2471 0
-3272 -629 0
3272 2471 629 0
-3273 1570 0
-3273 2648 0
3273 -1570 -2648 0
-3274 848 -1998 0
-3274 -848 1998 0
3274 -848 -1998 0
3274 848 1998 0
-3275 3140 0
-3275 -2130 0
3275 -3140 2130 0
-3276 1404 -1811 0
-3276 -1404 1811 0
3276 -1404 -1811 0
3276 1404 1811 0
-3277 -1359 2344 0
-3277 1359 -2344 0
3277 1359 2344 0
3277 -1359 -2344 0
-3278 -424 0
-3278 800 0
3278 424 -800 0
-3279 -547 0
-3279 3101 0
3279 547 -3101 0
-3280 306 0
-3280 1549 0
3280 -306 -1549 0
-3281 754 0
-3281 -218 0
3281 -754 218 0
-3282 2464 0
-3282 -3005 0
3282 -2464 3005 0
-3283 1839 0
-3283 -1962 0
3283 -1839 1962 0
-3284 1720 0
-3284 -1820 0
3284 -1720 1820 0
-3285 -2254 0
-3285 -2018 0
3285 2254 2018 0
-3286 -2052 0
-3286 1459 0
3286 2052 -1459 0
-3287 1474 0
-3287 -1462 0
3287 -1474 1462 0
-3288 1585 0
-3288 1578 0
3288 -1585 -1578 0
-3289 2373 -2968 0
-3289 -2373 2968 0
3289 -2373 -2968 0
3289 2373 2968 0
-3290 82 0
-3290 -203 0
3290 -82 203 0
-3291 3144 0
-3291 -1754 0
3291 -3144 1754 0
-3292 1493 0
-3292 -2276 0
3292 -1493 2276 0
-3293 -2221 0
-3293 710 0
3293 2221 -710 0
-3294 -943 0
-3294 -2009 0
3294 943 2009 0
-3295 2694 0
-3295 -1146 0
3295 -2694 1146 0
-3296 -2254 0
-3296 -1715 0
3296 2254 1715 0
-3297 1153 -2893 0
-3297 -1153 2893 0
3297 -1153 -2893 0
3297 1153 2893 0
-3298 2991 -2091 0
-3298 -2991 2091 0
3298 -2991 -2091 0
3298 2991 2091 0
-3299 -2762 0
-3299 1359 0
3299 2762 -1359 0
-3300 2652 1283 0
-3300 -2652 -1283 0
3300 -2652 1283 0
3300 2652 -1283 0
-3301 2425 0
-3301 89 0
3301 -2425 -89 0
-3302 2627 -508 0
-3302 -2627 508 0
3302 -2627 -508 0
3302 2627 508 0
-3303 3229 0
-3303 2717 0
3303 -3229 -2717 0
-3304 2222 0
-3304 -568 0
3304 -2222 568 0
-3305 -2390 0
-3305 2163 0
3305 2390 -2163 0
-3306 -2144 360 0
-3306 2144 -360 0
3306 2144 360 0
3306 -2144 -360 0
-3307 3002 0
-3307 376 0
3307 -3002 -376 0
-3308 464 1013 0
-3308 -464 -1013 0
3308 -464 1013 0
3308 464 -1013 0
-3309 -1844 -2505 0
-3309 1844 2505 0
3309 1844 -2505 0
3309 -1844 2505 0
-3310 3098 0
-3310 3273 0
3310 -3098 -3273 0
-3311 -745 -132 0
-3311 745 132 0
3311 745 -132 0
3311 -745 132 0
-3312 -1488 0
-3312 2293 0
3312 1488 -2293 0
-3313 -3220 0
-3313 -3010 0
3313 3220 3010 0
-3314 -1374 0
-3314 916 0
3314 1374 -916 0
-3315 -946 0
-3315 -1279 0
3315 946 1279 0
-3316 -1340 0
-3316 755 0
3316 1340 -755 0
-3317 1145 0
-3317 2518 0
3317 -1145 -2518 0
-3318 2051 0
-3318 -282 0
3318 -2051 282 0
-3319 -1337 0
-3319 -688 0
3319 1337 688 0
-3320 -2934 0
-3320 2932 0
3320 2934 -2932 0
-3321 -1651 0
-3321 1245 0
3321 1651 -1245 0
-3322 2794 0
-3322 -3193 0
3322 -2794 3193 0
-3323 -2343 0
-3323 2853 0
3323 2343 -2853 0
-3324 -2686 0
-3324 2528 0
3324 2686 -2528 0
-3325 -2890 -2066 0
-3325 2890 2066 0
3325 2890 -2066 0
3325 -2890 2066 0
-3326 1966 0
-3326 1102 0
3326 -1966 -1102 0
-3327 2853 0
-3327 -2311 0
3327 -2853 2311 0
-3328 210 0
-3328 580 0
3328 -210 -580 0
-3329 2144 0
-3329 -2737 0
3329 -2144 2737 0
-3330 -633 0
-3330 -1909 0
3330 633 1909 0
-3331 1598 -581 0
-3331 -1598 581 0
3331 -1598 -581 0
3331 1598 581 0
-3332 1597 0
-3332 -907 0
3332 -1597 907 0
-3333 -1793 0
-3333 273 0
3333 1793 -273 0
-3334 3066 1282 0
-3334 -3066 -1282 0
3334 -3066 1282 0
3334 3066 -1282 0
-3335 1590 0
-3335 -3133 0
3335 -1590 3133 0
-3336 1347 0
-3336 2808 0
3336 -1347 -2808 0
-3337 -2960 0
-3337 -2079 0
3337 2960 2079 0
-3338 -2379 -3300 0
-3338 2379 3300 0
3338 2379 -3300 0
3338 -2379 3300 0
-3339 -43 102 0
-3339 43 -102 0
3339 43 102 0
3339 -43 -102 0
-3340 2200 0
-3340 -3140 0
3340 -2200 3140 0
-3341 2654 0
-3341 -2673 0
3341 -2654 2673 0
-3342 -2383 0
-3342 3264 0
3342 2383 -3264 0
-3343 -3338 0
-3343 -1199 0
3343 3338 1199 0
-3344 -904 -3124 0
-3344 904 3124 0
3344 904 -3124 0
3344 -904 3124 0
-3345 2176 0
-3345 -3006 0
3345 -2176 3006 0
-3346 -2255 0
-3346 -2554 0
3346 2255 2554 0
-3347 3000 0
-3347 -2976 0
3347 -3000 2976 0
-3348 1296 0
-3348 1679 0
3348 -1296 -1679 0
-3349 -2545 -481 0
-3349 2545 481 0
3349 2545 -481 0
3349 -2545 481 0
-3350 -590 0
-3350 -924 0
3350 590 924 0
-3351 1065 0
-3351 -2237 0
3351 -1065 2237 0
-3352 3006 0
-3352 -1524 0
3352 -3006 1524 0
-3353 -2878 0
-3353 2268 0
3353 2878 -2268 0
-3354 984 -1994 0
-3354 -984 1994 0
3354 -984 -1994 0
3354 984 1994 0
-3355 -1274 0
-3355 2799 0
3355 1274 -2799 0
-3356 1376 0
-3356 68 0
3356 -1376 -68 0
-3357 -45 0
-3357 1278 0
3357 45 -1278 0
-3358 -2569 -310 0
-3358 2569 310 0
3358 2569 -310 0
3358 -2569 310 0
-3359 1515 0
-3359 -2259 0
3359 -1515 2259 0
-3360 -569 2357 0
-3360 569 -2357 0
3360 569 2357 0
3360 -569 -2357 0
-3361 434 0
-3361 783 0
3361 -434 -783 0
-3362 -749 0
-3362 -2153 0
3362 749 2153 0
-3363 -2174 0
-3363 -1588 0
3363 2174 1588 0
-3364 1985 -1802 0
-3364 -1985 1802 0
3364 -1985 -1802 0
3364 1985 1802 0
-3365 -2676 0
-3365 -2205 0
3365 2676 2205 0
-3366 218 0
-3366 -205 0
3366 -218 205 0
-3367 -3109 139 0
-3367 3109 -139 0
3367 3109 139 0
3367 -3109 -139 0
-3368 2198 0
-3368 2868 0
3368 -2198 -2868 0
-3369 -2950 0
-3369 1487 0
3369 2950 -1487 0
-3370 -582 0
-3370 -2347 0
3370 582 2347 0
-3371 -2193 0
-3371 1748 0
3371 2193 -1748 0
-3372 -1196 0
-3372 542 0
3372 1196 -542 0
-3373 2166 1833 0
-3373 -2166 -1833 0
3373 -2166 1833 0
3373 2166 -1833 0
-3374 -314 3066 0
-3374 314 -3066 0
3374 314 3066 0
3374 -314 -3066 0
-3375 -3220 0
-3375 885 0
3375 3220 -885 0
-3376 -2656 0
-3376 789 0
3376 2656 -789 0
-3377 -2894 0
-3377 -2361 0
3377 2894 2361 0
-3378 -2482 0
-3378 2064 0
3378 2482 -2064 0
-3379 915 0
-3379 1916 0
3379 -915 -1916 0
-3380 2891 0
-3380 3281 0
3380 -2891 -3281 0
-3381 -2871 2607 0
-3381 2871 -2607 0
3381 2871 2607 0
3381 -2871 -2607 0
-3382 -3190 0
-3382 -2996 0
3382 3190 2996 0
-3383 -2094 0
-3383 -1242 0
3383 2094 1242 0
-3384 -385 1951 0
-3384 385 -1951 0
3384 385 1951 0
3384 -385 -1951 0
-3385 2383 0
-3385 -768 0
3385 -2383 768 0
-3386 1236 0
-3386 3340 0
3386 -1236 -3340 0
-3387 1010 1558 0
-3387 -1010 -1558 0
3387 -1010 1558 0
3387 1010 -1558 0
-3388 -787 -2852 0
-3388 787 2852 0
3388 787 -2852 0
3388 -787 2852 0
-3389 -2556 0
-3389 -2300 0
3389 2556 2300 0
-3390 -2354 -3085 0
-3390 2354 3085 0
3390 2354 -3085 0
3390 -2354 3085 0
-3391 -1556 0
-3391 1621 0
3391 1556 -1621 0
-3392 -458 0
-3392 3055 0
3392 458 -3055 0
-3393 1551 3003 0
-3393 -1551 -3003 0
3393 -1551 3003 0
3393 1551 -3003 0
-3394 -2494 0
-3394 -803 0
3394 2494 803 0
-3395 125 0
-3395 -2208 0
3395 -125 2208 0
-3396 568 0
-3396 625 0
3396 -568 -625 0
-3397 -2160 0
-3397 1769 0
3397 2160 -1769 0
-3398 1825 0
-3398 1723 0
3398 -1825 -1723 0
-3399 -2936 0
-3399 -1762 0
3399 2936 1762 0
-3400 -2244 0
-3400 -3332 0
3400 2244 3332 0
-3401 -410 0
-3401 -3335 0
3401 410 3335 0
-3402 524 0
-3402 2847 0
3402 -524 -2847 0
-3403 -2127 0
-3403 22 0
3403 2127 -22 0
-3404 -3090 -1379 0
-3404 3090 1379 0
3404 3090 -1379 0
3404 -3090 1379 0
-3405 -879 0
-3405 -2408 0
3405 879 2408 0
-3406 1468 0
-3406 -1695 0
3406 -1468 1695 0
-3407 1378 -1112 0
-3407 -1378 1112 0
3407 -1378 -1112 0
3407 1378 1112 0
-3408 -476 450 0
-3408 476 -450 0
3408 476 450 0
3408 -476 -450 0
-3409 670 0
-3409 215 0
3409 -670 -215 0
-3410 -1147 0
-3410 -243 0
3410 1147 243 0
-3411 -1465 0
-3411 -312 0
3411 1465 312 0
-3412 485 -3022 0
-3412 -485 3022 0
3412 -485 -3022 0
3412 485 3022 0
-3413 1604 2901 0
-3413 -1604 -2901 0
3413 -1604 2901 0
3413 1604 -2901 0
-3414 3369 0
-3414 322 0
3414 -3369 -322 0
-3415 -1201 0
-3415 -337 0
3415 1201 337 0
-3416 -3195 0
-3416 2306 0
3416 3195 -2306 0
-3417 -414 0
-3417 -2586 0
3417 414 2586 0
-3418 2377 0
-3418 1226 0
3418 -2377 -1226 0
-3419 1712 0
-3419 -2841 0
3419 -1712 2841 0
-3420 -157 -2691 0
-3420 157 2691 0
3420 157 -2691 0
3420 -157 2691 0
-3421 1033 0
-3421 1167 0
3421 -1033 -1167 0
-3422 -2284 0
-3422 2434 0
3422 2284 -2434 0
-3423 -296 0
-3423 3401 0
3423 296 -3401 0
-3424 3007 0
-3424 2818 0
3424 -3007 -2818 0
-3425 800 1216 0
-3425 -800 -1216 0
3425 -800 1216 0
3425 800 -1216 0
-3426 -1229 0
-3426 1076 0
3426 1229 -1076 0
-3427 -2706 0
-3427 -3165 0
3427 2706 3165 0
-3428 2051 0
-3428 945 0
3428 -2051 -945 0
-3429 -2119 -2361 0
-3429 2119 2361 0
3429 2119 -2361 0
3429 -2119 2361 0
-3430 -2485 0
-3430 -1405 0
3430 2485 1405 0
-3431 3105 0
-3431 110 0
3431 -3105 -110 0
-3432 1021 -2028 0
-3432 -1021 2028 0
3432 -1021 -2028 0
3432 1021 2028 0
-3433 2805 0
-3433 -2154 0
3433 -2805 2154 0
-3434 -659 0
-3434 3188 0
3434 659 -3188 0
-3435 1655 0
-3435 -136 0
3435 -1655 136 0
-3436 3391 0
-3436 2784 0
3436 -3391 -2784 0
-3437 1416 0
-3437 710 0
3437 -1416 -710 0
-3438 2446 0
-3438 -1299 0
3438 -2446 1299 0
-3439 131 0
-3439 394 0
3439 -131 -394 0
-3440 2527 0
-3440 1157 0
3440 -2527 -1157 0
-3441 -2599 0
-3441 -2513 0
3441 2599 2513 0
-3442 -260 0
-3442 -1422 0
3442 260 1422 0
-3443 -1865 0
-3443 -2977 0
3443 1865 2977 0
-3444 -245 0
-3444 -2232 0
3444 245 2232 0
-3445 -868 2283 0
-3445 868 -2283 0
3445 868 2283 0
3445 -868 -2283 0
-3446 -999 -1397 0
-3446 999 1397 0
3446 999 -1397 0
3446 -999 1397 0
-3447 -476 0
-3447 893 0
3447 476 -893 0
-3448 422 0
-3448 1973 0
3448 -422 -1973 0
-3449 -1653 0
-3449 2640 0
3449 1653 -2640 0
-3450 -1652 0
-3450 -334 0
3450 1652 334 0
-3451 -1424 0
-3451 -3125 0
3451 1424 3125 0
-3452 -2826 0
-3452 3339 0
3452 2826 -3339 0
-3453 -289 0
-3453 -525 0
3453 289 525 0
-3454 -3399 -2450 0
-3454 3399 2450 0
3454 3399 -2450 0
3454 -3399 2450 0
-3455 2099 0
-3455 3345 0
3455 -2099 -3345 0
-3456 1271 0
-3456 2182 0
3456 -1271 -2182 0
-3457 -2671 0
-3457 3169 0
3457 2671 -3169 0
-3458 2190 0
-3458 -248 0
3458 -2190 248 0
-3459 907 -1128 0
-3459 -907 1128 0
3459 -907 -1128 0
3459 907 1128 0
-3460 -1273 0
-3460 -1914 0
3460 1273 1914 0
-3461 1088 0
-3461 1274 0
3461 -1088 -1274 0
-3462 291 3381 0
-3462 -291 -3381 0
3462 -291 3381 0
3462 291 -3381 0
-3463 2108 3357 0
-3463 -2108 -3357 0
3463 -2108 3357 0
3463 2108 -3357 0
-3464 2542 0
-3464 1170 0
3464 -2542 -1170 0
-3465 1783 0
-3465 -1936 0
3465 -1783 1936 0
-3466 118 0
-3466 -1255 0
3466 -118 1255 0
-3467 -3366 0
-3467 489 0
3467 3366 -489 0
-3468 -2732 0
-3468 -2205 0
3468 2732 2205 0
-3469 662 0
-3469 -3085 0
3469 -662 3085 0
-3470 1037 0
-3470 1264 0
3470 -1037 -1264 0
-3471 2375 0
-3471 -155 0
3471 -2375 155 0
-3472 -18 0
-3472 1893 0
3472 18 -1893 0
-3473 -2404 0
-3473 2463 0
3473 2404 -2463 0
-3474 3124 0
-3474 -775 0
3474 -3124 775 0
-3475 3112 -1452 0
-3475 -3112 1452 0
3475 -3112 -1452 0
3475 3112 1452 0
-3476 891 0
-3476 -1097 0
3476 -891 1097 0
-3477 3073 0
-3477 1932 0
3477 -3073 -1932 0
-3478 2313 0
-3478 2914 0
3478 -2313 -2914 0
-3479 896 0
-3479 -2751 0
3479 -896 2751 0
-3480 1753 0
-3480 -594 0
3480 -1753 594 0
-3481 -2836 2443 0
-3481 2836 -2443 0
3481 2836 2443 0
3481 -2836 -2443 0
-3482 1951 2499 0
-3482 -1951 -2499 0
3482 -1951 2499 0
3482 1951 -2499 0
-3483 -302 1572 0
-3483 302 -1572 0
3483 302 1572 0
3483 -302 -1572 0
-3484 778 0
-3484 -3076 0
3484 -778 3076 0
-3485 1558 -1203 0
-3485 -1558 1203 0
3485 -1558 -1203 0
3485 1558 1203 0
-3486 -260 0
-3486 -1124 0
3486 260 1124 0
-3487 -1805 2791 0
-3487 1805 -2791 0
3487 1805 2791 0
3487 -1805 -2791 0
-3488 361 0
-3488 2874 0
3488 -361 -2874 0
-3489 2829 0
-3489 -3338 0
3489 -2829 3338 0
-3490 944 0
-3490 -215 0
3490 -944 215 0
-3491 -2662 0
-3491 -1767 0
3491 2662 1767 0
-3492 1383 0
-3492 -1749 0
3492 -1383 1749 0
-3493 2127 0
-3493 2868 0
3493 -2127 -2868 0
-3494 -1245 -3295 0
-3494 1245 3295 0
3494 1245 -3295 0
3494 -1245 3295 0
-3495 1637 0
-3495 3276 0
3495 -1637 -3276 0
-3496 2242 2039 0
-3496 -2242 -2039 0
3496 -2242 2039 0
3496 2242 -2039 0
-3497 -875 0
-3497 -3233 0
3497 875 3233 0
-3498 539 0
-3498 2450 0
3498 -539 -2450 0
-3499 -2588 0
-3499 -2623 0
3499 2588 2623 0
-3500 1143 0
-3500 1357 0
3500 -1143 -1357 0
-3501 3409 0
-3501 2813 0
3501 -3409 -2813 0
-3502 3471 -15 0
-3502 -3471 15 0
3502 -3471 -15 0
3502 3471 15 0
-3503 -1328 0
-3503 -2927 0
3503 1328 2927 0
-3504 -2813 0
-3504 2932 0
3504 2813 -2932 0
-3505 3345 0
-3505 2712 0
3505 -3345 -2712 0
-3506 2215 -1148 0
-3506 -2215 1148 0
3506 -2215 -1148 0
3506 2215 1148 0
-3507 1665 -1314 0
-3507 -1665 1314 0
3507 -1665 -1314 0
3507 1665 1314 0
-3508 -2939 -617 0
-3508 2939 617 0
3508 2939 -617 0
3508 -2939 617 0
-3509 -3140 0
-3509 3047 0
3509 3140 -3047 0
-3510 811 -1596 0
-3510 -811 1596 0
3510 -811 -1596 0
3510 811 1596 0
-3511 -732 0
-3511 -448 0
3511 732 448 0
-3512 854 0
-3512 -3208 0
3512 -854 3208 0
-3513 3213 0
-3513 -2239 0
3513 -3213 2239 0
-3514 2783 -839 0
-3514 -2783 839 0
3514 -2783 -839 0
3514 2783 839 0
-3515 -273 0
-3515 2610 0
3515 273 -2610 0
-3516 3125 0
-3516 -1863 0
3516 -3125 1863 0
-3517 3447 0
-3517 348 0
3517 -3447 -348 0
-3518 140 0
-3518 778 0
3518 -140 -778 0
-3519 1933 0
-3519 -2723 0
3519 -1933 2723 0
-3520 513 0
-3520 -2902 0
3520 -513 2902 0
-3521 -137 0
-3521 -1017 0
3521 137 1017 0
-3522 2259 0
-3522 2388 0
3522 -2259 -2388 0
-3523 2269 -2052 0
-3523 -2269 2052 0
3523 -2269 -2052 0
3523 2269 2052 0
-3524 2767 -2414 0
-3524 -2767 2414 0
3524 -2767 -2414 0
3524 2767 2414 0
-3525 -1323 0
-3525 -1964 0
3525 1323 1964 0
-3526 -2178 0
-3526 1700 0
3526 2178 -1700 0
-3527 2833 0
-3527 2769 0
3527 -2833 -2769 0
-3528 -515 0
-3528 1797 0
3528 515 -1797 0
-3529 -3432 0
-3529 -3496 0
3529 3432 3496 0
-3530 -3255 -2296 0
-3530 3255 2296 0
3530 3255 -2296 0
3530 -3255 2296 0
-3531 3400 0
-3531 3233 0
3531 -3400 -3233 0
-3532 3208 0
-3532 -3180 0
3532 -3208 3180 0
-3533 -2256 0
-3533 2132 0
3533 2256 -2132 0
-3534 -2108 1947 0
-3534 2108 -1947 0
3534 2108 1947 0
3534 -2108 -1947 0
-3535 -1328 0
-3535 1851 0
3535 1328 -1851 0
-3536 2158 0
-3536 3258 0
3536 -2158 -3258 0
-3537 -746 -1421 0
-3537 746 1421 0
3537 746 -1421 0
3537 -746 1421 0
-3538 -1578 -337 0
-3538 1578 337 0
3538 1578 -337 0
3538 -1578 337 0
-3539 1459 0
-3539 633 0
3539 -1459 -633 0
-3540 -1117 0
-3540 1087 0
3540 1117 -1087 0
-3541 2671 0
-3541 607 0
3541 -2671 -607 0
-3542 1702 0
-3542 -1906 0
3542 -1702 1906 0
-3543 3320 -1678 0
-3543 -3320 1678 0
3543 -3320 -1678 0
3543 3320 1678 0
-3544 -3269 0
-3544 -211 0
3544 3269 211 0
-3545 2903 0
-3545 2821 0
3545 -2903 -2821 0
-3546 -1632 0
-3546 231 0
3546 1632 -231 0
-3547 853 0
-3547 -2836 0
3547 -853 2836 0
-3548 -2765 0
-3548 -16 0
3548 2765 16 0
-3549 1790 0
-3549 -1078 0
3549 -1790 1078 0
-3550 1952 0
-3550 -2353 0
3550 -1952 2353 0
-3551 -631 0
-3551 -2470 0
3551 631 2470 0
-3552 -1897 0
-3552 109 0
3552 1897 -109 0
-3553 404 0
-3553 2519 0
3553 -404 -2519 0
-3554 -2493 0
-3554 -247 0
3554 2493 247 0
-3555 3223 0
-3555 1152 0
3555 -3223 -1152 0
-3556 -2465 0
-3556 -3242 0
3556 2465 3242 0
-3557 2349 0
-3557 672 0
3557 -2349 -672 0
-3558 -2877 0
-3558 1468 0
3558 2877 -1468 0
-3559 -2176 0
-3559 2802 0
3559 2176 -2802 0
-3560 2508 0
-3560 3268 0
3560 -2508 -3268 0
-3561 2377 0
-3561 861 0
3561 -2377 -861 0
-3562 1147 0
-3562 -3454 0
3562 -1147 3454 0
-3563 -319 1898 0
-3563 319 -1898 0
3563 319 1898 0
3563 -319 -1898 0
-3564 1567 2225 0
-3564 -1567 -2225 0
3564 -1567 2225 0
3564 1567 -2225 0
-3565 -2574 0
-3565 2502 0
3565 2574 -2502 0
-3566 -1149 0
-3566 -3097 0
3566 1149 3097 0
-3567 -3171 -2407 0
-3567 3171 2407 0
3567 3171 -2407 0
3567 -3171 2407 0
-3568 2829 0
-3568 -2145 0
3568 -2829 2145 0
-3569 1980 2017 0
-3569 -1980 -2017 0
3569 -1980 2017 0
3569 1980 -2017 0
-3570 -2495 -799 0
-3570 2495 799 0
3570 2495 -799 0
3570 -2495 799 0
-3571 -2670 0
-3571 1072 0
3571 2670 -1072 0
-3572 -1896 0
-3572 -1971 0
3572 1896 1971 0
-3573 -3269 -955 0
-3573 3269 955 0
3573 3269 -955 0
3573 -3269 955 0
-3574 -2487 0
-3574 1245 0
3574 2487 -1245 0
-3575 1629 0
-3575 -848 0
3575 -1629 848 0
-3576 -2272 0
-3576 2471 0
3576 2272 -2471 0
-3577 1112 0
-3577 -1292 0
3577 -1112 1292 0
-3578 451 0
-3578 -155 0
3578 -451 155 0
-3579 3512 0
-3579 1942 0
3579 -3512 -1942 0
-3580 -3004 0
-3580 -2167 0
3580 3004 2167 0
-3581 -1008 0
-3581 -3257 0
3581 1008 3257 0
-3582 -234 0
-3582 -159 0
3582 234 159 0
-3583 -97 0
-3583 -1289 0
3583 97 1289 0
-3584 -1238 3298 0
-3584 1238 -3298 0
3584 1238 3298 0
3584 -1238 -3298 0
-3585 1857 0
-3585 -1403 0
3585 -1857 1403 0
-3586 1741 0
-3586 1341 0
3586 -1741 -1341 0
-3587 1158 0
-3587 2407 0
3587 -1158 -2407 0
-3588 -2777 0
-3588 1842 0
3588 2777 -1842 0
-3589 545 3218 0
-3589 -545 -3218 0
3589 -545 3218 0
3589 545 -3218 0
-3590 -172 0
-3590 3281 0
3590 172 -3281 0
-3591 924 -394 0
-3591 -924 394 0
3591 -924 -394 0
3591 924 394 0
-3592 314 0
-3592 -2979 0
3592 -314 2979 0
-3593 3059 0
-3593 -3251 0
3593 -3059 3251 0
-3594 -2795 0
-3594 -2406 0
3594 2795 2406 0
-3595 -3445 0
-3595 1211 0
3595 3445 -1211 0
-3596 -2711 0
-3596 1217 0
3596 2711 -1217 0
-3597 3027 2282 0
-3597 -3027 -2282 0
3597 -3027 2282 0
3597 3027 -2282 0
-3598 1677 1812 0
-3598 -1677 -1812 0
3598 -1677 1812 0
3598 1677 -1812 0
-3599 3510 0
-3599 -1485 0
3599 -3510 1485 0
-3600 743 0
-3600 -936 0
3600 -743 936 0
-3601 -2789 0
-3601 -3263 0
3601 2789 3263 0
-3602 3594 3340 0
-3602 -3594 -3340 0
3602 -3594 3340 0
3602 3594 -3340 0
-3603 1881 0
-3603 -1229 0
3603 -1881 1229 0
-3604 -548 0
-3604 -3600 0
3604 548 3600 0
-3605 -880 0
-3605 1802 0
3605 880 -1802 0
-3606 122 0
-3606 -3288 0
3606 -122 3288 0
-3607 -3441 0
-3607 258 0
3607 3441 -258 0
-3608 1024 0
-3608 -2712 0
3608 -1024 2712 0
-3609 -3109 0
-3609 352 0
3609 3109 -352 0
-3610 624 0
-3610 -2793 0
3610 -624 2793 0
-3611 -2121 0
-3611 473 0
3611 2121 -473 0
-3612 1377 3543 0
-3612 -1377 -3543 0
3612 -1377 3543 0
3612 1377 -3543 0
-3613 -2009 0
-3613 -640 0
3613 2009 640 0
-3614 -3280 -1356 0
-3614 3280 1356 0
3614 3280 -1356 0
3614 -3280 1356 0
-3615 3270 0
-3615 -3360 0
3615 -3270 3360 0
-3616 -3144 -2555 0
-3616 3144 2555 0
3616 3144 -2555 0
3616 -3144 2555 0
-3617 -2359 0
-3617 3314 0
3617 2359 -3314 0
-3618 -3409 3121 0
-3618 3409 -3121 0
3618 3409 3121 0
3618 -3409 -3121 0
-3619 -2800 0
-3619 1736 0
3619 2800 -1736 0
-3620 3577 -1812 0
-3620 -3577 1812 0
3620 -3577 -1812 0
3620 3577 1812 0
-3621 465 3393 0
-3621 -465 -3393 0
3621 -465 3393 0
3621 465 -3393 0
-3622 -755 0
-3622 1907 0
3622 755 -1907 0
-3623 -1264 0
-3623 -240 0
3623 1264 240 0
-3624 -492 0
-3624 -2268 0
3624 492 2268 0
-3625 3137 0
-3625 -1116 0
3625 -3137 1116 0
-3626 -1619 1401 0
-3626 1619 -1401 0
3626 1619 1401 0
3626 -1619 -1401 0
-3627 -1682 0
-3627 408 0
3627 1682 -408 0
-3628 -2947 0
-3628 2380 0
3628 2947 -2380 0
-3629 162 86 0
-3629 -162 -86 0
3629 -162 86 0
3629 162 -86 0
-3630 1425 0
-3630 -3463 0
3630 -1425 3463 0
-3631 -2294 0
-3631 2373 0
3631 2294 -2373 0
-3632 779 0
-3632 1351 0
3632 -779 -1351 0
-3633 622 0
-3633 -579 0
3633 -622 579 0
-3634 -2104 0
-3634 3310 0
3634 2104 -3310 0
-3635 -3538 0
-3635 -2249 0
3635 3538 2249 0
-3636 85 -2243 0
-3636 -85 2243 0
3636 -85 -2243 0
3636 85 2243 0
-3637 3530 0
-3637 320 0
3637 -3530 -320 0
-3638 -641 0
-3638 -897 0
3638 641 897 0
-3639 2094 -476 0
-3639 -2094 476 0
3639 -2094 -476 0
3639 2094 476 0
-3640 -455 0
-3640 -50 0
3640 455 50 0
-3641 3574 0
-3641 -1272 0
3641 -3574 1272 0
-3642 -2979 -1195 0
-3642 2979 1195 0
3642 2979 -1195 0
3642 -2979 1195 0
-3643 2250 -727 0
-3643 -2250 727 0
3643 -2250 -727 0
3643 2250 727 0
-3644 344 2276 0
-3644 -344 -2276 0
3644 -344 2276 0
3644 344 -2276 0
-3645 1258 0
-3645 72 0
3645 -1258 -72 0
-3646 -2522 0
-3646 -338 0
3646 2522 338 0
-3647 2980 0
-3647 -1791 0
3647 -2980 1791 0
-3648 -874 0
-3648 -3298 0
3648 874 3298 0
-3649 2776 -1069 0
-3649 -2776 1069 0
3649 -2776 -1069 0
3649 2776 1069 0
-3650 720 0
-3650 1552 0
3650 -720 -1552 0
-3651 1053 0
-3651 343 0
3651 -1053 -343 0
-3652 2445 0
-3652 -3449 0
3652 -2445 3449 0
-3653 2841 0
-3653 -656 0
3653 -2841 656 0
-3654 -2528 0
-3654 -2935 0
3654 2528 2935 0
-3655 -3445 -1985 0
-3655 3445 1985 0
3655 3445 -1985 0
3655 -3445 1985 0
-3656 -291 0
-3656 -1529 0
3656 291 1529 0
-3657 619 -1264 0
-3657 -619 1264 0
3657 -619 -1264 0
3657 619 1264 0
-3658 428 0
-3658 1904 0
3658 -428 -1904 0
-3659 1838 0
-3659 -69 0
3659 -1838 69 0
-3660 116 -878 0
-3660 -116 878 0
3660 -116 -878 0
3660 116 878 0
-3661 2157 0
-3661 -1447 0
3661 -2157 1447 0
-3662 -302 0
-3662 -449 0
3662 302 449 0
-3663 -1606 -1904 0
-3663 1606 1904 0
3663 1606 -1904 0
3663 -1606 1904 0
-3664 2705 471 0
-3664 -2705 -471 0
3664 -2705 471 0
3664 2705 -471 0
-3665 -2995 0
-3665 -2018 0
3665 2995 2018 0
-3666 2443 890 0
-3666 -2443 -890 0
3666 -2443 890 0
3666 2443 -890 0
-3667 31 0
-3667 -331 0
3667 -31 331 0
-3668 2343 0
-3668 2758 0
3668 -2343 -2758 0
-3669 435 1484 0
-3669 -435 -1484 0
3669 -435 1484 0
3669 435 -1484 0
-3670 -2706 0
-3670 -1162 0
3670 2706 1162 0
-3671 3474 0
-3671 -1837 0
3671 -3474 1837 0
-3672 -2654 0
-3672 240 0
3672 2654 -240 0
-3673 -2901 0
-3673 2384 0
3673 2901 -2384 0
-3674 2528 0
-3674 2300 0
3674 -2528 -2300 0
-3675 -3225 0
-3675 -1415 0
3675 3225 1415 0
-3676 -2944 0
-3676 1100 0
3676 2944 -1100 0
-3677 -931 1900 0
-3677 931 -1900 0
3677 931 1900 0
3677 -931 -1900 0
-3678 -152 -2436 0
-3678 152 2436 0
3678 152 -2436 0
3678 -152 2436 0
-3679 3405 0
-3679 1837 0
3679 -3405 -1837 0
-3680 3077 0
-3680 2112 0
3680 -3077 -2112 0
-3681 3493 0
-3681 -2488 0
3681 -3493 2488 0
-3682 1796 -1835 0
-3682 -1796 1835 0
3682 -1796 -1835 0
3682 1796 1835 0
-3683 -3173 0
-3683 2675 0
3683 3173 -2675 0
-3684 2262 0
-3684 -2077 0
3684 -2262 2077 0
-3685 -701 0
-3685 1179 0
3685 701 -1179 0
-3686 -562 0
-3686 702 0
3686 562 -702 0
-3687 3518 0
-3687 2911 0
3687 -3518 -2911 0
-3688 2701 0
-3688 -1936 0
3688 -2701 1936 0
-3689 -492 0
-3689 -498 0
3689 492 498 0
-3690 32 0
-3690 -1279 0
3690 -32 1279 0
-3691 2015 -618 0
-3691 -2015 618 0
3691 -2015 -618 0
3691 2015 618 0
-3692 -3533 3508 0
-3692 3533 -3508 0
3692 3533 3508 0
3692 -3533 -3508 0
-3693 -526 0
-3693 -747 0
3693 526 747 0
-3694 962 0
-3694 -263 0
3694 -962 263 0
-3695 -3013 0
-3695 -2996 0
3695 3013 2996 0
-3696 -2428 0
-3696 -1338 0
3696 2428 1338 0
-3697 -3138 0
-3697 3676 0
3697 3138 -3676 0
-3698 -1039 -1192 0
-3698 1039 1192 0
3698 1039 -1192 0
3698 -1039 1192 0
-3699 675 0
-3699 -3213 0
3699 -675 3213 0
-3700 -183 0
-3700 -2495 0
3700 183 2495 0
-3701 -3196 3571 0
-3701 3196 -3571 0
3701 3196 3571 0
3701 -3196 -3571 0
-3702 -225 3700 0
-3702 225 -3700 0
3702 225 3700 0
3702 -225 -3700 0
-3703 1451 0
-3703 -2898 0
3703 -1451 2898 0
-3704 -2528 0
-3704 -3339 0
3704 2528 3339 0
-3705 -2986 -2962 0
-3705 2986 2962 0
3705 2986 -2962 0
3705 -2986 2962 0
-3706 -1090 0
-3706 3500 0
3706 1090 -3500 0
-3707 -92 0
-3707 -625 0
3707 92 625 0
-3708 2172 3280 0
-3708 -2172 -3280 0
3708 -2172 3280 0
3708 2172 -3280 0
-3709 1113 0
-3709 -2821 0
3709 -1113 2821 0
-3710 1923 0
-3710 1098 0
3710 -1923 -1098 0
-3711 2210 1091 0
-3711 -2210 -1091 0
3711 -2210 1091 0
3711 2210 -1091 0
-3712 -1563 0
-3712 876 0
3712 1563 -876 0
-3713 2949 0
-3713 3021 0
3713 -2949 -3021 0
-3714 -1834 1817 0
-3714 1834 -1817 0
3714 1834 1817 0
3714 -1834 -1817 0
-3715 2299 0
-3715 -1361 0
3715 -2299 1361 0
-3716 -3273 508 0
-3716 3273 -508 0
3716 3273 508 0
3716 -3273 -508 0
-3717 1520 2987 0
-3717 -1520 -2987 0
3717 -1520 2987 0
3717 1520 -2987 0
-3718 -2015 0
-3718 2891 0
3718 2015 -2891 0
-3719 -383 0
-3719 -2573 0
3719 383 2573 0
-3720 -1981 0
-3720 393 0
3720 1981 -393 0
-3721 3260 0
-3721 -3054 0
3721 -3260 3054 0
-3722 958 0
-3722 -140 0
3722 -958 140 0
-3723 -2882 0
-3723 -266 0
3723 2882 266 0
-3724 801 0
-3724 -1807 0
3724 -801 1807 0
-3725 560 0
-3725 -1036 0
3725 -560 1036 0
-3726 -571 664 0
-3726 571 -664 0
3726 571 664 0
3726 -571 -664 0
-3727 -1595 0
-3727 -1054 0
3727 1595 1054 0
-3728 -397 0
-3728 1087 0
3728 397 -1087 0
-3729 -352 1051 0
-3729 352 -1051 0
3729 352 1051 0
3729 -352 -1051 0
-3730 -1260 275 0
-3730 1260 -275 0
3730 1260 275 0
3730 -1260 -275 0
-3731 1901 0
-3731 1322 0
3731 -1901 -1322 0
-3732 1191 0
-3732 767 0
3732 -1191 -767 0
-3733 -221 0
-3733 -12 0
3733 221 12 0
-3734 1341 0
-3734 1212 0
3734 -1341 -1212 0
-3735 1703 2353 0
-3735 -1703 -2353 0
3735 -1703 2353 0
3735 1703 -2353 0
-3736 -3457 0
-3736 1232 0
3736 3457 -1232 0
-3737 1379 0
-3737 2917 0
3737 -1379 -2917 0
-3738 -3554 3110 0
-3738 3554 -3110 0
3738 3554 3110 0
3738 -3554 -3110 0
-3739 -1055 2758 0
-3739 1055 -2758 0
3739 1055 2758 0
3739 -1055 -2758 0
-3740 153 0
-3740 -249 0
3740 -153 249 0
-3741 -737 0
-3741 -1174 0
3741 737 1174 0
-3742 -1561 0
-3742 -2984 0
3742 1561 2984 0
-3743 1649 0
-3743 3536 0
3743 -1649 -3536 0
-3744 -3350 0
-3744 2339 0
3744 3350 -2339 0
-3745 3293 0
-3745 -2765 0
3745 -3293 2765 0
-3746 2480 0
-3746 -3422 0
3746 -2480 3422 0
-3747 3444 0
-3747 -2856 0
3747 -3444 2856 0
-3748 -2544 0
-3748 1144 0
3748 2544 -1144 0
-3749 -893 0
-3749 -3282 0
3749 893 3282 0
-3750 -1894 0
-3750 2565 0
3750 1894 -2565 0
-3751 -1785 0
-3751 1303 0
3751 1785 -1303 0
-3752 3578 0
-3752 2028 0
3752 -3578 -2028 0
-3753 -2878 0
-3753 1539 0
3753 2878 -1539 0
-3754 -1255 0
-3754 3223 0
3754 1255 -3223 0
-3755 3174 0
-3755 2349 0
3755 -3174 -2349 0
-3756 1027 0
-3756 318 0
3756 -1027 -318 0
-3757 2264 0
-3757 -2643 0
3757 -2264 2643 0
-3758 2823 0
-3758 1955 0
3758 -2823 -1955 0
-3759 2009 0
-3759 -3197 0
3759 -2009 3197 0
-3760 -2330 0
-3760 249 0
3760 2330 -249 0
-3761 -3176 0
-3761 -3368 0
3761 3176 3368 0
-3762 -1110 0
-3762 -434 0
3762 1110 434 0
-3763 -619 0
-3763 3217 0
3763 619 -3217 0
-3764 -1144 0
-3764 -3481 0
3764 1144 3481 0
-3765 -3117 0
-3765 -2274 0
3765 3117 2274 0
-3766 -709 0
-3766 -2957 0
3766 709 2957 0
-3767 1813 0
-3767 1983 0
3767 -1813 -1983 0
-3768 67 0
-3768 -2173 0
3768 -67 2173 0
-3769 2814 0
-3769 3045 0
3769 -2814 -3045 0
-3770 -1483 0
-3770 2274 0
3770 1483 -2274 0
-3771 2025 -2850 0
-3771 -2025 2850 0
3771 -2025 -2850 0
3771 2025 2850 0
-3772 1683 0
-3772 3177 0
3772 -1683 -3177 0
-3773 -244 0
-3773 -1309 0
3773 244 1309 0
-3774 1437 2349 0
-3774 -1437 -2349 0
3774 -1437 2349 0
3774 1437 -2349 0
-3775 3295 -794 0
-3775 -3295 794 0
3775 -3295 -794 0
3775 3295 794 0
-3776 -2628 -2044 0
-3776 2628 2044 0
3776 2628 -2044 0
3776 -2628 2044 0
-3777 346 0
-3777 -2423 0
3777 -346 2423 0
-3778 1072 0
-3778 -2487 0
3778 -1072 2487 0
-3779 643 0
-3779 -1724 0
3779 -643 1724 0
-3780 -393 -2798 0
-3780 393 2798 0
3780 393 -2798 0
3780 -393 2798 0
-3781 3209 0
-3781 865 0
3781 -3209 -865 0
-3782 1559 0
-3782 -2005 0
3782 -1559 2005 0
-3783 -203 -3079 0
-3783 203 3079 0
3783 203 -3079 0
3783 -203 3079 0
-3784 -512 -1953 0
-3784 512 1953 0
3784 512 -1953 0
3784 -512 1953 0
-3785 2311 0
-3785 1083 0
3785 -2311 -1083 0
-3786 -1134 0
-3786 -1345 0
3786 1134 1345 0
-3787 -2795 0
-3787 -1706 0
3787 2795 1706 0
-3788 534 231 0
-3788 -534 -231 0
3788 -534 231 0
3788 534 -231 0
-3789 1562 795 0
-3789 -1562 -795 0
3789 -1562 795 0
3789 1562 -795 0
-3790 -634 0
-3790 -581 0
3790 634 581 0
-3791 270 -3221 0
-3791 -270 3221 0
3791 -270 -3221 0
3791 270 3221 0
-3792 1151 0
-3792 -858 0
3792 -1151 858 0
-3793 -1520 0
-3793 -909 0
3793 1520 909 0
-3794 3366 0
-3794 -3321 0
3794 -3366 3321 0
-3795 -3508 615 0
-3795 3508 -615 0
3795 3508 615 0
3795 -3508 -615 0
-3796 -2581 0
-3796 -2406 0
3796 2581 2406 0
-3797 2359 0
-3797 -466 0
3797 -2359 466 0
-3798 115 0
-3798 -1587 0
3798 -115 1587 0
-3799 -2732 0
-3799 717 0
3799 2732 -717 0
-3800 -339 0
-3800 3093 0
3800 339 -3093 0
-3801 2935 1918 0
-3801 -2935 -1918 0
3801 -2935 1918 0
3801 2935 -1918 0
-3802 -476 0
-3802 2663 0
3802 476 -2663 0
-3803 1100 0
-3803 -662 0
3803 -1100 662 0
-3804 -1056 0
-3804 1833 0
3804 1056 -1833 0
-3805 -215 0
-3805 1434 0
3805 215 -1434 0
-3806 -489 0
-3806 -1244 0
3806 489 1244 0
-3807 -1765 0
-3807 -3625 0
3807 1765 3625 0
-3808 1701 0
-3808 -2761 0
3808 -1701 2761 0
-3809 2945 -1895 0
-3809 -2945 1895 0
3809 -2945 -1895 0
3809 2945 1895 0
-3810 -3091 0
-3810 3060 0
3810 3091 -3060 0
-3811 1893 0
-3811 1999 0
3811 -1893 -1999 0
-3812 -1868 0
-3812 -3663 0
3812 1868 3663 0
-3813 -1168 0
-3813 -2271 0
3813 1168 2271 0
-3814 -3753 0
-3814 1603 0
3814 3753 -1603 0
-3815 3024 0
-3815 3456 0
3815 -3024 -3456 0
-3816 1807 0
-3816 -270 0
3816 -1807 270 0
-3817 -686 -3399 0
-3817 686 3399 0
3817 686 -3399 0
3817 -686 3399 0
-3818 -2346 0
-3818 -3312 0
3818 2346 3312 0
-3819 894 0
-3819 3257 0
3819 -894 -3257 0
-3820 1820 0
-3820 543 0
3820 -1820 -543 0
-3821 1641 0
-3821 -972 0
3821 -1641 972 0
-3822 -991 0
-3822 81 0
3822 991 -81 0
-3823 -2556 0
-3823 673 0
3823 2556 -673 0
-3824 3376 0
-3824 3048 0
3824 -3376 -3048 0
-3825 1538 0
-3825 2752 0
3825 -1538 -2752 0
-3826 210 0
-3826 2960 0
3826 -210 -2960 0
-3827 845 -3177 0
-3827 -845 3177 0
3827 -845 -3177 0
3827 845 3177 0
-3828 3696 -2509 0
-3828 -3696 2509 0
3828 -3696 -2509 0
3828 3696 2509 0
-3829 239 0
-3829 -2958 0
3829 -239 2958 0
-3830 3478 -3334 0
-3830 -3478 3334 0
3830 -3478 -3334 0
3830 3478 3334 0
-3831 -1712 0
-3831 1343 0
3831 1712 -1343 0
-3832 1877 0
-3832 1436 0
3832 -1877 -1436 0
-3833 2953 1725 0
-3833 -2953 -1725 0
3833 -2953 1725 0
3833 2953 -1725 0
-3834 -3503 -2482 0
-3834 3503 2482 0
3834 3503 -2482 0
3834 -3503 2482 0
-3835 3664 0
-3835 -3599 0
3835 -3664 3599 0
-3836 860 0
-3836 -3120 0
3836 -860 3120 0
-3837 -3454 0
-3837 1661 0
3837 3454 -1661 0
-3838 1154 2862 0
-3838 -1154 -2862 0
3838 -1154 2862 0
3838 1154 -2862 0
-3839 -3180 0
-3839 -3793 0
3839 3180 3793 0
-3840 1091 0
-3840 -3828 0
3840 -1091 3828 0
-3841 -2583 0
-3841 -2649 0
3841 2583 2649 0
-3842 2439 -868 0
-3842 -2439 868 0
3842 -2439 -868 0
3842 2439 868 0
-3843 -2498 0
-3843 1105 0
3843 2498 -1105 0
-3844 1719 3403 0
-3844 -1719 -3403 0
3844 -1719 3403 0
3844 1719 -3403 0
-3845 -180 0
-3845 535 0
3845 180 -535 0
-3846 -2525 2610 0
-3846 2525 -2610 0
3846 2525 2610 0
3846 -2525 -2610 0
-3847 -40 0
-3847 1163 0
3847 40 -1163 0
-3848 1885 0
-3848 158 0
3848 -1885 -158 0
-3849 -3384 -831 0
-3849 3384 831 0
3849 3384 -831 0
3849 -3384 831 0
-3850 -3671 0
-3850 -3641 0
3850 3671 3641 0
-3851 3291 0
-3851 2679 0
3851 -3291 -2679 0
-3852 -2777 0
-3852 300 0
3852 2777 -300 0
-3853 -3215 0
-3853 2520 0
3853 3215 -2520 0
-3854 3751 0
-3854 -3023 0
3854 -3751 3023 0
-3855 -2730 3130 0
-3855 2730 -3130 0
3855 2730 3130 0
3855 -2730 -3130 0
-3856 408 0
-3856 -1502 0
3856 -408 1502 0
-3857 -3694 0
-3857 3336 0
3857 3694 -3336 0
-3858 2163 0
-3858 996 0
3858 -2163 -996 0
-3859 791 0
-3859 -2757 0
3859 -791 2757 0
-3860 647 1987 0
-3860 -647 -1987 0
3860 -647 1987 0
3860 647 -1987 0
-3861 -2751 0
-3861 -3078 0
3861 2751 3078 0
-3862 -2979 0
-3862 -1217 0
3862 2979 1217 0
-3863 1366 0
-3863 -1864 0
3863 -1366 1864 0
-3864 -2455 0
-3864 -2929 0
3864 2455 2929 0
-3865 -2946 0
-3865 2316 0
3865 2946 -2316 0
-3866 2212 0
-3866 2652 0
3866 -2212 -2652 0
-3867 62 0
-3867 972 0
3867 -62 -972 0
-3868 1798 0
-3868 -2746 0
3868 -1798 2746 0
-3869 976 0
-3869 696 0
3869 -976 -696 0
-3870 477 2105 0
-3870 -477 -2105 0
3870 -477 2105 0
3870 477 -2105 0
-3871 436 0
-3871 -554 0
3871 -436 554 0
-3872 1505 -3702 0
-3872 -1505 3702 0
3872 -1505 -3702 0
3872 1505 3702 0
-3873 707 0
-3873 -641 0
3873 -707 641 0
-3874 -3334 -2276 0
-3874 3334 2276 0
3874 3334 -2276 0
3874 -3334 2276 0
-3875 716 0
-3875 -204 0
3875 -716 204 0
-3876 -277 0
-3876 -3080 0
3876 277 3080 0
-3877 683 0
-3877 -2151 0
3877 -683 2151 0
-3878 -3130 0
-3878 219 0
3878 3130 -219 0
-3879 2623 0
-3879 2514 0
3879 -2623 -2514 0
-3880 1334 0
-3880 492 0
3880 -1334 -492 0
-3881 -1131 3332 0
-3881 1131 -3332 0
3881 1131 3332 0
3881 -1131 -3332 0
-3882 -2717 0
-3882 -2959 0
3882 2717 2959 0
-3883 -538 0
-3883 363 0
3883 538 -363 0
-3884 -1145 0
-3884 2034 0
3884 1145 -2034 0
-3885 797 2772 0
-3885 -797 -2772 0
3885 -797 2772 0
3885 797 -2772 0
-3886 3844 0
-3886 3101 0
3886 -3844 -3101 0
-3887 -3607 0
-3887 -3250 0
3887 3607 3250 0
-3888 2333 0
-3888 -620 0
3888 -2333 620 0
-3889 761 -3718 0
-3889 -761 3718 0
3889 -761 -3718 0
3889 761 3718 0
-3890 -2829 0
-3890 -3393 0
3890 2829 3393 0
-3891 2142 0
-3891 248 0
3891 -2142 -248 0
-3892 -3440 0
-3892 -2119 0
3892 3440 2119 0
-3893 -2171 0
-3893 1992 0
3893 2171 -1992 0
-3894 145 0
-3894 -565 0
3894 -145 565 0
-3895 2036 0
-3895 -1890 0
3895 -2036 1890 0
-3896 1318 0
-3896 1792 0
3896 -1318 -1792 0
-3897 2387 0
-3897 -1559 0
3897 -2387 1559 0
-3898 2860 -2524 0
-3898 -2860 2524 0
3898 -2860 -2524 0
3898 2860 2524 0
-3899 -3410 416 0
-3899 3410 -416 0
3899 3410 416 0
3899 -3410 -416 0
-3900 -2492 0
-3900 2634 0
3900 2492 -2634 0
-3901 439 0
-3901 -3354 0
3901 -439 3354 0
-3902 658 -1536 0
-3902 -658 1536 0
3902 -658 -1536 0
3902 658 1536 0
-3903 2189 0
-3903 -2512 0
3903 -2189 2512 0
-3904 -2511 0
-3904 -1342 0
3904 2511 1342 0
-3905 -1326 2678 0
-3905 1326 -2678 0
3905 1326 2678 0
3905 -1326 -2678 0
-3906 60 0
-3906 -3186 0
3906 -60 3186 0
-3907 -1102 0
-3907 1395 0
3907 1102 -1395 0
-3908 988 -3438 0
-3908 -988 3438 0
3908 -988 -3438 0
3908 988 3438 0
-3909 -1619 0
-3909 -888 0
3909 1619 888 0
-3910 2354 1335 0
-3910 -2354 -1335 0
3910 -2354 1335 0
3910 2354 -1335 0
-3911 -3854 0
-3911 -2708 0
3911 3854 2708 0
-3912 286 1212 0
-3912 -286 -1212 0
3912 -286 1212 0
3912 286 -1212 0
-3913 -1887 0
-3913 -3543 0
3913 1887 3543 0
-3914 -1697 0
-3914 -3757 0
3914 1697 3757 0
-3915 -2284 0
-3915 -177 0
3915 2284 177 0
-3916 374 0
-3916 -2748 0
3916 -374 2748 0
-3917 -3103 0
-3917 -3910 0
3917 3103 3910 0
-3918 43 0
-3918 -2031 0
3918 -43 2031 0
-3919 -2496 0
-3919 313 0
3919 2496 -313 0
-3920 2675 0
-3920 1879 0
3920 -2675 -1879 0
-3921 -99 0
-3921 1043 0
3921 99 -1043 0
-3922 -2382 -3578 0
-3922 2382 3578 0
3922 2382 -3578 0
3922 -2382 3578 0
-3923 2159 -2739 0
-3923 -2159 2739 0
3923 -2159 -2739 0
3923 2159 2739 0
-3924 -608 0
-3924 -3302 0
3924 608 3302 0
-3925 2079 0
-3925 -1999 0
3925 -2079 1999 0
-3926 3711 3881 0
-3926 -3711 -3881 0
3926 -3711 3881 0
3926 3711 -3881 0
-3927 -3744 2362 0
-3927 3744 -2362 0
3927 3744 2362 0
3927 -3744 -2362 0
-3928 -611 0
-3928 -2092 0
3928 611 2092 0
-3929 2562 0
-3929 -1369 0
3929 -2562 1369 0
-3930 -836 0
-3930 -2763 0
3930 836 2763 0
-3931 -1572 0
-3931 -2325 0
3931 1572 2325 0
-3932 908 0
-3932 -381 0
3932 -908 381 0
-3933 -1380 0
-3933 2645 0
3933 1380 -2645 0
-3934 3580 0
-3934 -2324 0
3934 -3580 2324 0
-3935 -3592 -2343 0
-3935 3592 2343 0
3935 3592 -2343 0
3935 -3592 2343 0
-3936 499 0
-3936 -1745 0
3936 -499 1745 0
-3937 -175 0
-3937 -2299 0
3937 175 2299 0
-3938 -1100 0
-3938 -3232 0
3938 1100 3232 0
-3939 3664 0
-3939 -2824 0
3939 -3664 2824 0
-3940 938 0
-3940 -2246 0
3940 -938 2246 0
-3941 603 -3210 0
-3941 -603 3210 0
3941 -603 -3210 0
3941 603 3210 0
-3942 -303 0
-3942 -1139 0
3942 303 1139 0
-3943 -2682 0
-3943 -2951 0
3943 2682 2951 0
-3944 -2897 0
-3944 -2804 0
3944 2897 2804 0
-3945 -1907 0
-3945 -732 0
3945 1907 732 0
-3946 -3292 0
-3946 3448 0
3946 3292 -3448 0
-3947 -3869 0
-3947 -163 0
3947 3869 163 0
-3948 -1508 0
-3948 2178 0
3948 1508 -2178 0
-3949 1426 0
-3949 423 0
3949 -1426 -423 0
-3950 2428 0
-3950 412 0
3950 -2428 -412 0
-3951 3010 0
-3951 3758 0
3951 -3010 -3758 0
-3952 854 0
-3952 -3415 0
3952 -854 3415 0
-3953 2733 0
-3953 992 0
3953 -2733 -992 0
-3954 3179 1941 0
-3954 -3179 -1941 0
3954 -3179 1941 0
3954 3179 -1941 0
-3955 352 0
-3955 -728 0
3955 -352 728 0
-3956 124 1607 0
-3956 -124 -1607 0
3956 -124 1607 0
3956 124 -1607 0
-3957 762 -2495 0
-3957 -762 2495 0
3957 -762 -2495 0
3957 762 2495 0
-3958 -2184 0
-3958 1068 0
3958 2184 -1068 0
-3959 -2773 0
-3959 -90 0
3959 2773 90 0
-3960 -1736 0
-3960 -2116 0
3960 1736 2116 0
-3961 751 0
-3961 719 0
3961 -751 -719 0
-3962 -224 0
-3962 1412 0
3962 224 -1412 0
-3963 -517 0
-3963 3158 0
3963 517 -3158 0
-3964 -3317 -3325 0
-3964 3317 3325 0
3964 3317 -3325 0
3964 -3317 3325 0
-3965 -1983 0
-3965 -2686 0
3965 1983 2686 0
-3966 -1805 0
-3966 3483 0
3966 1805 -3483 0
-3967 3549 0
-3967 651 0
3967 -3549 -651 0
-3968 2456 0
-3968 320 0
3968 -2456 -320 0
-3969 -1524 402 0
-3969 1524 -402 0
3969 1524 402 0
3969 -1524 -402 0
-3970 1630 -2779 0
-3970 -1630 2779 0
3970 -1630 -2779 0
3970 1630 2779 0
-3971 -3110 0
-3971 -2314 0
3971 3110 2314 0
-3972 3935 0
-3972 -1255 0
3972 -3935 1255 0
-3973 2633 0
-3973 -1462 0
3973 -2633 1462 0
-3974 1556 0
-3974 -3730 0
3974 -1556 3730 0
-3975 -1053 0
-3975 302 0
3975 1053 -302 0
-3976 -3248 675 0
-3976 3248 -675 0
3976 3248 675 0
3976 -3248 -675 0
-3977 2810 3932 0
-3977 -2810 -3932 0
3977 -2810 3932 0
3977 2810 -3932 0
-3978 3711 0
-3978 1034 0
3978 -3711 -1034 0
-3979 3208 0
-3979 3698 0
3979 -3208 -3698 0
-3980 -748 -2745 0
-3980 748 2745 0
3980 748 -2745 0
3980 -748 2745 0
-3981 -2507 0
-3981 825 0
3981 2507 -825 0
-3982 -1319 0
-3982 -936 0
3982 1319 936 0
-3983 -484 -756 0
-3983 484 756 0
3983 484 -756 0
3983 -484 756 0
-3984 -2665 0
-3984 -115 0
3984 2665 115 0
-3985 483 -3652 0
-3985 -483 3652 0
3985 -483 -3652 0
3985 483 3652 0
-3986 -1129 -1029 0
-3986 1129 1029 0
3986 1129 -1029 0
3986 -1129 1029 0
-3987 339 0
-3987 -2995 0
3987 -339 2995 0
-3988 -3959 0
-3988 -3138 0
3988 3959 3138 0
-3989 1045 0
-3989 510 0
3989 -1045 -510 0
-3990 3052 0
-3990 -2889 0
3990 -3052 2889 0
-3991 1212 0
-3991 -321 0
3991 -1212 321 0
-3992 3824 0
-3992 2242 0
3992 -3824 -2242 0
-3993 -2008 0
-3993 2131 0
3993 2008 -2131 0
-3994 -710 0
-3994 26 0
3994 710 -26 0
-3995 294 0
-3995 1195 0
3995 -294 -1195 0
-3996 -3749 -3113 0
-3996 3749 3113 0
3996 3749 -3113 0
3996 -3749 3113 0
-3997 -228 0
-3997 -2984 0
3997 228 2984 0
-3998 2205 3905 0
-3998 -2205 -3905 0
3998 -2205 3905 0
3998 2205 -3905 0
-3999 1388 0
-3999 -1826 0
3999 -1388 1826 0
-4000 1168 0
-4000 -2707 0
4000 -1168 2707 0
-4001 -1177 0
-4001 2869 0
4001 1177 -2869 0
-4002 -2919 0
-4002 568 0
4002 2919 -568 0
-4003 -1520 0
-4003 -3145 0
4003 1520 3145 0
-4004 473 0
-4004 -1252 0
4004 -473 1252 0
-4005 -1063 0
-4005 -3023 0
4005 1063 3023 0
-4006 -1524 0
-4006 3257 0
4006 1524 -3257 0
-4007 1645 0
-4007 -848 0
4007 -1645 848 0
-4008 -197 0
-4008 -3935 0
4008 197 3935 0
-4009 2136 0
-4009 -2904 0
4009 -2136 2904 0
-4010 3423 -3167 0
-4010 -3423 3167 0
4010 -3423 -3167 0
4010 3423 3167 0
-4011 -1864 0
-4011 -1592 0
4011 1864 1592 0
-4012 594 0
-4012 -2973 0
4012 -594 2973 0
-4013 -2682 0
-4013 2667 0
4013 2682 -2667 0
-4014 2087 -975 0
-4014 -2087 975 0
4014 -2087 -975 0
4014 2087 975 0
-4015 -1903 0
-4015 -1702 0
4015 1903 1702 0
-4016 2939 1685 0
-4016 -2939 -1685 0
4016 -2939 1685 0
4016 2939 -1685 0
-4017 927 0
-4017 -3173 0
4017 -927 3173 0
-4018 3227 0
-4018 -2117 0
4018 -3227 2117 0
-4019 -1028 0
-4019 -3806 0
4019 1028 3806 0
-4020 330 -1535 0
-4020 -330 1535 0
4020 -330 -1535 0
4020 330 1535 0
-4021 -786 0
-4021 -1771 0
4021 786 1771 0
-4022 -2309 0
-4022 -2043 0
4022 2309 2043 0
-4023 1308 0
-4023 -1898 0
4023 -1308 1898 0
-4024 -3214 0
-4024 1758 0
4024 3214 -1758 0
-4025 601 0
-4025 1416 0
4025 -601 -1416 0
-4026 932 -398 0
-4026 -932 398 0
4026 -932 -398 0
4026 932 398 0
-4027 625 0
-4027 -2171 0
4027 -625 2171 0
-4028 -3896 2371 0
-4028 3896 -2371 0
4028 3896 2371 0
4028 -3896 -2371 0
-4029 2461 0
-4029 -453 0
4029 -2461 453 0
-4030 -497 0
-4030 2106 0
4030 497 -2106 0
-4031 -372 0
-4031 306 0
4031 372 -306 0
-4032 2064 0
-4032 2778 0
4032 -2064 -2778 0
-4033 3104 0
-4033 813 0
4033 -3104 -813 0
-4034 -2986 0
-4034 1928 0
4034 2986 -1928 0
-4035 -3133 0
-4035 -1906 0
4035 3133 1906 0
-4036 -2072 0
-4036 -842 0
4036 2072 842 0
-4037 -803 2735 0
-4037 803 -2735 0
4037 803 2735 0
4037 -803 -2735 0
-4038 2186 0
-4038 -3139 0
4038 -2186 3139 0
-4039 3406 3881 0
-4039 -3406 -3881 0
4039 -3406 3881 0
4039 3406 -3881 0
-4040 -814 0
-4040 -227 0
4040 814 227 0
-4041 -3584 0
-4041 3901 0
4041 3584 -3901 0
-4042 -920 0
-4042 3477 0
4042 920 -3477 0
-4043 3300 -3793 0
-4043 -3300 3793 0
4043 -3300 -3793 0
4043 3300 3793 0
-4044 -1435 0
-4044 1853 0
4044 1435 -1853 0
-4045 3731 0
-4045 -3874 0
4045 -3731 3874 0
-4046 -363 0
-4046 -3377 0
4046 363 3377 0
-4047 -3606 1442 0
-4047 3606 -1442 0
4047 3606 1442 0
4047 -3606 -1442 0
-4048 3198 0
-4048 166 0
4048 -3198 -166 0
-4049 -3291 0
-4049 1604 0
4049 3291 -1604 0
-4050 -10 0
-4050 1200 0
4050 10 -1200 0
-4051 -1256 0
-4051 -588 0
4051 1256 588 0
-4052 -64 0
-4052 -3211 0
4052 64 3211 0
-4053 3600 1528 0
-4053 -3600 -1528 0
4053 -3600 1528 0
4053 3600 -1528 0
-4054 147 0
-4054 192 0
4054 -147 -192 0
-4055 -1148 0
-4055 1215 0
4055 1148 -1215 0
-4056 -894 0
-4056 1488 0
4056 894 -1488 0
-4057 2387 0
-4057 2272 0
4057 -2387 -2272 0
-4058 3889 -755 0
-4058 -3889 755 0
4058 -3889 -755 0
4058 3889 755 0
-4059 -3798 0
-4059 3135 0
4059 3798 -3135 0
-4060 1712 0
-4060 -2386 0
4060 -1712 2386 0
-4061 -4006 3661 0
-4061 4006 -3661 0
4061 4006 3661 0
4061 -4006 -3661 0
-4062 -500 0
-4062 1447 0
4062 500 -1447 0
-4063 -2336 0
-4063 1064 0
4063 2336 -1064 0
-4064 4034 0
-4064 -3029 0
4064 -4034 3029 0
-4065 -1981 0
-4065 3000 0
4065 1981 -3000 0
-4066 -3146 0
-4066 486 0
4066 3146 -486 0
-4067 1399 0
-4067 1388 0
4067 -1399 -1388 0
-4068 644 0
-4068 3524 0
4068 -644 -3524 0
-4069 2932 494 0
-4069 -2932 -494 0
4069 -2932 494 0
4069 2932 -494 0
-4070 686 0
-4070 1314 0
4070 -686 -1314 0
-4071 1691 0
-4071 -3536 0
4071 -1691 3536 0
-4072 2353 0
-4072 3716 0
4072 -2353 -3716 0
-4073 2647 0
-4073 -35 0
4073 -2647 35 0
-4074 -2069 0
-4074 -2444 0
4074 2069 2444 0
-4075 -1630 0
-4075 -65 0
4075 1630 65 0
-4076 1231 0
-4076 -3132 0
4076 -1231 3132 0
-4077 -2046 0
-4077 -3750 0
4077 2046 3750 0
-4078 -3530 2026 0
-4078 3530 -2026 0
4078 3530 2026 0
4078 -3530 -2026 0
-4079 3206 0
-4079 -1907 0
4079 -3206 1907 0
-4080 -4004 2725 0
-4080 4004 -2725 0
4080 4004 2725 0
4080 -4004 -2725 0
-4081 65 0
-4081 -702 0
4081 -65 702 0
-4082 -275 0
-4082 458 0
4082 275 -458 0
-4083 -1080 444 0
-4083 1080 -444 0
4083 1080 444 0
4083 -1080 -444 0
-4084 1529 0
-4084 -2405 0
4084 -1529 2405 0
-4085 598 0
-4085 898 0
4085 -598 -898 0
-4086 2631 0
-4086 989 0
4086 -2631 -989 0
-4087 3062 0
-4087 -812 0
4087 -3062 812 0
-4088 -1131 0
-4088 1271 0
4088 1131 -1271 0
-4089 2329 0
-4089 3281 0
4089 -2329 -3281 0
-4090 -2321 0
-4090 -2624 0
4090 2321 2624 0
-4091 -4018 0
-4091 763 0
4091 4018 -763 0
-4092 2400 0
-4092 57 0
4092 -2400 -57 0
-4093 2675 0
-4093 -754 0
4093 -2675 754 0
-4094 3189 0
-4094 -3271 0
4094 -3189 3271 0
-4095 141 3074 0
-4095 -141 -3074 0
4095 -141 3074 0
4095 141 -3074 0
-4096 -2582 0
-4096 45 0
4096 2582 -45 0
-4097 -3213 0
-4097 4018 0
4097 3213 -4018 0
-4098 2056 0
-4098 2895 0
4098 -2056 -2895 0
-4099 2772 0
-4099 2928 0
4099 -2772 -2928 0
-4100 3 0
-4100 1430 0
4100 -3 -1430 0
-4101 1411 0
-4101 1356 0
4101 -1411 -1356 0
-4102 40 0
-4102 -3682 0
4102 -40 3682 0
-4103 1882 0
-4103 3825 0
4103 -1882 -3825 0
-4104 -3589 0
-4104 4009 0
4104 3589 -4009 0
-4105 3188 0
-4105 -188 0
4105 -3188 188 0
-4106 -841 0
-4106 -1372 0
4106 841 1372 0
-4107 -461 2012 0
-4107 461 -2012 0
4107 461 2012 0
4107 -461 -2012 0
-4108 -1390 0
-4108 2470 0
4108 1390 -2470 0
-4109 -2301 0
-4109 -1761 0
4109 2301 1761 0
-4110 2745 -3795 0
-4110 -2745 3795 0
4110 -2745 -3795 0
4110 2745 3795 0
-4111 -3044 1160 0
-4111 3044 -1160 0
4111 3044 1160 0
4111 -3044 -1160 0
-4112 -1029 -1544 0
-4112 1029 1544 0
4112 1029 -1544 0
4112 -1029 1544 0
-4113 -3874 0
-4113 86 0
4113 3874 -86 0
-4114 -3495 0
-4114 3815 0
4114 3495 -3815 0
-4115 1201 444 0
-4115 -1201 -444 0
4115 -1201 444 0
4115 1201 -444 0
-4116 -1483 0
-4116 2994 0
4116 1483 -2994 0
-4117 -806 -172 0
-4117 806 172 0
4117 806 -172 0
4117 -806 172 0
-4118 -2850 0
-4118 1396 0
4118 2850 -1396 0
-4119 2997 1039 0
-4119 -2997 -1039 0
4119 -2997 1039 0
4119 2997 -1039 0
-4120 4116 0
-4120 913 0
4120 -4116 -913 0
-4121 459 0
-4121 2254 0
4121 -459 -2254 0
-4122 -2780 0
-4122 -2420 0
4122 2780 2420 0
-4123 3528 0
-4123 -1218 0
4123 -3528 1218 0
-4124 -1921 0
-4124 -1823 0
4124 1921 1823 0
-4125 3629 0
-4125 -448 0
4125 -3629 448 0
-4126 3089 0
-4126 -2859 0
4126 -3089 2859 0
-4127 1134 0
-4127 -373 0
4127 -1134 373 0
-4128 -4078 0
-4128 27 0
4128 4078 -27 0
-4129 73 0
-4129 1794 0
4129 -73 -1794 0
-4130 1493 0
-4130 3300 0
4130 -1493 -3300 0
-4131 4108 0
-4131 -2600 0
4131 -4108 2600 0
-4132 -741 0
-4132 -3760 0
4132 741 3760 0
-4133 -2820 3442 0
-4133 2820 -3442 0
4133 2820 3442 0
4133 -2820 -3442 0
-4134 -4003 0
-4134 -447 0
4134 4003 447 0
-4135 1333 0
-4135 2384 0
4135 -1333 -2384 0
-4136 4034 0
-4136 418 0
4136 -4034 -418 0
-4137 351 0
-4137 3485 0
4137 -351 -3485 0
-4138 -3459 0
-4138 2211 0
4138 3459 -2211 0
-4139 -1021 -2417 0
-4139 1021 2417 0
4139 1021 -2417 0
4139 -1021 2417 0
-4140 2518 -2427 0
-4140 -2518 2427 0
4140 -2518 -2427 0
4140 2518 2427 0
-4141 -1690 0
-4141 -3977 0
4141 1690 3977 0
-4142 4031 0
-4142 1082 0
4142 -4031 -1082 0
-4143 2323 0
-4143 3373 0
4143 -2323 -3373 0
-4144 2381 0
-4144 -3599 0
4144 -2381 3599 0
-4145 -562 0
-4145 -2731 0
4145 562 2731 0
-4146 3628 0
-4146 -2254 0
4146 -3628 2254 0
-4147 -2348 0
-4147 3872 0
4147 2348 -3872 0
-4148 -2824 0
-4148 -2477 0
4148 2824 2477 0
-4149 1549 0
-4149 -3354 0
4149 -1549 3354 0
-4150 -49 0
-4150 43 0
4150 49 -43 0
-4151 -3470 0
-4151 -700 0
4151 3470 700 0
-4152 -834 -2212 0
-4152 834 2212 0
4152 834 -2212 0
4152 -834 2212 0
-4153 -606 0
-4153 802 0
4153 606 -802 0
-4154 -2595 0
-4154 4080 0
4154 2595 -4080 0
-4155 -3906 0
-4155 -534 0
4155 3906 534 0
-4156 2510 3644 0
-4156 -2510 -3644 0
4156 -2510 3644 0
4156 2510 -3644 0
-4157 2575 0
-4157 543 0
4157 -2575 -543 0
-4158 3284 0
-4158 3951 0
4158 -3284 -3951 0
-4159 3379 -3679 0
-4159 -3379 3679 0
4159 -3379 -3679 0
4159 3379 3679 0
-4160 3000 21 0
-4160 -3000 -21 0
4160 -3000 21 0
4160 3000 -21 0
-4161 634 2879 0
-4161 -634 -2879 0
4161 -634 2879 0
4161 634 -2879 0
-4162 -2564 0
-4162 4130 0
4162 2564 -4130 0
-4163 2722 -2155 0
-4163 -2722 2155 0
4163 -2722 -2155 0
4163 2722 2155 0
-4164 953 119 0
-4164 -953 -119 0
4164 -953 119 0
4164 953 -119 0
-4165 2025 0
-4165 -1322 0
4165 -2025 1322 0
-4166 3709 0
-4166 -583 0
4166 -3709 583 0
-4167 -2232 0
-4167 187 0
4167 2232 -187 0
-4168 3625 0
-4168 -2725 0
4168 -3625 2725 0
-4169 -2020 0
-4169 3057 0
4169 2020 -3057 0
-4170 -2795 0
-4170 1076 0
4170 2795 -1076 0
-4171 1043 -2247 0
-4171 -1043 2247 0
4171 -1043 -2247 0
4171 1043 2247 0
-4172 -3064 1172 0
-4172 3064 -1172 0
4172 3064 1172 0
4172 -3064 -1172 0
-4173 3904 0
-4173 3860 0
4173 -3904 -3860 0
-4174 -2843 0
-4174 -2659 0
4174 2843 2659 0
-4175 4048 0
-4175 2756 0
4175 -4048 -2756 0
-4176 1637 0
-4176 3929 0
4176 -1637 -3929 0
-4177 1298 0
-4177 2242 0
4177 -1298 -2242 0
-4178 747 0
-4178 -1559 0
4178 -747 1559 0
-4179 3040 0
-4179 1278 0
4179 -3040 -1278 0
-4180 3711 0
-4180 4101 0
4180 -3711 -4101 0
-4181 3097 0
-4181 3201 0
4181 -3097 -3201 0
-4182 -3401 1667 0
-4182 3401 -1667 0
4182 3401 1667 0
4182 -3401 -1667 0
-4183 -1835 0
-4183 -2082 0
4183 1835 2082 0
-4184 625 0
-4184 1478 0
4184 -625 -1478 0
-4185 3996 0
-4185 1820 0
4185 -3996 -1820 0
-4186 3283 0
-4186 1464 0
4186 -3283 -1464 0
-4187 1604 0
-4187 -2055 0
4187 -1604 2055 0
-4188 2361 2420 0
-4188 -2361 -2420 0
4188 -2361 2420 0
4188 2361 -2420 0
-4189 -1993 -80 0
-4189 1993 80 0
4189 1993 -80 0
4189 -1993 80 0
-4190 3545 -665 0
-4190 -3545 665 0
4190 -3545 -665 0
4190 3545 665 0
-4191 -518 0
-4191 2684 0
4191 518 -2684 0
-4192 -1059 0
-4192 3514 0
4192 1059 -3514 0
-4193 -264 0
-4193 593 0
4193 264 -593 0
-4194 3340 0
-4194 -3207 0
4194 -3340 3207 0
-4195 1603 0
-4195 -3416 0
4195 -1603 3416 0
-4196 -3854 3092 0
-4196 3854 -3092 0
4196 3854 3092 0
4196 -3854 -3092 0
-4197 -1584 0
-4197 -790 0
4197 1584 790 0
-4198 4117 1398 0
-4198 -4117 -1398 0
4198 -4117 1398 0
4198 4117 -1398 0
-4199 556 0
-4199 3764 0
4199 -556 -3764 0
-4200 -2663 0
-4200 -3168 0
4200 2663 3168 0
-4201 2388 0
-4201 3747 0
4201 -2388 -3747 0
-4202 125 2257 0
-4202 -125 -2257 0
4202 -125 2257 0
4202 125 -2257 0
-4203 2917 0
-4203 -61 0
4203 -2917 61 0
-4204 3328 0
-4204 3069 0
4204 -3328 -3069 0
-4205 3486 0
-4205 -3945 0
4205 -3486 3945 0
-4206 -3402 0
-4206 -170 0
4206 3402 170 0
-4207 -2139 -551 0
-4207 2139 551 0
4207 2139 -551 0
4207 -2139 551 0
-4208 380 0
-4208 1184 0
4208 -380 -1184 0
-4209 1014 0
-4209 -2044 0
4209 -1014 2044 0
-4210 1574 0
-4210 -2891 0
4210 -1574 2891 0
-4211 -1776 0
-4211 3889 0
4211 1776 -3889 0
-4212 -2944 0
-4212 384 0
4212 2944 -384 0
-4213 3211 -57 0
-4213 -3211 57 0
4213 -3211 -57 0
4213 3211 57 0
-4214 -713 0
-4214 1374 0
4214 713 -1374 0
-4215 2069 0
-4215 -1829 0
4215 -2069 1829 0
-4216 -4028 0
-4216 -2708 0
4216 4028 2708 0
-4217 -1769 0
-4217 -3629 0
4217 1769 3629 0
-4218 -3753 -2539 0
-4218 3753 2539 0
4218 3753 -2539 0
4218 -3753 2539 0
-4219 4169 0
-4219 -3756 0
4219 -4169 3756 0
-4220 1163 0
-4220 1258 0
4220 -1163 -1258 0
-4221 -3973 0
-4221 2190 0
4221 3973 -2190 0
-4222 -696 0
-4222 1317 0
4222 696 -1317 0
-4223 -2263 0
-4223 2311 0
4223 2263 -2311 0
-4224 1265 0
-4224 3625 0
4224 -1265 -3625 0
-4225 -2521 -2191 0
-4225 2521 2191 0
4225 2521 -2191 0
4225 -2521 2191 0
-4226 1349 0
-4226 -4131 0
4226 -1349 4131 0
-4227 -2753 0
-4227 290 0
4227 2753 -290 0
-4228 2139 0
-4228 2572 0
4228 -2139 -2572 0
-4229 -3009 0
-4229 -2309 0
4229 3009 2309 0
-4230 3045 0
-4230 920 0
4230 -3045 -920 0
-4231 3014 0
-4231 -2066 0
4231 -3014 2066 0
-4232 2249 0
-4232 3085 0
4232 -2249 -3085 0
-4233 3993 0
-4233 2357 0
4233 -3993 -2357 0
-4234 -2466 0
-4234 898 0
4234 2466 -898 0
-4235 3029 0
-4235 -2753 0
4235 -3029 2753 0
-4236 563 0
-4236 -981 0
4236 -563 981 0
-4237 -803 0
-4237 -3297 0
4237 803 3297 0
-4238 -2868 -2931 0
-4238 2868 2931 0
4238 2868 -2931 0
4238 -2868 2931 0
-4239 4215 0
-4239 385 0
4239 -4215 -385 0
-4240 2202 0
-4240 -748 0
4240 -2202 748 0
-4241 2490 0
-4241 -2418 0
4241 -2490 2418 0
-4242 1853 0
-4242 -819 0
4242 -1853 819 0
-4243 -2930 0
-4243 -2025 0
4243 2930 2025 0
-4244 4020 2478 0
-4244 -4020 -2478 0
4244 -4020 2478 0
4244 4020 -2478 0
-4245 1966 3151 0
-4245 -1966 -3151 0
4245 -1966 3151 0
4245 1966 -3151 0
-4246 1211 0
-4246 2129 0
4246 -1211 -2129 0
-4247 -911 0
-4247 -3676 0
4247 911 3676 0
-4248 -663 -771 0
-4248 663 771 0
4248 663 -771 0
4248 -663 771 0
-4249 -542 0
-4249 1536 0
4249 542 -1536 0
-4250 190 0
-4250 -2136 0
4250 -190 2136 0
-4251 601 0
-4251 3058 0
4251 -601 -3058 0
-4252 -2164 0
-4252 3952 0
4252 2164 -3952 0
-4253 2225 0
-4253 4056 0
4253 -2225 -4056 0
-4254 234 0
-4254 -1426 0
4254 -234 1426 0
-4255 -2721 0
-4255 1641 0
4255 2721 -1641 0
-4256 2287 0
-4256 3001 0
4256 -2287 -3001 0
-4257 -3135 0
-4257 -2088 0
4257 3135 2088 0
-4258 -1384 0
-4258 2304 0
4258 1384 -2304 0
-4259 -2277 0
-4259 -3131 0
4259 2277 3131 0
-4260 3839 -174 0
-4260 -3839 174 0
4260 -3839 -174 0
4260 3839 174 0
-4261 -238 0
-4261 2906 0
4261 238 -2906 0
-4262 3396 0
-4262 -4144 0
4262 -3396 4144 0
-4263 -3958 -4233 0
-4263 3958 4233 0
4263 3958 -4233 0
4263 -3958 4233 0
-4264 -4038 0
-4264 4077 0
4264 4038 -4077 0
-4265 601 0
-4265 1412 0
4265 -601 -1412 0
-4266 3027 1873 0
-4266 -3027 -1873 0
4266 -3027 1873 0
4266 3027 -1873 0
-4267 24 0
-4267 2212 0
4267 -24 -2212 0
-4268 -2801 0
-4268 3683 0
4268 2801 -3683 0
-4269 3955 0
-4269 -1774 0
4269 -3955 1774 0
-4270 37 0
-4270 -71 0
4270 -37 71 0
-4271 -108 0
-4271 -3812 0
4271 108 3812 0
-4272 -1291 0
-4272 -3719 0
4272 1291 3719 0
-4273 3964 -2061 0
-4273 -3964 2061 0
4273 -3964 -2061 0
4273 3964 2061 0
-4274 -2464 -1293 0
-4274 2464 1293 0
4274 2464 -1293 0
4274 -2464 1293 0
-4275 610 0
-4275 -3428 0
4275 -610 3428 0
-4276 -2047 -3377 0
-4276 2047 3377 0
4276 2047 -3377 0
4276 -2047 3377 0
-4277 -2101 0
-4277 -3739 0
4277 2101 3739 0
-4278 387 -1899 0
-4278 -387 1899 0
4278 -387 -1899 0
4278 387 1899 0
-4279 -651 0
-4279 1822 0
4279 651 -1822 0
-4280 -102 0
-4280 -3172 0
4280 102 3172 0
-4281 -3973 0
-4281 -2681 0
4281 3973 2681 0
-4282 545 0
-4282 -1585 0
4282 -545 1585 0
-4283 1801 -2702 0
-4283 -1801 2702 0
4283 -1801 -2702 0
4283 1801 2702 0
-4284 3292 -3396 0
-4284 -3292 3396 0
4284 -3292 -3396 0
4284 3292 3396 0
-4285 -3474 0
-4285 -1680 0
4285 3474 1680 0
-4286 -158 0
-4286 2496 0
4286 158 -2496 0
-4287 -1376 0
-4287 -1053 0
4287 1376 1053 0
-4288 3229 3439 0
-4288 -3229 -3439 0
4288 -3229 3439 0
4288 3229 -3439 0
-4289 -3974 0
-4289 -1379 0
4289 3974 1379 0
-4290 -2413 -4145 0
-4290 2413 4145 0
4290 2413 -4145 0
4290 -2413 4145 0
-4291 2190 0
-4291 -3141 0
4291 -2190 3141 0
-4292 -284 1082 0
-4292 284 -1082 0
4292 284 1082 0
4292 -284 -1082 0
-4293 -711 0
-4293 68 0
4293 711 -68 0
-4294 1926 0
-4294 -218 0
4294 -1926 218 0
-4295 2940 0
-4295 4242 0
4295 -2940 -4242 0
-4296 1173 0
-4296 -4199 0
4296 -1173 4199 0
-4297 209 0
-4297 2295 0
4297 -209 -2295 0
-4298 -3919 0
-4298 -1414 0
4298 3919 1414 0
-4299 -3596 0
-4299 -3493 0
4299 3596 3493 0
-4300 -327 -420 0
-4300 327 420 0
4300 327 -420 0
4300 -327 420 0
-4301 541 -1028 0
-4301 -541 1028 0
4301 -541 -1028 0
4301 541 1028 0
-4302 -1992 -3881 0
-4302 1992 3881 0
4302 1992 -3881 0
4302 -1992 3881 0
-4303 2131 0
-4303 -3971 0
4303 -2131 3971 0
-4304 -4201 1366 0
-4304 4201 -1366 0
4304 4201 1366 0
4304 -4201 -1366 0
-4305 1403 0
-4305 -218 0
4305 -1403 218 0
-4306 1552 0
-4306 -1065 0
4306 -1552 1065 0
-4307 698 0
-4307 -619 0
4307 -698 619 0
-4308 -2893 0
-4308 1087 0
4308 2893 -1087 0
-4309 1687 0
-4309 -246 0
4309 -1687 246 0
-4310 3349 -2229 0
-4310 -3349 2229 0
4310 -3349 -2229 0
4310 3349 2229 0
-4311 -203 0
-4311 527 0
4311 203 -527 0
-4312 -3585 -3691 0
-4312 3585 3691 0
4312 3585 -3691 0
4312 -3585 3691 0
-4313 -4119 0
-4313 1861 0
4313 4119 -1861 0
-4314 -2305 0
-4314 1688 0
4314 2305 -1688 0
-4315 -2975 0
-4315 -3897 0
4315 2975 3897 0
-4316 3180 0
-4316 -3516 0
4316 -3180 3516 0
-4317 3274 2088 0
-4317 -3274 -2088 0
4317 -3274 2088 0
4317 3274 -2088 0
-4318 2102 0
-4318 22 0
4318 -2102 -22 0
-4319 -4 0
-4319 2341 0
4319 4 -2341 0
-4320 1062 -1882 0
-4320 -1062 1882 0
4320 -1062 -1882 0
4320 1062 1882 0
-4321 -625 0
-4321 -239 0
4321 625 239 0
-4322 1022 -2628 0
-4322 -1022 2628 0
4322 -1022 -2628 0
4322 1022 2628 0
-4323 209 0
-4323 1943 0
4323 -209 -1943 0
-4324 2130 0
-4324 87 0
4324 -2130 -87 0
-4325 1731 4108 0
-4325 -1731 -4108 0
4325 -1731 4108 0
4325 1731 -4108 0
-4326 583 0
-4326 4003 0
4326 -583 -4003 0
-4327 2074 0
-4327 -3329 0
4327 -2074 3329 0
-4328 -3649 0
-4328 -4250 0
4328 3649 4250 0
-4329 -1099 0
-4329 -4184 0
4329 1099 4184 0
-4330 2689 0
-4330 -553 0
4330 -2689 553 0
-4331 319 0
-4331 -2221 0
4331 -319 2221 0
-4332 -1160 1662 0
-4332 1160 -1662 0
4332 1160 1662 0
4332 -1160 -1662 0
-4333 1523 0
-4333 -579 0
4333 -1523 579 0
-4334 2754 0
-4334 2052 0
4334 -2754 -2052 0
-4335 -2643 0
-4335 3921 0
4335 2643 -3921 0
-4336 -501 0
-4336 -2541 0
4336 501 2541 0
-4337 280 0
-4337 -2287 0
4337 -280 2287 0
-4338 2914 1589 0
-4338 -2914 -1589 0
4338 -2914 1589 0
4338 2914 -1589 0
-4339 -240 0
-4339 2275 0
4339 240 -2275 0
-4340 559 0
-4340 3850 0
4340 -559 -3850 0
-4341 4243 0
-4341 2230 0
4341 -4243 -2230 0
-4342 3164 0
-4342 274 0
4342 -3164 -274 0
-4343 206 0
-4343 -3504 0
4343 -206 3504 0
-4344 -4053 0
-4344 -2664 0
4344 4053 2664 0
-4345 1638 0
-4345 2006 0
4345 -1638 -2006 0
-4346 -3908 0
-4346 -3993 0
4346 3908 3993 0
-4347 1840 -499 0
-4347 -1840 499 0
4347 -1840 -499 0
4347 1840 499 0
-4348 -2218 -1871 0
-4348 2218 1871 0
4348 2218 -1871 0
4348 -2218 1871 0
-4349 -3322 0
-4349 -1373 0
4349 3322 1373 0
-4350 2227 -1305 0
-4350 -2227 1305 0
4350 -2227 -1305 0
4350 2227 1305 0
-4351 -3200 0
-4351 -1209 0
4351 3200 1209 0
-4352 1572 0
-4352 1431 0
4352 -1572 -1431 0
-4353 -3318 2819 0
-4353 3318 -2819 0
4353 3318 2819 0
4353 -3318 -2819 0
-4354 -2202 1255 0
-4354 2202 -1255 0
4354 2202 1255 0
4354 -2202 -1255 0
-4355 715 1509 0
-4355 -715 -1509 0
4355 -715 1509 0
4355 715 -1509 0
-4356 1401 0
-4356 1793 0
4356 -1401 -1793 0
-4357 2271 0
-4357 -3401 0
4357 -2271 3401 0
-4358 2014 -4260 0
-4358 -2014 4260 0
4358 -2014 -4260 0
4358 2014 4260 0
-4359 108 0
-4359 -4064 0
4359 -108 4064 0
-4360 -1124 0
-4360 2106 0
4360 1124 -2106 0
-4361 -4117 0
-4361 -294 0
4361 4117 294 0
-4362 590 -3983 0
-4362 -590 3983 0
4362 -590 -3983 0
4362 590 3983 0
-4363 1912 0
-4363 1882 0
4363 -1912 -1882 0
-4364 -4027 0
-4364 -1579 0
4364 4027 1579 0
-4365 -88 0
-4365 1256 0
4365 88 -1256 0
-4366 3611 0
-4366 3446 0
4366 -3611 -3446 0
-4367 -873 0
-4367 -335 0
4367 873 335 0
-4368 28 0
-4368 3651 0
4368 -28 -3651 0
-4369 -1736 0
-4369 -1714 0
4369 1736 1714 0
-4370 2747 -2189 0
-4370 -2747 2189 0
4370 -2747 -2189 0
4370 2747 2189 0
-4371 173 0
-4371 -2806 0
4371 -173 2806 0
-4372 4343 0
-4372 -479 0
4372 -4343 479 0
-4373 -2155 0
-4373 4015 0
4373 2155 -4015 0
-4374 3561 0
-4374 -4049 0
4374 -3561 4049 0
-4375 -3373 0
-4375 3257 0
4375 3373 -3257 0
-4376 179 -3263 0
-4376 -179 3263 0
4376 -179 -3263 0
4376 179 3263 0
-4377 4272 0
-4377 1405 0
4377 -4272 -1405 0
-4378 -1645 0
-4378 2074 0
4378 1645 -2074 0
-4379 -1513 0
-4379 2678 0
4379 1513 -2678 0
-4380 1182 0
-4380 -3310 0
4380 -1182 3310 0
-4381 1098 0
-4381 4142 0
4381 -1098 -4142 0
-4382 1963 1620 0
-4382 -1963 -1620 0
4382 -1963 1620 0
4382 1963 -1620 0
-4383 -2183 0
-4383 840 0
4383 2183 -840 0
-4384 1623 3161 0
-4384 -1623 -3161 0
4384 -1623 3161 0
4384 1623 -3161 0
-4385 2957 0
-4385 -62 0
4385 -2957 62 0
-4386 1438 -319 0
-4386 -1438 319 0
4386 -1438 -319 0
4386 1438 319 0
-4387 -2288 0
-4387 -471 0
4387 2288 471 0
-4388 -863 0
-4388 -4106 0
4388 863 4106 0
-4389 3538 0
-4389 -1808 0
4389 -3538 1808 0
-4390 -3035 0
-4390 74 0
4390 3035 -74 0
-4391 3180 0
-4391 -3629 0
4391 -3180 3629 0
-4392 646 0
-4392 -2225 0
4392 -646 2225 0
-4393 -2489 0
-4393 -1267 0
4393 2489 1267 0
-4394 -865 0
-4394 4154 0
4394 865 -4154 0
-4395 -3004 0
-4395 2284 0
4395 3004 -2284 0
-4396 -3730 0
-4396 989 0
4396 3730 -989 0
-4397 493 0
-4397 1489 0
4397 -493 -1489 0
-4398 -3600 0
-4398 1807 0
4398 3600 -1807 0
-4399 -1860 4376 0
-4399 1860 -4376 0
4399 1860 4376 0
4399 -1860 -4376 0
-4400 -1012 0
-4400 3113 0
4400 1012 -3113 0
-4401 3307 0
-4401 3121 0
4401 -3307 -3121 0
-4402 1608 0
-4402 4108 0
4402 -1608 -4108 0
-4403 -3955 0
-4403 2147 0
4403 3955 -2147 0
-4404 -2499 0
-4404 3653 0
4404 2499 -3653 0
-4405 4351 0
-4405 3334 0
4405 -4351 -3334 0
-4406 2519 0
-4406 -2160 0
4406 -2519 2160 0
-4407 -4245 -923 0
-4407 4245 923 0
4407 4245 -923 0
4407 -4245 923 0
-4408 2765 0
-4408 -1147 0
4408 -2765 1147 0
-4409 1984 0
-4409 -2208 0
4409 -1984 2208 0
-4410 -3860 0
-4410 -808 0
4410 3860 808 0
-4411 3485 2533 0
-4411 -3485 -2533 0
4411 -3485 2533 0
4411 3485 -2533 0
-4412 2738 2283 0
-4412 -2738 -2283 0
4412 -2738 2283 0
4412 2738 -2283 0
-4413 -1639 0
-4413 852 0
4413 1639 -852 0
-4414 -337 0
-4414 939 0
4414 337 -939 0
-4415 2147 -4095 0
-4415 -2147 4095 0
4415 -2147 -4095 0
4415 2147 4095 0
-4416 3207 3941 0
-4416 -3207 -3941 0
4416 -3207 3941 0
4416 3207 -3941 0
-4417 -3009 0
-4417 -2826 0
4417 3009 2826 0
-4418 3793 0
-4418 473 0
4418 -3793 -473 0
-4419 -32 -1357 0
-4419 32 1357 0
4419 32 -1357 0
4419 -32 1357 0
-4420 -731 0
-4420 -4377 0
4420 731 4377 0
-4421 4030 0
-4421 820 0
4421 -4030 -820 0
-4422 3485 0
-4422 1806 0
4422 -3485 -1806 0
-4423 -4041 737 0
-4423 4041 -737 0
4423 4041 737 0
4423 -4041 -737 0
-4424 3717 0
-4424 2280 0
4424 -3717 -2280 0
-4425 601 0
-4425 -3 0
4425 -601 3 0
-4426 1394 0
-4426 -2405 0
4426 -1394 2405 0
-4427 753 4013 0
-4427 -753 -4013 0
4427 -753 4013 0
4427 753 -4013 0
-4428 1554 -4367 0
-4428 -1554 4367 0
4428 -1554 -4367 0
4428 1554 4367 0
-4429 -2785 0
-4429 1824 0
4429 2785 -1824 0
-4430 3885 1999 0
-4430 -3885 -1999 0
4430 -3885 1999 0
4430 3885 -1999 0
-4431 -3157 0
-4431 -2319 0
4431 3157 2319 0
-4432 1959 0
-4432 2455 0
4432 -1959 -2455 0
-4433 -2331 0
-4433 -1525 0
4433 2331 1525 0
-4434 -325 0
-4434 1453 0
4434 325 -1453 0
-4435 1926 -171 0
-4435 -1926 171 0
4435 -1926 -171 0
4435 1926 171 0
-4436 3877 0
-4436 -3605 0
4436 -3877 3605 0
-4437 -2334 0
-4437 -2051 0
4437 2334 2051 0
-4438 -529 0
-4438 -2495 0
4438 529 2495 0
-4439 -2402 0
-4439 -125 0
4439 2402 125 0
-4440 4009 0
-4440 -142 0
4440 -4009 142 0
-4441 2773 0
-4441 -2170 0
4441 -2773 2170 0
-4442 3444 0
-4442 1622 0
4442 -3444 -1622 0
-4443 881 0
-4443 3782 0
4443 -881 -3782 0
-4444 3228 3973 0
-4444 -3228 -3973 0
4444 -3228 3973 0
4444 3228 -3973 0
-4445 1952 0
-4445 4371 0
4445 -1952 -4371 0
-4446 2949 0
-4446 477 0
4446 -2949 -477 0
-4447 -591 0
-4447 -1108 0
4447 591 1108 0
-4448 2883 0
-4448 -343 0
4448 -2883 343 0
-4449 -2070 0
-4449 -1632 0
4449 2070 1632 0
-4450 -2459 0
-4450 -3892 0
4450 2459 3892 0
-4451 -1132 2374 0
-4451 1132 -2374 0
4451 1132 2374 0
4451 -1132 -2374 0
-4452 -2896 0
-4452 112 0
4452 2896 -112 0
-4453 -343 0
-4453 4086 0
4453 343 -4086 0
-4454 1599 0
-4454 3715 0
4454 -1599 -3715 0
-4455 -2094 0
-4455 3873 0
4455 2094 -3873 0
-4456 -3320 0
-4456 -4146 0
4456 3320 4146 0
-4457 -1450 0
-4457 2482 0
4457 1450 -2482 0
-4458 -1648 0
-4458 2529 0
4458 1648 -2529 0
-4459 529 0
-4459 4113 0
4459 -529 -4113 0
-4460 1607 0
-4460 -705 0
4460 -1607 705 0
-4461 388 0
-4461 793 0
4461 -388 -793 0
-4462 3773 0
-4462 2439 0
4462 -3773 -2439 0
-4463 -2047 0
-4463 3255 0
4463 2047 -3255 0
-4464 2224 0
-4464 254 0
4464 -2224 -254 0
-4465 1789 0
-4465 4109 0
4465 -1789 -4109 0
-4466 2536 0
-4466 2958 0
4466 -2536 -2958 0
-4467 4050 0
-4467 -2882 0
4467 -4050 2882 0
-4468 1576 0
-4468 -4191 0
4468 -1576 4191 0
-4469 -1540 0
-4469 -3253 0
4469 1540 3253 0
-4470 -2106 -1650 0
-4470 2106 1650 0
4470 2106 -1650 0
4470 -2106 1650 0
-4471 3804 4308 0
-4471 -3804 -4308 0
4471 -3804 4308 0
4471 3804 -4308 0
-4472 -3281 0
-4472 1085 0
4472 3281 -1085 0
-4473 -2073 0
-4473 -2279 0
4473 2073 2279 0
-4474 589 0
-4474 -2696 0
4474 -589 2696 0
-4475 4144 0
-4475 -3327 0
4475 -4144 3327 0
-4476 1218 0
-4476 -1987 0
4476 -1218 1987 0
-4477 -3733 0
-4477 -1562 0
4477 3733 1562 0
-4478 -2838 0
-4478 3330 0
4478 2838 -3330 0
-4479 -2008 0
-4479 1267 0
4479 2008 -1267 0
-4480 2345 0
-4480 -3161 0
4480 -2345 3161 0
-4481 1402 262 0
-4481 -1402 -262 0
4481 -1402 262 0
4481 1402 -262 0
-4482 3746 0
-4482 -225 0
4482 -3746 225 0
-4483 436 3183 0
-4483 -436 -3183 0
4483 -436 3183 0
4483 436 -3183 0
-4484 4323 0
-4484 1110 0
4484 -4323 -1110 0
-4485 2240 0
-4485 -2278 0
4485 -2240 2278 0
-4486 -1142 757 0
-4486 1142 -757 0
4486 1142 757 0
4486 -1142 -757 0
-4487 3380 0
-4487 4471 0
4487 -3380 -4471 0
-4488 -3658 2134 0
-4488 3658 -2134 0
4488 3658 2134 0
4488 -3658 -2134 0
-4489 -4344 0
-4489 -1331 0
4489 4344 1331 0
-4490 -3270 -2606 0
-4490 3270 2606 0
4490 3270 -2606 0
4490 -3270 2606 0
-4491 -219 0
-4491 -3704 0
4491 219 3704 0
-4492 1910 0
-4492 -3467 0
4492 -1910 3467 0
-4493 678 1114 0
-4493 -678 -1114 0
4493 -678 1114 0
4493 678 -1114 0
-4494 -539 0
-4494 -3091 0
4494 539 3091 0
-4495 -2115 0
-4495 -2080 0
4495 2115 2080 0
-4496 2259 0
-4496 3610 0
4496 -2259 -3610 0
-4497 1122 0
-4497 -1703 0
4497 -1122 1703 0
-4498 2904 0
-4498 -1242 0
4498 -2904 1242 0
-4499 4428 0
-4499 -1747 0
4499 -4428 1747 0
-4500 -2717 0
-4500 579 0
4500 2717 -579 0
-4501 -497 542 0
-4501 497 -542 0
4501 497 542 0
4501 -497 -542 0
-4502 2482 0
-4502 -1484 0
4502 -2482 1484 0
-4503 1582 0
-4503 4004 0
4503 -1582 -4004 0
-4504 587 3299 0
-4504 -587 -3299 0
4504 -587 3299 0
4504 587 -3299 0
-4505 1491 0
-4505 -1085 0
4505 -1491 1085 0
-4506 -2700 0
-4506 -4372 0
4506 2700 4372 0
-4507 75 0
-4507 -3477 0
4507 -75 3477 0
-4508 -1055 3894 0
-4508 1055 -3894 0
4508 1055 3894 0
4508 -1055 -3894 0
-4509 -1086 3567 0
-4509 1086 -3567 0
4509 1086 3567 0
4509 -1086 -3567 0
-4510 2197 0
-4510 -1697 0
4510 -2197 1697 0
-4511 3386 0
-4511 4125 0
4511 -3386 -4125 0
-4512 1852 0
-4512 3516 0
4512 -1852 -3516 0
-4513 2974 0
-4513 -600 0
4513 -2974 600 0
-4514 -836 0
-4514 -3680 0
4514 836 3680 0
-4515 -1460 4475 0
-4515 1460 -4475 0
4515 1460 4475 0
4515 -1460 -4475 0
-4516 652 0
-4516 1214 0
4516 -652 -1214 0
-4517 3866 0
-4517 1108 0
4517 -3866 -1108 0
-4518 1217 0
-4518 3067 0
4518 -1217 -3067 0
-4519 3283 0
-4519 16 0
4519 -3283 -16 0
-4520 4255 0
-4520 -1557 0
4520 -4255 1557 0
-4521 -194 0
-4521 2254 0
4521 194 -2254 0
-4522 3212 0
-4522 -1859 0
4522 -3212 1859 0
-4523 -2269 0
-4523 -558 0
4523 2269 558 0
-4524 3710 -2765 0
-4524 -3710 2765 0
4524 -3710 -2765 0
4524 3710 2765 0
-4525 -2006 0
-4525 3313 0
4525 2006 -3313 0
-4526 3067 0
-4526 1383 0
4526 -3067 -1383 0
-4527 -2348 0
-4527 -3724 0
4527 2348 3724 0
-4528 -317 0
-4528 4391 0
4528 317 -4391 0
-4529 -1586 0
-4529 1112 0
4529 1586 -1112 0
-4530 -1499 0
-4530 2456 0
4530 1499 -2456 0
-4531 2647 0
-4531 3307 0
4531 -2647 -3307 0
-4532 -2279 -742 0
-4532 2279 742 0
4532 2279 -742 0
4532 -2279 742 0
-4533 -4515 0
-4533 -325 0
4533 4515 325 0
-4534 948 0
-4534 -891 0
4534 -948 891 0
-4535 2275 0
-4535 3887 0
4535 -2275 -3887 0
-4536 -431 0
-4536 -2440 0
4536 431 2440 0
-4537 -2805 2122 0
-4537 2805 -2122 0
4537 2805 2122 0
4537 -2805 -2122 0
-4538 -143 0
-4538 -2137 0
4538 143 2137 0
-4539 473 0
-4539 211 0
4539 -473 -211 0
-4540 3421 -2525 0
-4540 -3421 2525 0
4540 -3421 -2525 0
4540 3421 2525 0
-4541 -4436 -3945 0
-4541 4436 3945 0
4541 4436 -3945 0
4541 -4436 3945 0
-4542 -983 0
-4542 1629 0
4542 983 -1629 0
-4543 -3942 0
-4543 689 0
4543 3942 -689 0
-4544 1387 0
-4544 3211 0
4544 -1387 -3211 0
-4545 1947 0
-4545 -929 0
4545 -1947 929 0
-4546 667 -2980 0
-4546 -667 2980 0
4546 -667 -2980 0
4546 667 2980 0
-4547 53 0
-4547 -1073 0
4547 -53 1073 0
-4548 2107 0
-4548 3777 0
4548 -2107 -3777 0
-4549 -876 0
-4549 1409 0
4549 876 -1409 0
-4550 1755 0
-4550 2098 0
4550 -1755 -2098 0
-4551 149 -207 0
-4551 -149 207 0
4551 -149 -207 0
4551 149 207 0
-4552 3358 0
-4552 -2303 0
4552 -3358 2303 0
-4553 2426 0
-4553 3157 0
4553 -2426 -3157 0
-4554 -3153 -4259 0
-4554 3153 4259 0
4554 3153 -4259 0
4554 -3153 4259 0
-4555 2238 0
-4555 3691 0
4555 -2238 -3691 0
-4556 4494 0
-4556 2071 0
4556 -4494 -2071 0
-4557 1234 0
-4557 2442 0
4557 -1234 -2442 0
-4558 2614 0
-4558 381 0
4558 -2614 -381 0
-4559 583 0
-4559 1490 0
4559 -583 -1490 0
-4560 -511 0
-4560 2460 0
4560 511 -2460 0
-4561 2317 0
-4561 -59 0
4561 -2317 59 0
-4562 4173 0
-4562 -4166 0
4562 -4173 4166 0
-4563 2938 3891 0
-4563 -2938 -3891 0
4563 -2938 3891 0
4563 2938 -3891 0
-4564 -4063 -44 0
-4564 4063 44 0
4564 4063 -44 0
4564 -4063 44 0
-4565 2572 0
-4565 -1855 0
4565 -2572 1855 0
-4566 2775 -160 0
-4566 -2775 160 0
4566 -2775 -160 0
4566 2775 160 0
-4567 1594 0
-4567 4329 0
4567 -1594 -4329 0
-4568 1189 0
-4568 3593 0
4568 -1189 -3593 0
-4569 4414 0
-4569 -3983 0
4569 -4414 3983 0
-4570 4190 2080 0
-4570 -4190 -2080 0
4570 -4190 2080 0
4570 4190 -2080 0
-4571 -2956 0
-4571 -4178 0
4571 2956 4178 0
-4572 694 0
-4572 -1329 0
4572 -694 1329 0
-4573 -540 0
-4573 -2170 0
4573 540 2170 0
-4574 -2562 0
-4574 -4542 0
4574 2562 4542 0
-4575 1286 0
-4575 -2169 0
4575 -1286 2169 0
-4576 -2869 0
-4576 4557 0
4576 2869 -4557 0
-4577 2880 0
-4577 2660 0
4577 -2880 -2660 0
-4578 -4381 0
-4578 2016 0
4578 4381 -2016 0
-4579 -1840 0
-4579 -2329 0
4579 1840 2329 0
-4580 1057 0
-4580 2788 0
4580 -1057 -2788 0
-4581 4351 -1396 0
-4581 -4351 1396 0
4581 -4351 -1396 0
4581 4351 1396 0
-4582 -1133 0
-4582 7 0
4582 1133 -7 0
-4583 3020 0
-4583 -1115 0
4583 -3020 1115 0
-4584 -3693 0
-4584 42 0
4584 3693 -42 0
-4585 4054 0
-4585 847 0
4585 -4054 -847 0
-4586 227 0
-4586 -3620 0
4586 -227 3620 0
-4587 -1206 0
-4587 3535 0
4587 1206 -3535 0
-4588 2587 0
-4588 -622 0
4588 -2587 622 0
-4589 -4110 0
-4589 3747 0
4589 4110 -3747 0
-4590 -2381 0
-4590 1591 0
4590 2381 -1591 0
-4591 -1887 -873 0
-4591 1887 873 0
4591 1887 -873 0
4591 -1887 873 0
-4592 -4104 3786 0
-4592 4104 -3786 0
4592 4104 3786 0
4592 -4104 -3786 0
-4593 64 -95 0
-4593 -64 95 0
4593 -64 -95 0
4593 64 95 0
-4594 -3731 0
-4594 -3958 0
4594 3731 3958 0
-4595 2683 0
-4595 2762 0
4595 -2683 -2762 0
-4596 -2919 -1941 0
-4596 2919 1941 0
4596 2919 -1941 0
4596 -2919 1941 0
-4597 -3103 0
-4597 1295 0
4597 3103 -1295 0
-4598 -3598 401 0
-4598 3598 -401 0
4598 3598 401 0
4598 -3598 -401 0
-4599 -186 0
-4599 -1069 0
4599 186 1069 0
-4600 3481 -153 0
-4600 -3481 153 0
4600 -3481 -153 0
4600 3481 153 0
-4601 3147 0
-4601 -1742 0
4601 -3147 1742 0
-4602 3833 0
-4602 -2716 0
4602 -3833 2716 0
-4603 -3395 0
-4603 -3590 0
4603 3395 3590 0
-4604 -4186 0
-4604 3497 0
4604 4186 -3497 0
-4605 3055 0
-4605 3100 0
4605 -3055 -3100 0
-4606 -2210 0
-4606 -445 0
4606 2210 445 0
-4607 -4325 673 0
-4607 4325 -673 0
4607 4325 673 0
4607 -4325 -673 0
-4608 -668 0
-4608 -2937 0
4608 668 2937 0
-4609 -3739 0
-4609 -267 0
4609 3739 267 0
-4610 4600 -3359 0
-4610 -4600 3359 0
4610 -4600 -3359 0
4610 4600 3359 0
-4611 -2386 0
-4611 3135 0
4611 2386 -3135 0
-4612 -1578 662 0
-4612 1578 -662 0
4612 1578 662 0
4612 -1578 -662 0
-4613 -3288 4441 0
-4613 3288 -4441 0
4613 3288 4441 0
4613 -3288 -4441 0
-4614 -2640 0
-4614 -432 0
4614 2640 432 0
-4615 -1183 0
-4615 -609 0
4615 1183 609 0
-4616 871 0
-4616 381 0
4616 -871 -381 0
-4617 -2597 0
-4617 1344 0
4617 2597 -1344 0
-4618 4332 0
-4618 2866 0
4618 -4332 -2866 0
-4619 -4368 0
-4619 1685 0
4619 4368 -1685 0
-4620 1559 -13 0
-4620 -1559 13 0
4620 -1559 -13 0
4620 1559 13 0
-4621 -4041 0
-4621 -390 0
4621 4041 390 0
-4622 -2646 -2702 0
-4622 2646 2702 0
4622 2646 -2702 0
4622 -2646 2702 0
-4623 4135 0
-4623 2728 0
4623 -4135 -2728 0
-4624 -2952 858 0
-4624 2952 -858 0
4624 2952 858 0
4624 -2952 -858 0
-4625 2863 0
-4625 1471 0
4625 -2863 -1471 0
-4626 3611 1810 0
-4626 -3611 -1810 0
4626 -3611 1810 0
4626 3611 -1810 0
-4627 1465 1409 0
-4627 -1465 -1409 0
4627 -1465 1409 0
4627 1465 -1409 0
-4628 -1853 0
-4628 4529 0
4628 1853 -4529 0
-4629 3864 0
-4629 95 0
4629 -3864 -95 0
-4630 1648 0
-4630 110 0
4630 -1648 -110 0
-4631 -1405 -1302 0
-4631 1405 1302 0
4631 1405 -1302 0
4631 -1405 1302 0
-4632 -1401 0
-4632 692 0
4632 1401 -692 0
-4633 810 0
-4633 -4011 0
4633 -810 4011 0
-4634 -2682 0
-4634 3701 0
4634 2682 -3701 0
-4635 4233 0
-4635 157 0
4635 -4233 -157 0
-4636 -3120 -4532 0
-4636 3120 4532 0
4636 3120 -4532 0
4636 -3120 4532 0
-4637 -3869 0
-4637 1098 0
4637 3869 -1098 0
-4638 -449 0
-4638 -2079 0
4638 449 2079 0
-4639 -528 0
-4639 -3250 0
4639 528 3250 0
-4640 -873 0
-4640 920 0
4640 873 -920 0
-4641 2844 222 0
-4641 -2844 -222 0
4641 -2844 222 0
4641 2844 -222 0
-4642 1340 -4054 0
-4642 -1340 4054 0
4642 -1340 -4054 0
4642 1340 4054 0
-4643 2542 0
-4643 2273 0
4643 -2542 -2273 0
-4644 451 0
-4644 3901 0
4644 -451 -3901 0
-4645 -720 0
-4645 -2031 0
4645 720 2031 0
-4646 631 0
-4646 3529 0
4646 -631 -3529 0
-4647 3299 0
-4647 -159 0
4647 -3299 159 0
-4648 2363 0
-4648 839 0
4648 -2363 -839 0
-4649 -2972 -3685 0
-4649 2972 3685 0
4649 2972 -3685 0
4649 -2972 3685 0
-4650 1415 0
-4650 -89 0
4650 -1415 89 0
-4651 -2165 0
-4651 3299 0
4651 2165 -3299 0
-4652 468 0
-4652 -3961 0
4652 -468 3961 0
-4653 -363 0
-4653 3717 0
4653 363 -3717 0
-4654 -1516 0
-4654 -2664 0
4654 1516 2664 0
-4655 -935 0
-4655 -1104 0
4655 935 1104 0
-4656 -2627 0
-4656 806 0
4656 2627 -806 0
-4657 1970 0
-4657 2664 0
4657 -1970 -2664 0
-4658 3794 279 0
-4658 -3794 -279 0
4658 -3794 279 0
4658 3794 -279 0
-4659 2074 0
-4659 -3678 0
4659 -2074 3678 0
-4660 2799 0
-4660 3704 0
4660 -2799 -3704 0
-4661 -814 0
-4661 -4576 0
4661 814 4576 0
-4662 3223 1865 0
-4662 -3223 -1865 0
4662 -3223 1865 0
4662 3223 -1865 0
-4663 -2961 0
-4663 626 0
4663 2961 -626 0
-4664 -132 0
-4664 3253 0
4664 132 -3253 0
-4665 3384 0
-4665 -408 0
4665 -3384 408 0
-4666 -422 0
-4666 2463 0
4666 422 -2463 0
-4667 -2501 0
-4667 3004 0
4667 2501 -3004 0
-4668 -1262 0
-4668 -3036 0
4668 1262 3036 0
-4669 -600 0
-4669 -2169 0
4669 600 2169 0
-4670 1022 0
-4670 1171 0
4670 -1022 -1171 0
-4671 171 -1351 0
-4671 -171 1351 0
4671 -171 -1351 0
4671 171 1351 0
-4672 -3522 0
-4672 -2001 0
4672 3522 2001 0
-4673 2852 0
-4673 -4164 0
4673 -2852 4164 0
-4674 4197 0
-4674 3206 0
4674 -4197 -3206 0
-4675 4529 0
-4675 -1568 0
4675 -4529 1568 0
-4676 4582 0
-4676 1789 0
4676 -4582 -1789 0
-4677 -1737 0
-4677 2650 0
4677 1737 -2650 0
-4678 3868 0
-4678 -1455 0
4678 -3868 1455 0
-4679 2880 0
-4679 -1611 0
4679 -2880 1611 0
-4680 3152 -3583 0
-4680 -3152 3583 0
4680 -3152 -3583 0
4680 3152 3583 0
-4681 -1112 0
-4681 3158 0
4681 1112 -3158 0
-4682 3191 2942 0
-4682 -3191 -2942 0
4682 -3191 2942 0
4682 3191 -2942 0
-4683 4403 0
-4683 -4048 0
4683 -4403 4048 0
-4684 568 3719 0
-4684 -568 -3719 0
4684 -568 3719 0
4684 568 -3719 0
-4685 -4092 0
-4685 -343 0
4685 4092 343 0
-4686 -3190 0
-4686 2103 0
4686 3190 -2103 0
-4687 1864 1331 0
-4687 -1864 -1331 0
4687 -1864 1331 0
4687 1864 -1331 0
-4688 -4150 2075 0
-4688 4150 -2075 0
4688 4150 2075 0
4688 -4150 -2075 0
-4689 -2613 0
-4689 -2475 0
4689 2613 2475 0
-4690 4120 0
-4690 1405 0
4690 -4120 -1405 0
-4691 -1327 0
-4691 -50 0
4691 1327 50 0
-4692 -3383 0
-4692 -1318 0
4692 3383 1318 0
-4693 3129 0
-4693 2403 0
4693 -3129 -2403 0
-4694 2965 1422 0
-4694 -2965 -1422 0
4694 -2965 1422 0
4694 2965 -1422 0
-4695 1879 0
-4695 4431 0
4695 -1879 -4431 0
-4696 2200 0
-4696 2956 0
4696 -2200 -2956 0
-4697 -522 3509 0
-4697 522 -3509 0
4697 522 3509 0
4697 -522 -3509 0
-4698 -3965 0
-4698 -1958 0
4698 3965 1958 0
-4699 -4618 0
-4699 -2986 0
4699 4618 2986 0
-4700 -2558 0
-4700 -170 0
4700 2558 170 0
-4701 -827 0
-4701 2468 0
4701 827 -2468 0
-4702 -2939 0
-4702 -666 0
4702 2939 666 0
-4703 3712 0
-4703 2041 0
4703 -3712 -2041 0
-4704 539 -2371 0
-4704 -539 2371 0
4704 -539 -2371 0
4704 539 2371 0
-4705 1303 0
-4705 3633 0
4705 -1303 -3633 0
-4706 1688 0
-4706 4064 0
4706 -1688 -4064 0
-4707 4617 1718 0
-4707 -4617 -1718 0
4707 -4617 1718 0
4707 4617 -1718 0
-4708 370 -657 0
-4708 -370 657 0
4708 -370 -657 0
4708 370 657 0
-4709 3928 0
-4709 -4594 0
4709 -3928 4594 0
-4710 2333 0
-4710 3125 0
4710 -2333 -3125 0
-4711 -1764 0
-4711 -2769 0
4711 1764 2769 0
-4712 2220 0
-4712 4602 0
4712 -2220 -4602 0
-4713 -2786 0
-4713 -2847 0
4713 2786 2847 0
-4714 -678 3743 0
-4714 678 -3743 0
4714 678 3743 0
4714 -678 -3743 0
-4715 3077 1055 0
-4715 -3077 -1055 0
4715 -3077 1055 0
4715 3077 -1055 0
-4716 1557 0
-4716 -4511 0
4716 -1557 4511 0
-4717 -2965 0
-4717 -3388 0
4717 2965 3388 0
-4718 3055 0
-4718 2341 0
4718 -3055 -2341 0
-4719 -162 0
-4719 3520 0
4719 162 -3520 0
-4720 -3998 2363 0
-4720 3998 -2363 0
4720 3998 2363 0
4720 -3998 -2363 0
-4721 2058 0
-4721 -2823 0
4721 -2058 2823 0
-4722 2965 0
-4722 -3192 0
4722 -2965 3192 0
-4723 93 0
-4723 -3959 0
4723 -93 3959 0
-4724 -1130 2276 0
-4724 1130 -2276 0
4724 1130 2276 0
4724 -1130 -2276 0
-4725 -1560 0
-4725 -4291 0
4725 1560 4291 0
-4726 -4146 0
-4726 -2198 0
4726 4146 2198 0
-4727 2045 0
-4727 4422 0
4727 -2045 -4422 0
-4728 2563 0
-4728 -1210 0
4728 -2563 1210 0
-4729 2980 2225 0
-4729 -2980 -2225 0
4729 -2980 2225 0
4729 2980 -2225 0
-4730 1846 -1289 0
-4730 -1846 1289 0
4730 -1846 -1289 0
4730 1846 1289 0
-4731 -968 0
-4731 -4409 0
4731 968 4409 0
-4732 3079 0
-4732 2731 0
4732 -3079 -2731 0
-4733 2154 0
-4733 3529 0
4733 -2154 -3529 0
-4734 4037 0
-4734 766 0
4734 -4037 -766 0
-4735 -3823 0
-4735 -679 0
4735 3823 679 0
-4736 -2388 0
-4736 -3954 0
4736 2388 3954 0
-4737 -938 0
-4737 -4271 0
4737 938 4271 0
-4738 3063 0
-4738 -3044 0
4738 -3063 3044 0
-4739 -4204 3820 0
-4739 4204 -3820 0
4739 4204 3820 0
4739 -4204 -3820 0
-4740 -359 -4577 0
-4740 359 4577 0
4740 359 -4577 0
4740 -359 4577 0
-4741 -694 0
-4741 1655 0
4741 694 -1655 0
-4742 3403 0
-4742 -3920 0
4742 -3403 3920 0
-4743 3845 2412 0
-4743 -3845 -2412 0
4743 -3845 2412 0
4743 3845 -2412 0
-4744 -4523 0
-4744 -3370 0
4744 4523 3370 0
-4745 3168 0
-4745 -2637 0
4745 -3168 2637 0
-4746 585 0
-4746 -3370 0
4746 -585 3370 0
-4747 -3309 0
-4747 3672 0
4747 3309 -3672 0
-4748 -3184 -1807 0
-4748 3184 1807 0
4748 3184 -1807 0
4748 -3184 1807 0
-4749 2061 0
-4749 -3589 0
4749 -2061 3589 0
-4750 707 0
-4750 1737 0
4750 -707 -1737 0
-4751 563 0
-4751 1847 0
4751 -563 -1847 0
-4752 -2809 0
-4752 4430 0
4752 2809 -4430 0
-4753 1696 821 0
-4753 -1696 -821 0
4753 -1696 821 0
4753 1696 -821 0
-4754 -3745 0
-4754 -3961 0
4754 3745 3961 0
-4755 4513 0
-4755 -3559 0
4755 -4513 3559 0
-4756 -1159 0
-4756 -1973 0
4756 1159 1973 0
-4757 4751 0
-4757 867 0
4757 -4751 -867 0
-4758 2658 0
-4758 -3765 0
4758 -2658 3765 0
-4759 2123 0
-4759 -1412 0
4759 -2123 1412 0
-4760 896 4498 0
-4760 -896 -4498 0
4760 -896 4498 0
4760 896 -4498 0
-4761 4615 770 0
-4761 -4615 -770 0
4761 -4615 770 0
4761 4615 -770 0
-4762 297 0
-4762 -3939 0
4762 -297 3939 0
-4763 -1608 0
-4763 1419 0
4763 1608 -1419 0
-4764 -3975 0
-4764 2811 0
4764 3975 -2811 0
-4765 -4588 3947 0
-4765 4588 -3947 0
4765 4588 3947 0
4765 -4588 -3947 0
-4766 784 0
-4766 -704 0
4766 -784 704 0
-4767 481 0
-4767 2017 0
4767 -481 -2017 0
-4768 -986 -1616 0
-4768 986 1616 0
4768 986 -1616 0
4768 -986 1616 0
-4769 4036 412 0
-4769 -4036 -412 0
4769 -4036 412 0
4769 4036 -412 0
-4770 -842 0
-4770 3968 0
4770 842 -3968 0
-4771 978 -2534 0
-4771 -978 2534 0
4771 -978 -2534 0
4771 978 2534 0
-4772 -3024 0
-4772 -2565 0
4772 3024 2565 0
-4773 510 2675 0
-4773 -510 -2675 0
4773 -510 2675 0
4773 510 -2675 0
-4774 -3163 3036 0
-4774 3163 -3036 0
4774 3163 3036 0
4774 -3163 -3036 0
-4775 3218 0
-4775 3452 0
4775 -3218 -3452 0
-4776 2177 -362 0
-4776 -2177 362 0
4776 -2177 -362 0
4776 2177 362 0
-4777 2216 0
-4777 963 0
4777 -2216 -963 0
-4778 -700 0
-4778 -3684 0
4778 700 3684 0
-4779 -3965 -3081 0
-4779 3965 3081 0
4779 3965 -3081 0
4779 -3965 3081 0
-4780 -3537 0
-4780 4447 0
4780 3537 -4447 0
-4781 253 714 0
-4781 -253 -714 0
4781 -253 714 0
4781 253 -714 0
-4782 3581 0
-4782 289 0
4782 -3581 -289 0
-4783 4584 0
-4783 -964 0
4783 -4584 964 0
-4784 -2276 0
-4784 3800 0
4784 2276 -3800 0
-4785 -596 0
-4785 2140 0
4785 596 -2140 0
-4786 2717 2484 0
-4786 -2717 -2484 0
4786 -2717 2484 0
4786 2717 -2484 0
-4787 802 0
-4787 -1517 0
4787 -802 1517 0
-4788 -59 0
-4788 2278 0
4788 59 -2278 0
-4789 1013 0
-4789 -1041 0
4789 -1013 1041 0
-4790 2990 0
-4790 -1737 0
4790 -2990 1737 0
-4791 326 0
-4791 -1340 0
4791 -326 1340 0
-4792 -4732 0
-4792 1021 0
4792 4732 -1021 0
-4793 -2555 3046 0
-4793 2555 -3046 0
4793 2555 3046 0
4793 -2555 -3046 0
-4794 -2426 0
-4794 -4077 0
4794 2426 4077 0
-4795 4040 0
-4795 4369 0
4795 -4040 -4369 0
-4796 1949 0
-4796 -2685 0
4796 -1949 2685 0
-4797 -86 0
-4797 2230 0
4797 86 -2230 0
-4798 -3841 0
-4798 2346 0
4798 3841 -2346 0
-4799 -466 0
-4799 -2566 0
4799 466 2566 0
-4800 1717 -1410 0
-4800 -1717 1410 0
4800 -1717 -1410 0
4800 1717 1410 0
-4801 -224 0
-4801 1701 0
4801 224 -1701 0
-4802 -3143 0
-4802 -4574 0
4802 3143 4574 0
-4803 3378 -1342 0
-4803 -3378 1342 0
4803 -3378 -1342 0
4803 3378 1342 0
-4804 528 0
-4804 3389 0
4804 -528 -3389 0
-4805 3928 0
-4805 -962 0
4805 -3928 962 0
-4806 949 0
-4806 2215 0
4806 -949 -2215 0
-4807 -316 0
-4807 -2199 0
4807 316 2199 0
-4808 1797 0
-4808 -1399 0
4808 -1797 1399 0
-4809 954 0
-4809 3169 0
4809 -954 -3169 0
-4810 1866 0
-4810 1135 0
4810 -1866 -1135 0
-4811 699 0
-4811 909 0
4811 -699 -909 0
-4812 -530 0
-4812 -4648 0
4812 530 4648 0
-4813 -3667 0
-4813 2957 0
4813 3667 -2957 0
-4814 -2316 -835 0
-4814 2316 835 0
4814 2316 -835 0
4814 -2316 835 0
-4815 -406 0
-4815 3706 0
4815 406 -3706 0
-4816 -2190 0
-4816 3567 0
4816 2190 -3567 0
-4817 -3899 0
-4817 3874 0
4817 3899 -3874 0
-4818 -2188 0
-4818 -45 0
4818 2188 45 0
-4819 -865 0
-4819 -1785 0
4819 865 1785 0
-4820 4006 0
-4820 2901 0
4820 -4006 -2901 0
-4821 -1756 0
-4821 2820 0
4821 1756 -2820 0
-4822 4119 2350 0
-4822 -4119 -2350 0
4822 -4119 2350 0
4822 4119 -2350 0
-4823 -4171 0
-4823 -475 0
4823 4171 475 0
-4824 -17 0
-4824 2098 0
4824 17 -2098 0
-4825 3241 0
-4825 3050 0
4825 -3241 -3050 0
-4826 -296 0
-4826 -435 0
4826 296 435 0
-4827 3770 0
-4827 454 0
4827 -3770 -454 0
-4828 -4519 0
-4828 2533 0
4828 4519 -2533 0
-4829 4417 0
-4829 43 0
4829 -4417 -43 0
-4830 -816 0
-4830 -1373 0
4830 816 1373 0
-4831 -2273 324 0
-4831 2273 -324 0
4831 2273 324 0
4831 -2273 -324 0
-4832 -3181 0
-4832 -2409 0
4832 3181 2409 0
-4833 -2373 0
-4833 -2938 0
4833 2373 2938 0
-4834 199 -1334 0
-4834 -199 1334 0
4834 -199 -1334 0
4834 199 1334 0
-4835 -1668 -4741 0
-4835 1668 4741 0
4835 1668 -4741 0
4835 -1668 4741 0
-4836 1806 0
-4836 -4684 0
4836 -1806 4684 0
-4837 4181 3333 0
-4837 -4181 -3333 0
4837 -4181 3333 0
4837 4181 -3333 0
-4838 -820 -2805 0
-4838 820 2805 0
4838 820 -2805 0
4838 -820 2805 0
-4839 -2641 0
-4839 -3186 0
4839 2641 3186 0
-4840 -2485 0
-4840 -2282 0
4840 2485 2282 0
-4841 -870 0
-4841 -2276 0
4841 870 2276 0
-4842 -533 -2629 0
-4842 533 2629 0
4842 533 -2629 0
4842 -533 2629 0
-4843 2725 0
-4843 149 0
4843 -2725 -149 0
-4844 691 1030 0
-4844 -691 -1030 0
4844 -691 1030 0
4844 691 -1030 0
-4845 -2938 0
-4845 3686 0
4845 2938 -3686 0
-4846 3975 858 0
-4846 -3975 -858 0
4846 -3975 858 0
4846 3975 -858 0
-4847 -2813 0
-4847 413 0
4847 2813 -413 0
-4848 4094 0
-4848 -2877 0
4848 -4094 2877 0
-4849 2773 0
-4849 -627 0
4849 -2773 627 0
-4850 2260 3955 0
-4850 -2260 -3955 0
4850 -2260 3955 0
4850 2260 -3955 0
-4851 -1541 0
-4851 -3421 0
4851 1541 3421 0
-4852 1264 0
-4852 -2742 0
4852 -1264 2742 0
-4853 1048 0
-4853 1020 0
4853 -1048 -1020 0
-4854 1756 0
-4854 815 0
4854 -1756 -815 0
-4855 -740 0
-4855 3145 0
4855 740 -3145 0
-4856 621 0
-4856 -3719 0
4856 -621 3719 0
-4857 -3758 4027 0
-4857 3758 -4027 0
4857 3758 4027 0
4857 -3758 -4027 0
-4858 1038 0
-4858 -619 0
4858 -1038 619 0
-4859 1445 3412 0
-4859 -1445 -3412 0
4859 -1445 3412 0
4859 1445 -3412 0
-4860 -3878 0
-4860 -2593 0
4860 3878 2593 0
-4861 -23 0
-4861 -2153 0
4861 23 2153 0
-4862 4288 0
-4862 -429 0
4862 -4288 429 0
-4863 4372 0
-4863 -157 0
4863 -4372 157 0
-4864 713 0
-4864 1950 0
4864 -713 -1950 0
-4865 2790 3694 0
-4865 -2790 -3694 0
4865 -2790 3694 0
4865 2790 -3694 0
-4866 230 0
-4866 -3096 0
4866 -230 3096 0
-4867 -972 0
-4867 -2091 0
4867 972 2091 0
-4868 1315 0
-4868 4376 0
4868 -1315 -4376 0
-4869 -878 0
-4869 2 0
4869 878 -2 0
-4870 2066 0
-4870 -1856 0
4870 -2066 1856 0
-4871 -1861 0
-4871 -1687 0
4871 1861 1687 0
-4872 -4808 0
-4872 1989 0
4872 4808 -1989 0
-4873 -4850 0
-4873 1132 0
4873 4850 -1132 0
-4874 -1175 -847 0
-4874 1175 847 0
4874 1175 -847 0
4874 -1175 847 0
-4875 2328 4492 0
-4875 -2328 -4492 0
4875 -2328 4492 0
4875 2328 -4492 0
-4876 -1913 0
-4876 1540 0
4876 1913 -1540 0
-4877 1983 -1532 0
-4877 -1983 1532 0
4877 -1983 -1532 0
4877 1983 1532 0
-4878 3059 -2822 0
-4878 -3059 2822 0
4878 -3059 -2822 0
4878 3059 2822 0
-4879 -19 0
-4879 160 0
4879 19 -160 0
-4880 1395 0
-4880 -3192 0
4880 -1395 3192 0
-4881 2820 -3535 0
-4881 -2820 3535 0
4881 -2820 -3535 0
4881 2820 3535 0
-4882 -3295 0
-4882 -2913 0
4882 3295 2913 0
-4883 2726 0
-4883 1505 0
4883 -2726 -1505 0
-4884 2969 0
-4884 1488 0
4884 -2969 -1488 0
-4885 3300 0
-4885 -4134 0
4885 -3300 4134 0
-4886 3877 0
-4886 -2496 0
4886 -3877 2496 0
-4887 -1958 0
-4887 1464 0
4887 1958 -1464 0
-4888 -3131 0
-4888 3898 0
4888 3131 -3898 0
-4889 -3167 3488 0
-4889 3167 -3488 0
4889 3167 3488 0
4889 -3167 -3488 0
-4890 1561 0
-4890 3872 0
4890 -1561 -3872 0
-4891 -3895 0
-4891 -149 0
4891 3895 149 0
-4892 -4238 0
-4892 92 0
4892 4238 -92 0
-4893 -4758 0
-4893 -1576 0
4893 4758 1576 0
-4894 -3947 0
-4894 237 0
4894 3947 -237 0
-4895 -4304 0
-4895 3565 0
4895 4304 -3565 0
-4896 103 0
-4896 4431 0
4896 -103 -4431 0
-4897 4854 0
-4897 812 0
4897 -4854 -812 0
-4898 2333 2438 0
-4898 -2333 -2438 0
4898 -2333 2438 0
4898 2333 -2438 0
-4899 -454 2666 0
-4899 454 -2666 0
4899 454 2666 0
4899 -454 -2666 0
-4900 -3928 0
-4900 3664 0
4900 3928 -3664 0
-4901 757 -1640 0
-4901 -757 1640 0
4901 -757 -1640 0
4901 757 1640 0
-4902 1260 0
-4902 -3619 0
4902 -1260 3619 0
-4903 341 0
-4903 2059 0
4903 -341 -2059 0
-4904 -3206 0
-4904 -2663 0
4904 3206 2663 0
-4905 4697 3880 0
-4905 -4697 -3880 0
4905 -4697 3880 0
4905 4697 -3880 0
-4906 4851 0
-4906 -2568 0
4906 -4851 2568 0
-4907 -978 0
-4907 -2173 0
4907 978 2173 0
-4908 -1021 0
-4908 -4029 0
4908 1021 4029 0
-4909 864 2609 0
-4909 -864 -2609 0
4909 -864 2609 0
4909 864 -2609 0
-4910 1632 0
-4910 2530 0
4910 -1632 -2530 0
-4911 1975 0
-4911 -4517 0
4911 -1975 4517 0
-4912 -625 0
-4912 3438 0
4912 625 -3438 0
-4913 1170 0
-4913 1467 0
4913 -1170 -1467 0
-4914 3316 0
-4914 -911 0
4914 -3316 911 0
-4915 2060 0
-4915 4858 0
4915 -2060 -4858 0
-4916 -928 0
-4916 3324 0
4916 928 -3324 0
-4917 3081 0
-4917 -641 0
4917 -3081 641 0
-4918 -3825 0
-4918 -750 0
4918 3825 750 0
-4919 -2473 0
-4919 -165 0
4919 2473 165 0
-4920 443 0
-4920 -734 0
4920 -443 734 0
-4921 115 -40 0
-4921 -115 40 0
4921 -115 -40 0
4921 115 40 0
-4922 -85 1705 0
-4922 85 -1705 0
4922 85 1705 0
4922 -85 -1705 0
-4923 108 0
-4923 -318 0
4923 -108 318 0
-4924 109 -1841 0
-4924 -109 1841 0
4924 -109 -1841 0
4924 109 1841 0
-4925 4099 0
-4925 3173 0
4925 -4099 -3173 0
-4926 -3532 0
-4926 -702 0
4926 3532 702 0
-4927 2426 3636 0
-4927 -2426 -3636 0
4927 -2426 3636 0
4927 2426 -3636 0
-4928 53 0
-4928 2324 0
4928 -53 -2324 0
-4929 -2320 0
-4929 4833 0
4929 2320 -4833 0
-4930 -2307 1235 0
-4930 2307 -1235 0
4930 2307 1235 0
4930 -2307 -1235 0
-4931 3180 0
-4931 -1950 0
4931 -3180 1950 0
-4932 1508 0
-4932 2010 0
4932 -1508 -2010 0
-4933 -3562 -2032 0
-4933 3562 2032 0
4933 3562 -2032 0
4933 -3562 2032 0
-4934 -2453 -1275 0
-4934 2453 1275 0
4934 2453 -1275 0
4934 -2453 1275 0
-4935 -1803 734 0
-4935 1803 -734 0
4935 1803 734 0
4935 -1803 -734 0
-4936 -3279 0
-4936 1681 0
4936 3279 -1681 0
-4937 3863 0
-4937 -3886 0
4937 -3863 3886 0
-4938 -1505 0
-4938 -3283 0
4938 1505 3283 0
-4939 -2692 0
-4939 -633 0
4939 2692 633 0
-4940 -956 -1955 0
-4940 956 1955 0
4940 956 -1955 0
4940 -956 1955 0
-4941 1950 0
-4941 -4591 0
4941 -1950 4591 0
-4942 -1288 0
-4942 -4073 0
4942 1288 4073 0
-4943 179 0
-4943 -3217 0
4943 -179 3217 0
-4944 3903 0
-4944 -786 0
4944 -3903 786 0
-4945 2168 -1069 0
-4945 -2168 1069 0
4945 -2168 -1069 0
4945 2168 1069 0
-4946 4167 0
-4946 2949 0
4946 -4167 -2949 0
-4947 -2097 0
-4947 3323 0
4947 2097 -3323 0
-4948 -4208 0
-4948 -2999 0
4948 4208 2999 0
-4949 -4945 -1161 0
-4949 4945 1161 0
4949 4945 -1161 0
4949 -4945 1161 0
-4950 -2808 -1583 0
-4950 2808 1583 0
4950 2808 -1583 0
4950 -2808 1583 0
-4951 -2269 -1023 0
-4951 2269 1023 0
4951 2269 -1023 0
4951 -2269 1023 0
-4952 2669 18 0
-4952 -2669 -18 0
4952 -2669 18 0
4952 2669 -18 0
-4953 3632 4304 0
-4953 -3632 -4304 0
4953 -3632 4304 0
4953 3632 -4304 0
-4954 -2647 0
-4954 -2214 0
4954 2647 2214 0
-4955 -3096 0
-4955 4361 0
4955 3096 -4361 0
-4956 -2972 0
-4956 3910 0
4956 2972 -3910 0
-4957 -535 0
-4957 1314 0
4957 535 -1314 0
-4958 -4620 0
-4958 -4364 0
4958 4620 4364 0
-4959 2627 0
-4959 130 0
4959 -2627 -130 0
-4960 -3010 939 0
-4960 3010 -939 0
4960 3010 939 0
4960 -3010 -939 0
-4961 -1209 0
-4961 -4756 0
4961 1209 4756 0
-4962 4774 0
-4962 621 0
4962 -4774 -621 0
-4963 3932 0
-4963 410 0
4963 -3932 -410 0
-4964 -870 1343 0
-4964 870 -1343 0
4964 870 1343 0
4964 -870 -1343 0
-4965 -427 19 0
-4965 427 -19 0
4965 427 19 0
4965 -427 -19 0
-4966 984 4610 0
-4966 -984 -4610 0
4966 -984 4610 0
4966 984 -4610 0
-4967 -4507 0
-4967 -3040 0
4967 4507 3040 0
-4968 -4674 -2888 0
-4968 4674 2888 0
4968 4674 -2888 0
4968 -4674 2888 0
-4969 137 0
-4969 4377 0
4969 -137 -4377 0
-4970 3953 0
-4970 2326 0
4970 -3953 -2326 0
-4971 -4726 0
-4971 -2510 0
4971 4726 2510 0
-4972 662 0
-4972 -138 0
4972 -662 138 0
-4973 3253 0
-4973 -3990 0
4973 -3253 3990 0
-4974 -3306 3218 0
-4974 3306 -3218 0
4974 3306 3218 0
4974 -3306 -3218 0
-4975 2712 0
-4975 -2050 0
4975 -2712 2050 0
-4976 4393 0
-4976 2221 0
4976 -4393 -2221 0
-4977 2888 -4390 0
-4977 -2888 4390 0
4977 -2888 -4390 0
4977 2888 4390 0
-4978 -2091 -4817 0
-4978 2091 4817 0
4978 2091 -4817 0
4978 -2091 4817 0
-4979 3381 0
-4979 3952 0
4979 -3381 -3952 0
-4980 -3208 0
-4980 3836 0
4980 3208 -3836 0
-4981 -4885 0
-4981 3016 0
4981 4885 -3016 0
-4982 150 2878 0
-4982 -150 -2878 0
4982 -150 2878 0
4982 150 -2878 0
-4983 -4865 0
-4983 -4933 0
4983 4865 4933 0
-4984 -1724 0
-4984 -2010 0
4984 1724 2010 0
-4985 -4074 0
-4985 77 0
4985 4074 -77 0
-4986 3197 0
-4986 3041 0
4986 -3197 -3041 0
-4987 658 0
-4987 -3467 0
4987 -658 3467 0
-4988 -421 1784 0
-4988 421 -1784 0
4988 421 1784 0
4988 -421 -1784 0
-4989 -4240 0
-4989 3076 0
4989 4240 -3076 0
-4990 1637 -2104 0
-4990 -1637 2104 0
4990 -1637 -2104 0
4990 1637 2104 0
-4991 -101 0
-4991 4816 0
4991 101 -4816 0
-4992 752 0
-4992 -3671 0
4992 -752 3671 0
-4993 -4319 1710 0
-4993 4319 -1710 0
4993 4319 1710 0
4993 -4319 -1710 0
-4994 2826 -4335 0
-4994 -2826 4335 0
4994 -2826 -4335 0
4994 2826 4335 0
-4995 -942 0
-4995 -2552 0
4995 942 2552 0
-4996 -4749 0
-4996 3761 0
4996 4749 -3761 0
-4997 3525 0
-4997 782 0
4997 -3525 -782 0
-4998 4482 0
-4998 2859 0
4998 -4482 -2859 0
-4999 -4192 0
-4999 2753 0
4999 4192 -2753 0
-5000 -1822 3108 0
-5000 1822 -3108 0
5000 1822 3108 0
5000 -1822 -3108 0
-5001 -3151 0
-5001 -532 0
5001 3151 532 0
-5002 4248 -897 0
-5002 -4248 897 0
5002 -4248 -897 0
5002 4248 897 0
-5003 1281 185 0
-5003 -1281 -185 0
5003 -1281 185 0
5003 1281 -185 0
-5004 -2958 0
-5004 -4618 0
5004 2958 4618 0
-5005 -4248 0
-5005 -1438 0
5005 4248 1438 0
-5006 -3840 0
-5006 4237 0
5006 3840 -4237 0
-5007 991 0
-5007 1689 0
5007 -991 -1689 0
-5008 3486 0
-5008 1862 0
5008 -3486 -1862 0
-5009 -102 0
-5009 -2162 0
5009 102 2162 0
-5010 3461 0
-5010 2095 0
5010 -3461 -2095 0
-5011 -2216 384 0
-5011 2216 -384 0
5011 2216 384 0
5011 -2216 -384 0
-5012 -1128 -3563 0
-5012 1128 3563 0
5012 1128 -3563 0
5012 -1128 3563 0
-5013 -2472 0
-5013 995 0
5013 2472 -995 0
-5014 311 0
-5014 -4886 0
5014 -311 4886 0
-5015 942 0
-5015 2284 0
5015 -942 -2284 0
-5016 4900 0
-5016 1114 0
5016 -4900 -1114 0
-5017 2483 -1738 0
-5017 -2483 1738 0
5017 -2483 -1738 0
5017 2483 1738 0
-5018 -4191 0
-5018 4882 0
5018 4191 -4882 0
-5019 4468 0
-5019 -1557 0
5019 -4468 1557 0
-5020 2293 -1186 0
-5020 -2293 1186 0
5020 -2293 -1186 0
5020 2293 1186 0
-5021 -3329 0
-5021 -4065 0
5021 3329 4065 0
-5022 3533 0
-5022 4898 0
5022 -3533 -4898 0
-5023 -3919 0
-5023 -232 0
5023 3919 232 0
-5024 -3197 0
-5024 1288 0
5024 3197 -1288 0
-5025 2077 0
-5025 -4009 0
5025 -2077 4009 0
-5026 -2545 -4444 0
-5026 2545 4444 0
5026 2545 -4444 0
5026 -2545 4444 0
-5027 1715 0
-5027 -810 0
5027 -1715 810 0
-5028 -844 0
-5028 -1804 0
5028 844 1804 0
-5029 3618 0
-5029 1409 0
5029 -3618 -1409 0
-5030 3469 -854 0
-5030 -3469 854 0
5030 -3469 -854 0
5030 3469 854 0
-5031 -3497 0
-5031 2849 0
5031 3497 -2849 0
-5032 -1843 0
-5032 -365 0
5032 1843 365 0
-5033 3130 0
-5033 4066 0
5033 -3130 -4066 0
-5034 3814 0
-5034 1771 0
5034 -3814 -1771 0
-5035 -4683 0
-5035 725 0
5035 4683 -725 0
-5036 4879 0
-5036 2448 0
5036 -4879 -2448 0
-5037 3908 0
-5037 -3057 0
5037 -3908 3057 0
-5038 3912 -2018 0
-5038 -3912 2018 0
5038 -3912 -2018 0
5038 3912 2018 0
-5039 -440 0
-5039 4603 0
5039 440 -4603 0
-5040 -2978 0
-5040 -2542 0
5040 2978 2542 0
-5041 -862 0
-5041 3260 0
5041 862 -3260 0
-5042 -1386 0
-5042 1790 0
5042 1386 -1790 0
-5043 -1156 0
-5043 -3380 0
5043 1156 3380 0
-5044 -1279 0
-5044 -4399 0
5044 1279 4399 0
-5045 -4366 0
-5045 -2703 0
5045 4366 2703 0
-5046 912 0
-5046 -4784 0
5046 -912 4784 0
-5047 4913 0
-5047 2823 0
5047 -4913 -2823 0
-5048 -3769 2852 0
-5048 3769 -2852 0
5048 3769 2852 0
5048 -3769 -2852 0
-5049 4303 0
-5049 3859 0
5049 -4303 -3859 0
-5050 3298 274 0
-5050 -3298 -274 0
5050 -3298 274 0
5050 3298 -274 0
-5051 -3301 0
-5051 -1291 0
5051 3301 1291 0
-5052 4101 0
-5052 3873 0
5052 -4101 -3873 0
-5053 -2853 4053 0
-5053 2853 -4053 0
5053 2853 4053 0
5053 -2853 -4053 0
-5054 2807 0
-5054 -348 0
5054 -2807 348 0
-5055 2960 0
-5055 2533 0
5055 -2960 -2533 0
-5056 -4692 0
-5056 -4694 0
5056 4692 4694 0
-5057 2793 -4573 0
-5057 -2793 4573 0
5057 -2793 -4573 0
5057 2793 4573 0
-5058 4135 0
-5058 -2864 0
5058 -4135 2864 0
-5059 4127 0
-5059 -4807 0
5059 -4127 4807 0
-5060 -492 0
-5060 -834 0
5060 492 834 0
-5061 840 0
-5061 4803 0
5061 -840 -4803 0
-5062 -2462 1141 0
-5062 2462 -1141 0
5062 2462 1141 0
5062 -2462 -1141 0
-5063 4543 -1707 0
-5063 -4543 1707 0
5063 -4543 -1707 0
5063 4543 1707 0
-5064 2869 3925 0
-5064 -2869 -3925 0
5064 -2869 3925 0
5064 2869 -3925 0
-5065 2391 0
-5065 -3005 0
5065 -2391 3005 0
-5066 4357 7 0
-5066 -4357 -7 0
5066 -4357 7 0
5066 4357 -7 0
-5067 2236 0
-5067 -37 0
5067 -2236 37 0
-5068 -4884 0
-5068 4194 0
5068 4884 -4194 0
-5069 2543 0
-5069 1749 0
5069 -2543 -1749 0
-5070 4557 0
-5070 131 0
5070 -4557 -131 0
-5071 1568 0
-5071 -4622 0
5071 -1568 4622 0
-5072 -2904 -4530 0
-5072 2904 4530 0
5072 2904 -4530 0
5072 -2904 4530 0
-5073 1319 0
-5073 -4699 0
5073 -1319 4699 0
-5074 -3890 0
-5074 2593 0
5074 3890 -2593 0
-5075 3871 0
-5075 -1338 0
5075 -3871 1338 0
-5076 4878 -2843 0
-5076 -4878 2843 0
5076 -4878 -2843 0
5076 4878 2843 0
-5077 -4337 0
-5077 -4446 0
5077 4337 4446 0
-5078 3943 0
-5078 4843 0
5078 -3943 -4843 0
-5079 283 0
-5079 4403 0
5079 -283 -4403 0
-5080 -1136 0
-5080 -3825 0
5080 1136 3825 0
-5081 1745 0
-5081 3595 0
5081 -1745 -3595 0
-5082 1291 0
-5082 3624 0
5082 -1291 -3624 0
-5083 3928 0
-5083 -4658 0
5083 -3928 4658 0
-5084 920 0
-5084 -1208 0
5084 -920 1208 0
-5085 907 0
-5085 4307 0
5085 -907 -4307 0
-5086 1006 3521 0
-5086 -1006 -3521 0
5086 -1006 3521 0
5086 1006 -3521 0
-5087 2826 0
-5087 1832 0
5087 -2826 -1832 0
-5088 117 0
-5088 1263 0
5088 -117 -1263 0
-5089 -1009 0
-5089 760 0
5089 1009 -760 0
-5090 2447 -1355 0
-5090 -2447 1355 0
5090 -2447 -1355 0
5090 2447 1355 0
-5091 -4168 0
-5091 -1158 0
5091 4168 1158 0
-5092 -4140 0
-5092 1122 0
5092 4140 -1122 0
-5093 3318 0
-5093 3955 0
5093 -3318 -3955 0
-5094 -1618 954 0
-5094 1618 -954 0
5094 1618 954 0
5094 -1618 -954 0
-5095 -98 3122 0
-5095 98 -3122 0
5095 98 3122 0
5095 -98 -3122 0
-5096 4397 0
-5096 -3137 0
5096 -4397 3137 0
-5097 5039 0
-5097 -3123 0
5097 -5039 3123 0
-5098 -4137 0
-5098 -2123 0
5098 4137 2123 0
-5099 -793 0
-5099 -2984 0
5099 793 2984 0
-5100 -700 0
-5100 1042 0
5100 700 -1042 0
-5101 -2152 0
-5101 -627 0
5101 2152 627 0
-5102 -4754 0
-5102 -4182 0
5102 4754 4182 0
-5103 953 0
-5103 -367 0
5103 -953 367 0
-5104 -1046 0
-5104 -3455 0
5104 1046 3455 0
-5105 -2673 0
-5105 -667 0
5105 2673 667 0
-5106 -4315 1656 0
-5106 4315 -1656 0
5106 4315 1656 0
5106 -4315 -1656 0
-5107 4757 0
-5107 -9 0
5107 -4757 9 0
-5108 -4029 0
-5108 4656 0
5108 4029 -4656 0
-5109 -3070 0
-5109 -3324 0
5109 3070 3324 0
-5110 3045 -348 0
-5110 -3045 348 0
5110 -3045 -348 0
5110 3045 348 0
-5111 3893 0
-5111 1847 0
5111 -3893 -1847 0
-5112 -4542 0
-5112 -364 0
5112 4542 364 0
-5113 -2411 0
-5113 -2591 0
5113 2411 2591 0
-5114 -4161 0
-5114 2517 0
5114 4161 -2517 0
-5115 29 0
-5115 222 0
5115 -29 -222 0
-5116 2864 0
-5116 -4010 0
5116 -2864 4010 0
-5117 -2155 0
-5117 3102 0
5117 2155 -3102 0
-5118 4876 -2818 0
-5118 -4876 2818 0
5118 -4876 -2818 0
5118 4876 2818 0
-5119 -1544 0
-5119 2575 0
5119 1544 -2575 0
-5120 -888 -4439 0
-5120 888 4439 0
5120 888 -4439 0
5120 -888 4439 0
-5121 -2251 2344 0
-5121 2251 -2344 0
5121 2251 2344 0
5121 -2251 -2344 0
-5122 -1205 0
-5122 -2300 0
5122 1205 2300 0
-5123 -2750 0
-5123 -2753 0
5123 2750 2753 0
-5124 -3807 2662 0
-5124 3807 -2662 0
5124 3807 2662 0
5124 -3807 -2662 0
-5125 -3694 0
-5125 -380 0
5125 3694 380 0
-5126 -2134 0
-5126 -2576 0
5126 2134 2576 0
-5127 -1900 -1485 0
-5127 1900 1485 0
5127 1900 -1485 0
5127 -1900 1485 0
-5128 -1990 0
-5128 -1461 0
5128 1990 1461 0
-5129 -3701 1224 0
-5129 3701 -1224 0
5129 3701 1224 0
5129 -3701 -1224 0
-5130 -2848 2321 0
-5130 2848 -2321 0
5130 2848 2321 0
5130 -2848 -2321 0
-5131 -2470 0
-5131 2195 0
5131 2470 -2195 0
-5132 -3453 0
-5132 -2135 0
5132 3453 2135 0
-5133 -2397 0
-5133 -4166 0
5133 2397 4166 0
-5134 -5002 0
-5134 2016 0
5134 5002 -2016 0
-5135 -3745 450 0
-5135 3745 -450 0
5135 3745 450 0
5135 -3745 -450 0
-5136 327 0
-5136 4828 0
5136 -327 -4828 0
-5137 1793 0
-5137 4211 0
5137 -1793 -4211 0
-5138 -5097 0
-5138 2828 0
5138 5097 -2828 0
-5139 1534 0
-5139 -3650 0
5139 -1534 3650 0
-5140 4867 0
-5140 4519 0
5140 -4867 -4519 0
-5141 1231 0
-5141 4344 0
5141 -1231 -4344 0
-5142 2460 0
-5142 4944 0
5142 -2460 -4944 0
-5143 -77 0
-5143 4172 0
5143 77 -4172 0
-5144 -1790 0
-5144 -1738 0
5144 1790 1738 0
-5145 -2617 0
-5145 1143 0
5145 2617 -1143 0
-5146 4690 0
-5146 -4502 0
5146 -4690 4502 0
-5147 4117 0
-5147 1134 0
5147 -4117 -1134 0
-5148 -3220 0
-5148 775 0
5148 3220 -775 0
-5149 -1928 2464 0
-5149 1928 -2464 0
5149 1928 2464 0
5149 -1928 -2464 0
-5150 -1220 1221 0
-5150 1220 -1221 0
5150 1220 1221 0
5150 -1220 -1221 0
-5151 -4523 0
-5151 -4614 0
5151 4523 4614 0
-5152 3673 0
-5152 3605 0
5152 -3673 -3605 0
-5153 5098 0
-5153 -2800 0
5153 -5098 2800 0
-5154 2433 0
-5154 1229 0
5154 -2433 -1229 0
-5155 -830 -1735 0
-5155 830 1735 0
5155 830 -1735 0
5155 -830 1735 0
-5156 4004 0
-5156 -4208 0
5156 -4004 4208 0
-5157 2706 0
-5157 87 0
5157 -2706 -87 0
-5158 -366 0
-5158 2634 0
5158 366 -2634 0
-5159 -32 0
-5159 -82 0
5159 32 82 0
-5160 4872 0
-5160 1128 0
5160 -4872 -1128 0
-5161 1253 0
-5161 -492 0
5161 -1253 492 0
-5162 2651 5004 0
-5162 -2651 -5004 0
5162 -2651 5004 0
5162 2651 -5004 0
-5163 3679 0
-5163 1771 0
5163 -3679 -1771 0
-5164 255 0
-5164 4987 0
5164 -255 -4987 0
-5165 -4815 0
-5165 -1310 0
5165 4815 1310 0
-5166 28 -2614 0
-5166 -28 2614 0
5166 -28 -2614 0
5166 28 2614 0
-5167 3328 0
-5167 -5159 0
5167 -3328 5159 0
-5168 -3584 0
-5168 3335 0
5168 3584 -3335 0
-5169 -742 0
-5169 -853 0
5169 742 853 0
-5170 -814 3754 0
-5170 814 -3754 0
5170 814 3754 0
5170 -814 -3754 0
-5171 1816 0
-5171 4469 0
5171 -1816 -4469 0
-5172 2227 -2824 0
-5172 -2227 2824 0
5172 -2227 -2824 0
5172 2227 2824 0
-5173 -1733 4497 0
-5173 1733 -4497 0
5173 1733 4497 0
5173 -1733 -4497 0
-5174 3950 0
-5174 2110 0
5174 -3950 -2110 0
-5175 2272 -5098 0
-5175 -2272 5098 0
5175 -2272 -5098 0
5175 2272 5098 0
-5176 -1664 0
-5176 571 0
5176 1664 -571 0
-5177 3890 0
-5177 -5127 0
5177 -3890 5127 0
-5178 -727 0
-5178 1676 0
5178 727 -1676 0
-5179 2192 -2337 0
-5179 -2192 2337 0
5179 -2192 -2337 0
5179 2192 2337 0
-5180 -5049 0
-5180 -2359 0
5180 5049 2359 0
-5181 -776 0
-5181 602 0
5181 776 -602 0
-5182 -752 0
-5182 -3162 0
5182 752 3162 0
-5183 -1672 916 0
-5183 1672 -916 0
5183 1672 916 0
5183 -1672 -916 0
-5184 -1199 0
-5184 3709 0
5184 1199 -3709 0
-5185 2325 0
-5185 4176 0
5185 -2325 -4176 0
-5186 3309 -5031 0
-5186 -3309 5031 0
5186 -3309 -5031 0
5186 3309 5031 0
-5187 -849 0
-5187 -4490 0
5187 849 4490 0
-5188 1653 0
-5188 -5116 0
5188 -1653 5116 0
-5189 4841 0
-5189 778 0
5189 -4841 -778 0
-5190 -2025 -4006 0
-5190 2025 4006 0
5190 2025 -4006 0
5190 -2025 4006 0
-5191 -2354 -2033 0
-5191 2354 2033 0
5191 2354 -2033 0
5191 -2354 2033 0
-5192 -4820 -4016 0
-5192 4820 4016 0
5192 4820 -4016 0
5192 -4820 4016 0
-5193 -4959 0
-5193 -3494 0
5193 4959 3494 0
-5194 -842 0
-5194 -3363 0
5194 842 3363 0
-5195 1286 0
-5195 -1181 0
5195 -1286 1181 0
-5196 4143 0
-5196 -2794 0
5196 -4143 2794 0
-5197 -2736 -836 0
-5197 2736 836 0
5197 2736 -836 0
5197 -2736 836 0
-5198 5161 0
-5198 2907 0
5198 -5161 -2907 0
-5199 1775 4562 0
-5199 -1775 -4562 0
5199 -1775 4562 0
5199 1775 -4562 0
-5200 4214 0
-5200 -2240 0
5200 -4214 2240 0
-5201 3877 0
-5201 -4004 0
5201 -3877 4004 0
-5202 -2826 0
-5202 -5108 0
5202 2826 5108 0
-5203 -3746 0
-5203 3229 0
5203 3746 -3229 0
-5204 4301 0
-5204 -21 0
5204 -4301 21 0
-5205 3694 -1265 0
-5205 -3694 1265 0
5205 -3694 -1265 0
5205 3694 1265 0
-5206 -2180 0
-5206 26 0
5206 2180 -26 0
-5207 -632 0
-5207 -1608 0
5207 632 1608 0
-5208 -2082 0
-5208 651 0
5208 2082 -651 0
-5209 -5023 0
-5209 -3817 0
5209 5023 3817 0
-5210 -235 4451 0
-5210 235 -4451 0
5210 235 4451 0
5210 -235 -4451 0
-5211 5122 0
-5211 2543 0
5211 -5122 -2543 0
-5212 -403 0
-5212 2593 0
5212 403 -2593 0
-5213 1078 0
-5213 3186 0
5213 -1078 -3186 0
-5214 -464 0
-5214 -4874 0
5214 464 4874 0
-5215 4485 0
-5215 -857 0
5215 -4485 857 0
-5216 -2156 0
-5216 2795 0
5216 2156 -2795 0
-5217 -4830 0
-5217 1523 0
5217 4830 -1523 0
-5218 3869 0
-5218 -4148 0
5218 -3869 4148 0
-5219 -2048 -1596 0
-5219 2048 1596 0
5219 2048 -1596 0
5219 -2048 1596 0
-5220 -597 0
-5220 -935 0
5220 597 935 0
-5221 -826 0
-5221 -1503 0
5221 826 1503 0
-5222 -4313 -4578 0
-5222 4313 4578 0
5222 4313 -4578 0
5222 -4313 4578 0
-5223 -714 0
-5223 1978 0
5223 714 -1978 0
-5224 1600 0
-5224 3545 0
5224 -1600 -3545 0
-5225 307 0
-5225 1483 0
5225 -307 -1483 0
-5226 578 0
-5226 3695 0
5226 -578 -3695 0
-5227 -2316 4124 0
-5227 2316 -4124 0
5227 2316 4124 0
5227 -2316 -4124 0
-5228 -1104 4342 0
-5228 1104 -4342 0
5228 1104 4342 0
5228 -1104 -4342 0
-5229 -714 0
-5229 4545 0
5229 714 -4545 0
-5230 2704 0
-5230 -2007 0
5230 -2704 2007 0
-5231 -3101 0
-5231 1693 0
5231 3101 -1693 0
-5232 3624 3959 0
-5232 -3624 -3959 0
5232 -3624 3959 0
5232 3624 -3959 0
-5233 -1330 0
-5233 -2291 0
5233 1330 2291 0
-5234 -4940 0
-5234 1758 0
5234 4940 -1758 0
-5235 4189 0
-5235 3097 0
5235 -4189 -3097 0
-5236 4532 0
-5236 -3735 0
5236 -4532 3735 0
-5237 4191 0
-5237 -2088 0
5237 -4191 2088 0
-5238 -3754 0
-5238 -3035 0
5238 3754 3035 0
-5239 -983 0
-5239 -1380 0
5239 983 1380 0
-5240 4891 0
-5240 -2648 0
5240 -4891 2648 0
-5241 543 0
-5241 1990 0
5241 -543 -1990 0
-5242 475 130 0
-5242 -475 -130 0
5242 -475 130 0
5242 475 -130 0
-5243 1570 -4244 0
-5243 -1570 4244 0
5243 -1570 -4244 0
5243 1570 4244 0
-5244 1493 -4157 0
-5244 -1493 4157 0
5244 -1493 -4157 0
5244 1493 4157 0
-5245 -4064 0
-5245 -2312 0
5245 4064 2312 0
-5246 -2753 0
-5246 -4236 0
5246 2753 4236 0
-5247 4809 0
-5247 -4125 0
5247 -4809 4125 0
-5248 325 0
-5248 2967 0
5248 -325 -2967 0
-5249 -3290 4939 0
-5249 3290 -4939 0
5249 3290 4939 0
5249 -3290 -4939 0
-5250 3336 0
-5250 1496 0
5250 -3336 -1496 0
-5251 -3783 0
-5251 2272 0
5251 3783 -2272 0
-5252 -4709 0
-5252 473 0
5252 4709 -473 0
-5253 -4143 0
-5253 -533 0
5253 4143 533 0
-5254 3308 0
-5254 -2235 0
5254 -3308 2235 0
-5255 4876 0
-5255 593 0
5255 -4876 -593 0
-5256 -4093 0
-5256 580 0
5256 4093 -580 0
-5257 -1551 0
-5257 2091 0
5257 1551 -2091 0
-5258 1800 0
-5258 -378 0
5258 -1800 378 0
-5259 652 0
-5259 -4776 0
5259 -652 4776 0
-5260 4492 0
-5260 -4534 0
5260 -4492 4534 0
-5261 -1475 0
-5261 4979 0
5261 1475 -4979 0
-5262 -2436 0
-5262 2134 0
5262 2436 -2134 0
-5263 2596 0
-5263 -2152 0
5263 -2596 2152 0
-5264 -2046 0
-5264 37 0
5264 2046 -37 0
-5265 -51 82 0
-5265 51 -82 0
5265 51 82 0
5265 -51 -82 0
-5266 102 0
-5266 -741 0
5266 -102 741 0
-5267 -2486 0
-5267 682 0
5267 2486 -682 0
-5268 847 0
-5268 3630 0
5268 -847 -3630 0
-5269 5133 0
-5269 -292 0
5269 -5133 292 0
-5270 289 0
-5270 2128 0
5270 -289 -2128 0
-5271 3060 0
-5271 -1883 0
5271 -3060 1883 0
-5272 -974 0
-5272 243 0
5272 974 -243 0
-5273 -1061 0
-5273 -3315 0
5273 1061 3315 0
-5274 1976 0
-5274 -1057 0
5274 -1976 1057 0
-5275 4528 0
-5275 1696 0
5275 -4528 -1696 0
-5276 -2881 4025 0
-5276 2881 -4025 0
5276 2881 4025 0
5276 -2881 -4025 0
-5277 -4263 0
-5277 2268 0
5277 4263 -2268 0
-5278 3734 0
-5278 322 0
5278 -3734 -322 0
-5279 1824 0
-5279 -4583 0
5279 -1824 4583 0
-5280 -4724 0
-5280 2494 0
5280 4724 -2494 0
-5281 1183 0
-5281 5073 0
5281 -1183 -5073 0
-5282 4533 0
-5282 5163 0
5282 -4533 -5163 0
-5283 687 0
-5283 1995 0
5283 -687 -1995 0
-5284 -2837 0
-5284 -3118 0
5284 2837 3118 0
-5285 958 4501 0
-5285 -958 -4501 0
5285 -958 4501 0
5285 958 -4501 0
-5286 -4398 0
-5286 -3873 0
5286 4398 3873 0
-5287 4619 0
-5287 2360 0
5287 -4619 -2360 0
-5288 -4893 4097 0
-5288 4893 -4097 0
5288 4893 4097 0
5288 -4893 -4097 0
-5289 2890 975 0
-5289 -2890 -975 0
5289 -2890 975 0
5289 2890 -975 0
-5290 652 0
-5290 -4912 0
5290 -652 4912 0
-5291 -2703 0
-5291 -2963 0
5291 2703 2963 0
-5292 -3177 -3566 0
-5292 3177 3566 0
5292 3177 -3566 0
5292 -3177 3566 0
-5293 -1764 0
-5293 -3931 0
5293 1764 3931 0
-5294 1813 1465 0
-5294 -1813 -1465 0
5294 -1813 1465 0
5294 1813 -1465 0
-5295 2934 0
-5295 2015 0
5295 -2934 -2015 0
-5296 4313 0
-5296 177 0
5296 -4313 -177 0
-5297 1963 0
-5297 2602 0
5297 -1963 -2602 0
-5298 -602 0
-5298 4862 0
5298 602 -4862 0
-5299 -578 0
-5299 4845 0
5299 578 -4845 0
-5300 -3904 0
-5300 4964 0
5300 3904 -4964 0
-5301 3258 0
-5301 -3564 0
5301 -3258 3564 0
-5302 -4754 -932 0
-5302 4754 932 0
5302 4754 -932 0
5302 -4754 932 0
-5303 5132 0
-5303 417 0
5303 -5132 -417 0
-5304 4693 2374 0
-5304 -4693 -2374 0
5304 -4693 2374 0
5304 4693 -2374 0
-5305 3368 0
-5305 2537 0
5305 -3368 -2537 0
-5306 3511 0
-5306 -4891 0
5306 -3511 4891 0
-5307 126 0
-5307 -826 0
5307 -126 826 0
-5308 -467 0
-5308 117 0
5308 467 -117 0
-5309 -5193 0
-5309 1557 0
5309 5193 -1557 0
-5310 1916 -460 0
-5310 -1916 460 0
5310 -1916 -460 0
5310 1916 460 0
-5311 -2763 0
-5311 3724 0
5311 2763 -3724 0
-5312 -3074 4221 0
-5312 3074 -4221 0
5312 3074 4221 0
5312 -3074 -4221 0
-5313 -200 0
-5313 2073 0
5313 200 -2073 0
-5314 -3685 0
-5314 3637 0
5314 3685 -3637 0
-5315 -803 0
-5315 3224 0
5315 803 -3224 0
-5316 4765 0
-5316 -3407 0
5316 -4765 3407 0
-5317 4394 0
-5317 -2335 0
5317 -4394 2335 0
-5318 -3236 0
-5318 -1216 0
5318 3236 1216 0
-5319 -5222 0
-5319 -2321 0
5319 5222 2321 0
-5320 -3853 0
-5320 1480 0
5320 3853 -1480 0
-5321 4720 0
-5321 -2575 0
5321 -4720 2575 0
-5322 -2364 -2951 0
-5322 2364 2951 0
5322 2364 -2951 0
5322 -2364 2951 0
-5323 -3588 0
-5323 1794 0
5323 3588 -1794 0
-5324 -2156 0
-5324 203 0
5324 2156 -203 0
-5325 3766 0
-5325 4031 0
5325 -3766 -4031 0
-5326 -2282 0
-5326 -1621 0
5326 2282 1621 0
-5327 3757 3011 0
-5327 -3757 -3011 0
5327 -3757 3011 0
5327 3757 -3011 0
-5328 2003 0
-5328 4056 0
5328 -2003 -4056 0
-5329 4562 0
-5329 -1125 0
5329 -4562 1125 0
-5330 959 0
-5330 3927 0
5330 -959 -3927 0
-5331 -772 69 0
-5331 772 -69 0
5331 772 69 0
5331 -772 -69 0
-5332 2023 0
-5332 -1828 0
5332 -2023 1828 0
-5333 1637 0
-5333 2674 0
5333 -1637 -2674 0
-5334 232 0
-5334 2183 0
5334 -232 -2183 0
-5335 2525 0
-5335 -2966 0
5335 -2525 2966 0
-5336 -3420 -4216 0
-5336 3420 4216 0
5336 3420 -4216 0
5336 -3420 4216 0
-5337 3125 0
-5337 -4520 0
5337 -3125 4520 0
-5338 -5122 -2508 0
-5338 5122 2508 0
5338 5122 -2508 0
5338 -5122 2508 0
-5339 -4182 0
-5339 4103 0
5339 4182 -4103 0
-5340 -5127 0
-5340 2864 0
5340 5127 -2864 0
-5341 -4211 0
-5341 1111 0
5341 4211 -1111 0
-5342 -2859 0
-5342 -2 0
5342 2859 2 0
-5343 5261 0
-5343 -1282 0
5343 -5261 1282 0
-5344 -4723 -2527 0
-5344 4723 2527 0
5344 4723 -2527 0
5344 -4723 2527 0
-5345 -4211 0
-5345 1671 0
5345 4211 -1671 0
-5346 2346 0
-5346 1146 0
5346 -2346 -1146 0
-5347 -3131 -2813 0
-5347 3131 2813 0
5347 3131 -2813 0
5347 -3131 2813 0
-5348 -2516 0
-5348 -3033 0
5348 2516 3033 0
-5349 -1742 0
-5349 2007 0
5349 1742 -2007 0
-5350 -431 0
-5350 3341 0
5350 431 -3341 0
-5351 3810 0
-5351 -2220 0
5351 -3810 2220 0
-5352 -5234 0
-5352 3209 0
5352 5234 -3209 0
-5353 4723 0
-5353 -2315 0
5353 -4723 2315 0
-5354 408 0
-5354 2651 0
5354 -408 -2651 0
-5355 4753 -414 0
-5355 -4753 414 0
5355 -4753 -414 0
5355 4753 414 0
-5356 -2978 0
-5356 4536 0
5356 2978 -4536 0
-5357 -616 0
-5357 2406 0
5357 616 -2406 0
-5358 -861 0
-5358 -206 0
5358 861 206 0
-5359 -5270 0
-5359 -5025 0
5359 5270 5025 0
-5360 606 5301 0
-5360 -606 -5301 0
5360 -606 5301 0
5360 606 -5301 0
-5361 4605 0
-5361 -2558 0
5361 -4605 2558 0
-5362 2336 -1494 0
-5362 -2336 1494 0
5362 -2336 -1494 0
5362 2336 1494 0
-5363 2698 -2709 0
-5363 -2698 2709 0
5363 -2698 -2709 0
5363 2698 2709 0
-5364 5202 0
-5364 1861 0
5364 -5202 -1861 0
-5365 3897 0
-5365 1263 0
5365 -3897 -1263 0
-5366 2966 0
-5366 3642 0
5366 -2966 -3642 0
-5367 1737 0
-5367 5153 0
5367 -1737 -5153 0
-5368 -4596 0
-5368 -2690 0
5368 4596 2690 0
-5369 665 -1350 0
-5369 -665 1350 0
5369 -665 -1350 0
5369 665 1350 0
-5370 -4505 0
-5370 -800 0
5370 4505 800 0
-5371 -5064 0
-5371 383 0
5371 5064 -383 0
-5372 -5259 0
-5372 1561 0
5372 5259 -1561 0
-5373 -4132 0
-5373 3181 0
5373 4132 -3181 0
-5374 2195 0
-5374 -2495 0
5374 -2195 2495 0
-5375 -979 1354 0
-5375 979 -1354 0
5375 979 1354 0
5375 -979 -1354 0
-5376 91 0
-5376 2956 0
5376 -91 -2956 0
-5377 1877 0
-5377 -3969 0
5377 -1877 3969 0
-5378 3890 0
-5378 -3949 0
5378 -3890 3949 0
-5379 4045 0
-5379 3731 0
5379 -4045 -3731 0
-5380 1065 0
-5380 5249 0
5380 -1065 -5249 0
-5381 -3538 0
-5381 -3262 0
5381 3538 3262 0
-5382 -1542 0
-5382 -4705 0
5382 1542 4705 0
-5383 -5043 0
-5383 -5287 0
5383 5043 5287 0
-5384 793 0
-5384 618 0
5384 -793 -618 0
-5385 3060 0
-5385 -2891 0
5385 -3060 2891 0
-5386 -3640 0
-5386 4345 0
5386 3640 -4345 0
-5387 -1853 0
-5387 -2892 0
5387 1853 2892 0
-5388 5018 0
-5388 2753 0
5388 -5018 -2753 0
-5389 -998 0
-5389 1371 0
5389 998 -1371 0
-5390 -2661 0
-5390 -2726 0
5390 2661 2726 0
-5391 4469 0
-5391 2704 0
5391 -4469 -2704 0
-5392 -379 0
-5392 -4989 0
5392 379 4989 0
-5393 -3222 -4256 0
-5393 3222 4256 0
5393 3222 -4256 0
5393 -3222 4256 0
-5394 -3581 1690 0
-5394 3581 -1690 0
5394 3581 1690 0
5394 -3581 -1690 0
-5395 -3276 0
-5395 -4448 0
5395 3276 4448 0
-5396 -824 0
-5396 -1445 0
5396 824 1445 0
-5397 1054 0
-5397 -4686 0
5397 -1054 4686 0
-5398 4198 -4966 0
-5398 -4198 4966 0
5398 -4198 -4966 0
5398 4198 4966 0
-5399 -4238 0
-5399 -4264 0
5399 4238 4264 0
-5400 -4350 -4374 0
-5400 4350 4374 0
5400 4350 -4374 0
5400 -4350 4374 0
-5401 -722 0
-5401 -2015 0
5401 722 2015 0
-5402 -4197 0
-5402 1465 0
5402 4197 -1465 0
-5403 3444 -1443 0
-5403 -3444 1443 0
5403 -3444 -1443 0
5403 3444 1443 0
-5404 -1356 0
-5404 -248 0
5404 1356 248 0
-5405 5236 -2081 0
-5405 -5236 2081 0
5405 -5236 -2081 0
5405 5236 2081 0
-5406 -2247 0
-5406 -1580 0
5406 2247 1580 0
-5407 -278 543 0
-5407 278 -543 0
5407 278 543 0
5407 -278 -543 0
-5408 1672 0
-5408 318 0
5408 -1672 -318 0
-5409 -2706 -190 0
-5409 2706 190 0
5409 2706 -190 0
5409 -2706 190 0
-5410 3766 0
-5410 -3631 0
5410 -3766 3631 0
-5411 -4674 0
-5411 1363 0
5411 4674 -1363 0
-5412 1666 0
-5412 4570 0
5412 -1666 -4570 0
-5413 4087 0
-5413 1842 0
5413 -4087 -1842 0
-5414 -3450 2977 0
-5414 3450 -2977 0
5414 3450 2977 0
5414 -3450 -2977 0
-5415 -5118 0
-5415 744 0
5415 5118 -744 0
-5416 599 0
-5416 -1570 0
5416 -599 1570 0
-5417 -3309 0
-5417 2958 0
5417 3309 -2958 0
-5418 1762 -2222 0
-5418 -1762 2222 0
5418 -1762 -2222 0
5418 1762 2222 0
-5419 3643 0
-5419 -334 0
5419 -3643 334 0
-5420 2952 -405 0
-5420 -2952 405 0
5420 -2952 -405 0
5420 2952 405 0
-5421 672 1996 0
-5421 -672 -1996 0
5421 -672 1996 0
5421 672 -1996 0
-5422 683 0
-5422 3356 0
5422 -683 -3356 0
-5423 4522 -2576 0
-5423 -4522 2576 0
5423 -4522 -2576 0
5423 4522 2576 0
-5424 -5160 -2512 0
-5424 5160 2512 0
5424 5160 -2512 0
5424 -5160 2512 0
-5425 -2094 0
-5425 4188 0
5425 2094 -4188 0
-5426 -1357 0
-5426 3198 0
5426 1357 -3198 0
-5427 1979 0
-5427 -3369 0
5427 -1979 3369 0
-5428 4464 0
-5428 2027 0
5428 -4464 -2027 0
-5429 -4621 0
-5429 5399 0
5429 4621 -5399 0
-5430 1804 0
-5430 909 0
5430 -1804 -909 0
-5431 1176 0
-5431 -3767 0
5431 -1176 3767 0
-5432 -1149 0
-5432 -3200 0
5432 1149 3200 0
-5433 941 1923 0
-5433 -941 -1923 0
5433 -941 1923 0
5433 941 -1923 0
-5434 -615 0
-5434 -3995 0
5434 615 3995 0
-5435 1399 0
-5435 2696 0
5435 -1399 -2696 0
-5436 5219 1863 0
-5436 -5219 -1863 0
5436 -5219 1863 0
5436 5219 -1863 0
-5437 -479 0
-5437 -3881 0
5437 479 3881 0
-5438 -1276 0
-5438 -1055 0
5438 1276 1055 0
-5439 -5436 0
-5439 5061 0
5439 5436 -5061 0
-5440 1053 5149 0
-5440 -1053 -5149 0
5440 -1053 5149 0
5440 1053 -5149 0
-5441 2591 0
-5441 619 0
5441 -2591 -619 0
-5442 102 4267 0
-5442 -102 -4267 0
5442 -102 4267 0
5442 102 -4267 0
-5443 1225 0
-5443 556 0
5443 -1225 -556 0
-5444 -3538 72 0
-5444 3538 -72 0
5444 3538 72 0
5444 -3538 -72 0
-5445 1651 0
-5445 -365 0
5445 -1651 365 0
-5446 1242 0
-5446 -2593 0
5446 -1242 2593 0
-5447 -1158 2606 0
-5447 1158 -2606 0
5447 1158 2606 0
5447 -1158 -2606 0
-5448 5020 0
-5448 4351 0
5448 -5020 -4351 0
-5449 5090 0
-5449 2040 0
5449 -5090 -2040 0
-5450 -480 0
-5450 -2075 0
5450 480 2075 0
-5451 -5202 0
-5451 2061 0
5451 5202 -2061 0
-5452 -4835 0
-5452 5435 0
5452 4835 -5435 0
-5453 3994 666 0
-5453 -3994 -666 0
5453 -3994 666 0
5453 3994 -666 0
-5454 -2400 0
-5454 -1117 0
5454 2400 1117 0
-5455 481 0
-5455 2356 0
5455 -481 -2356 0
-5456 824 4522 0
-5456 -824 -4522 0
5456 -824 4522 0
5456 824 -4522 0
-5457 -3711 0
-5457 4695 0
5457 3711 -4695 0
-5458 -1706 0
-5458 -4829 0
5458 1706 4829 0
-5459 315 0
-5459 -212 0
5459 -315 212 0
-5460 -1110 0
-5460 1840 0
5460 1110 -1840 0
-5461 -55 0
-5461 -2069 0
5461 55 2069 0
-5462 4563 -2030 0
-5462 -4563 2030 0
5462 -4563 -2030 0
5462 4563 2030 0
-5463 -3068 5462 0
-5463 3068 -5462 0
5463 3068 5462 0
5463 -3068 -5462 0
-5464 1878 0
-5464 1321 0
5464 -1878 -1321 0
-5465 -5067 0
-5465 4611 0
5465 5067 -4611 0
-5466 -1316 0
-5466 -1124 0
5466 1316 1124 0
-5467 4061 0
-5467 -4931 0
5467 -4061 4931 0
-5468 1894 0
-5468 -2501 0
5468 -1894 2501 0
-5469 863 -4259 0
-5469 -863 4259 0
5469 -863 -4259 0
5469 863 4259 0
-5470 -1353 0
-5470 -2727 0
5470 1353 2727 0
-5471 2942 0
-5471 -3688 0
5471 -2942 3688 0
-5472 1152 3256 0
-5472 -1152 -3256 0
5472 -1152 3256 0
5472 1152 -3256 0
-5473 364 0
-5473 -3409 0
5473 -364 3409 0
-5474 -4274 4815 0
-5474 4274 -4815 0
5474 4274 4815 0
5474 -4274 -4815 0
-5475 -563 0
-5475 -4053 0
5475 563 4053 0
-5476 -3317 -707 0
-5476 3317 707 0
5476 3317 -707 0
5476 -3317 707 0
-5477 -242 0
-5477 -868 0
5477 242 868 0
-5478 1365 0
-5478 -1154 0
5478 -1365 1154 0
-5479 1409 0
-5479 -1756 0
5479 -1409 1756 0
-5480 872 0
-5480 126 0
5480 -872 -126 0
-5481 -3935 0
-5481 4887 0
5481 3935 -4887 0
-5482 -3295 0
-5482 -3531 0
5482 3295 3531 0
-5483 -317 0
-5483 272 0
5483 317 -272 0
-5484 -5261 0
-5484 -41 0
5484 5261 41 0
-5485 -2359 0
-5485 -3113 0
5485 2359 3113 0
-5486 -1175 0
-5486 -2452 0
5486 1175 2452 0
-5487 4175 0
-5487 729 0
5487 -4175 -729 0
-5488 1547 0
-5488 -3633 0
5488 -1547 3633 0
-5489 -1953 0
-5489 610 0
5489 1953 -610 0
-5490 1159 0
-5490 1481 0
5490 -1159 -1481 0
-5491 -1015 0
-5491 2190 0
5491 1015 -2190 0
-5492 3907 -2272 0
-5492 -3907 2272 0
5492 -3907 -2272 0
5492 3907 2272 0
-5493 -897 -1036 0
-5493 897 1036 0
5493 897 -1036 0
5493 -897 1036 0
-5494 1148 0
-5494 3461 0
5494 -1148 -3461 0
-5495 2336 0
-5495 -3128 0
5495 -2336 3128 0
-5496 -1851 0
-5496 -4792 0
5496 1851 4792 0
-5497 -3039 0
-5497 1571 0
5497 3039 -1571 0
-5498 -848 0
-5498 -4770 0
5498 848 4770 0
-5499 3207 0
-5499 -204 0
5499 -3207 204 0
-5500 -4471 0
-5500 5403 0
5500 4471 -5403 0
-5501 219 0
-5501 -821 0
5501 -219 821 0
-5502 -1342 -2602 0
-5502 1342 2602 0
5502 1342 -2602 0
5502 -1342 2602 0
-5503 1248 4140 0
-5503 -1248 -4140 0
5503 -1248 4140 0
5503 1248 -4140 0
-5504 1870 0
-5504 -5344 0
5504 -1870 5344 0
-5505 4368 0
-5505 2865 0
5505 -4368 -2865 0
-5506 4983 0
-5506 4537 0
5506 -4983 -4537 0
-5507 -3517 -1237 0
-5507 3517 1237 0
5507 3517 -1237 0
5507 -3517 1237 0
-5508 2501 -3502 0
-5508 -2501 3502 0
5508 -2501 -3502 0
5508 2501 3502 0
-5509 2657 0
-5509 2541 0
5509 -2657 -2541 0
-5510 -1923 0
-5510 3820 0
5510 1923 -3820 0
-5511 4685 -3596 0
-5511 -4685 3596 0
5511 -4685 -3596 0
5511 4685 3596 0
-5512 -3955 0
-5512 -3543 0
5512 3955 3543 0
-5513 4261 0
-5513 3144 0
5513 -4261 -3144 0
-5514 1393 0
-5514 884 0
5514 -1393 -884 0
-5515 -4571 0
-5515 -3593 0
5515 4571 3593 0
-5516 1253 0
-5516 -3367 0
5516 -1253 3367 0
-5517 -2737 0
-5517 -3051 0
5517 2737 3051 0
-5518 -4300 0
-5518 1816 0
5518 4300 -1816 0
-5519 3126 0
-5519 1475 0
5519 -3126 -1475 0
-5520 3012 0
-5520 -289 0
5520 -3012 289 0
-5521 4005 0
-5521 3956 0
5521 -4005 -3956 0
-5522 -5331 0
-5522 5044 0
5522 5331 -5044 0
-5523 2935 0
-5523 10 0
5523 -2935 -10 0
-5524 -3442 0
-5524 4612 0
5524 3442 -4612 0
-5525 730 5521 0
-5525 -730 -5521 0
5525 -730 5521 0
5525 730 -5521 0
-5526 2160 0
-5526 -3332 0
5526 -2160 3332 0
-5527 5430 0
-5527 1261 0
5527 -5430 -1261 0
-5528 5232 0
-5528 -4784 0
5528 -5232 4784 0
-5529 -4782 0
-5529 2376 0
5529 4782 -2376 0
-5530 1849 0
-5530 957 0
5530 -1849 -957 0
-5531 3771 0
-5531 -389 0
5531 -3771 389 0
-5532 625 4960 0
-5532 -625 -4960 0
5532 -625 4960 0
5532 625 -4960 0
-5533 99 0
-5533 4257 0
5533 -99 -4257 0
-5534 3531 0
-5534 -2557 0
5534 -3531 2557 0
-5535 2511 -621 0
-5535 -2511 621 0
5535 -2511 -621 0
5535 2511 621 0
-5536 2021 0
-5536 512 0
5536 -2021 -512 0
-5537 -4941 0
-5537 800 0
5537 4941 -800 0
-5538 4753 0
-5538 4327 0
5538 -4753 -4327 0
-5539 1088 0
-5539 -2902 0
5539 -1088 2902 0
-5540 -1150 4162 0
-5540 1150 -4162 0
5540 1150 4162 0
5540 -1150 -4162 0
-5541 1155 -2197 0
-5541 -1155 2197 0
5541 -1155 -2197 0
5541 1155 2197 0
-5542 2345 0
-5542 -3701 0
5542 -2345 3701 0
-5543 -4272 0
-5543 -3379 0
5543 4272 3379 0
-5544 1937 0
-5544 -4177 0
5544 -1937 4177 0
-5545 3533 5421 0
-5545 -3533 -5421 0
5545 -3533 5421 0
5545 3533 -5421 0
-5546 -1103 0
-5546 -2820 0
5546 1103 2820 0
-5547 -3036 799 0
-5547 3036 -799 0
5547 3036 799 0
5547 -3036 -799 0
-5548 4863 0
-5548 -924 0
5548 -4863 924 0
-5549 -3353 0
-5549 -850 0
5549 3353 850 0
-5550 -3589 0
-5550 -1560 0
5550 3589 1560 0
-5551 1395 0
-5551 4413 0
5551 -1395 -4413 0
-5552 2344 1583 0
-5552 -2344 -1583 0
5552 -2344 1583 0
5552 2344 -1583 0
-5553 2656 0
-5553 -5270 0
5553 -2656 5270 0
-5554 1440 0
-5554 -4824 0
5554 -1440 4824 0
-5555 917 0
-5555 -3950 0
5555 -917 3950 0
-5556 5388 0
-5556 80 0
5556 -5388 -80 0
-5557 1553 0
-5557 2470 0
5557 -1553 -2470 0
-5558 5235 -2955 0
-5558 -5235 2955 0
5558 -5235 -2955 0
5558 5235 2955 0
-5559 1457 -484 0
-5559 -1457 484 0
5559 -1457 -484 0
5559 1457 484 0
-5560 2 0
-5560 -1619 0
5560 -2 1619 0
-5561 874 -224 0
-5561 -874 224 0
5561 -874 -224 0
5561 874 224 0
-5562 -219 0
-5562 2714 0
5562 219 -2714 0
-5563 1833 0
-5563 3658 0
5563 -1833 -3658 0
-5564 2664 0
-5564 -1036 0
5564 -2664 1036 0
-5565 2767 0
-5565 -389 0
5565 -2767 389 0
-5566 -382 0
-5566 3560 0
5566 382 -3560 0
-5567 -3040 0
-5567 -5267 0
5567 3040 5267 0
-5568 2587 0
-5568 2468 0
5568 -2587 -2468 0
-5569 -1319 0
-5569 -2133 0
5569 1319 2133 0
-5570 -5325 0
-5570 -2283 0
5570 5325 2283 0
-5571 -3714 0
-5571 -87 0
5571 3714 87 0
-5572 1555 0
-5572 -2157 0
5572 -1555 2157 0
-5573 -983 0
-5573 -5448 0
5573 983 5448 0
-5574 -73 0
-5574 -652 0
5574 73 652 0
-5575 -1146 0
-5575 -33 0
5575 1146 33 0
-5576 -2555 5395 0
-5576 2555 -5395 0
5576 2555 5395 0
5576 -2555 -5395 0
-5577 5201 0
-5577 4195 0
5577 -5201 -4195 0
-5578 -4645 1048 0
-5578 4645 -1048 0
5578 4645 1048 0
5578 -4645 -1048 0
-5579 1992 0
-5579 4229 0
5579 -1992 -4229 0
-5580 2757 0
-5580 -4655 0
5580 -2757 4655 0
-5581 -2520 0
-5581 -2468 0
5581 2520 2468 0
-5582 -1871 3403 0
-5582 1871 -3403 0
5582 1871 3403 0
5582 -1871 -3403 0
-5583 -231 0
-5583 2918 0
5583 231 -2918 0
-5584 971 0
-5584 -2355 0
5584 -971 2355 0
-5585 -1168 0
-5585 -577 0
5585 1168 577 0
-5586 -4359 0
-5586 -167 0
5586 4359 167 0
-5587 2052 0
-5587 -2996 0
5587 -2052 2996 0
-5588 -2594 0
-5588 1387 0
5588 2594 -1387 0
-5589 2496 0
-5589 1673 0
5589 -2496 -1673 0
-5590 2178 0
-5590 -573 0
5590 -2178 573 0
-5591 4424 0
-5591 -2046 0
5591 -4424 2046 0
-5592 -4011 0
-5592 -1724 0
5592 4011 1724 0
-5593 4276 0
-5593 -2515 0
5593 -4276 2515 0
-5594 2595 0
-5594 -4595 0
5594 -2595 4595 0
-5595 4039 0
-5595 -3202 0
5595 -4039 3202 0
-5596 393 0
-5596 5087 0
5596 -393 -5087 0
-5597 372 0
-5597 903 0
5597 -372 -903 0
-5598 -5238 0
-5598 1953 0
5598 5238 -1953 0
-5599 4916 0
-5599 -1976 0
5599 -4916 1976 0
-5600 -507 0
-5600 4609 0
5600 507 -4609 0
-5601 -3122 0
-5601 -3369 0
5601 3122 3369 0
-5602 3800 0
-5602 -690 0
5602 -3800 690 0
-5603 -1245 0
-5603 -1390 0
5603 1245 1390 0
-5604 1336 -2020 0
-5604 -1336 2020 0
5604 -1336 -2020 0
5604 1336 2020 0
-5605 -4354 4409 0
-5605 4354 -4409 0
5605 4354 4409 0
5605 -4354 -4409 0
-5606 -3220 0
-5606 -2222 0
5606 3220 2222 0
-5607 -3392 0
-5607 -2126 0
5607 3392 2126 0
-5608 -3266 3435 0
-5608 3266 -3435 0
5608 3266 3435 0
5608 -3266 -3435 0
-5609 -2181 1188 0
-5609 2181 -1188 0
5609 2181 1188 0
5609 -2181 -1188 0
-5610 4343 0
-5610 3906 0
5610 -4343 -3906 0
-5611 4783 0
-5611 2872 0
5611 -4783 -2872 0
-5612 -2071 -2313 0
-5612 2071 2313 0
5612 2071 -2313 0
5612 -2071 2313 0
-5613 -1362 0
-5613 -5117 0
5613 1362 5117 0
-5614 3422 -1907 0
-5614 -3422 1907 0
5614 -3422 -1907 0
5614 3422 1907 0
-5615 716 0
-5615 1265 0
5615 -716 -1265 0
-5616 -4105 3954 0
-5616 4105 -3954 0
5616 4105 3954 0
5616 -4105 -3954 0
-5617 2705 0
-5617 -4127 0
5617 -2705 4127 0
-5618 4129 -1048 0
-5618 -4129 1048 0
5618 -4129 -1048 0
5618 4129 1048 0
-5619 1918 0
-5619 1542 0
5619 -1918 -1542 0
-5620 1370 0
-5620 1077 0
5620 -1370 -1077 0
-5621 -2842 0
-5621 -4279 0
5621 2842 4279 0
-5622 190 0
-5622 3960 0
5622 -190 -3960 0
-5623 -46 0
-5623 -95 0
5623 46 95 0
-5624 4974 0
-5624 -2413 0
5624 -4974 2413 0
-5625 4155 0
-5625 -2490 0
5625 -4155 2490 0
-5626 -2094 5264 0
-5626 2094 -5264 0
5626 2094 5264 0
5626 -2094 -5264 0
-5627 -2888 0
-5627 1801 0
5627 2888 -1801 0
-5628 866 0
-5628 -4277 0
5628 -866 4277 0
-5629 3264 243 0
-5629 -3264 -243 0
5629 -3264 243 0
5629 3264 -243 0
-5630 347 0
-5630 3338 0
5630 -347 -3338 0
-5631 -2840 0
-5631 3834 0
5631 2840 -3834 0
-5632 -4824 0
-5632 296 0
5632 4824 -296 0
-5633 -2975 3543 0
-5633 2975 -3543 0
5633 2975 3543 0
5633 -2975 -3543 0
-5634 3753 0
-5634 1878 0
5634 -3753 -1878 0
-5635 5389 0
-5635 4997 0
5635 -5389 -4997 0
-5636 4898 0
-5636 -915 0
5636 -4898 915 0
-5637 4532 0
-5637 2331 0
5637 -4532 -2331 0
-5638 -4508 0
-5638 4189 0
5638 4508 -4189 0
-5639 926 -445 0
-5639 -926 445 0
5639 -926 -445 0
5639 926 445 0
-5640 -5608 0
-5640 -4975 0
5640 5608 4975 0
-5641 -3128 0
-5641 179 0
5641 3128 -179 0
-5642 1741 0
-5642 2965 0
5642 -1741 -2965 0
-5643 -3545 0
-5643 396 0
5643 3545 -396 0
-5644 1761 -2458 0
-5644 -1761 2458 0
5644 -1761 -2458 0
5644 1761 2458 0
-5645 -3864 0
-5645 508 0
5645 3864 -508 0
-5646 -1446 0
-5646 4565 0
5646 1446 -4565 0
-5647 -3518 0
-5647 1134 0
5647 3518 -1134 0
-5648 -3053 0
-5648 -697 0
5648 3053 697 0
-5649 -1992 0
-5649 -5230 0
5649 1992 5230 0
-5650 -3987 0
-5650 -1710 0
5650 3987 1710 0
-5651 1897 0
-5651 -5588 0
5651 -1897 5588 0
-5652 -2127 -2969 0
-5652 2127 2969 0
5652 2127 -2969 0
5652 -2127 2969 0
-5653 4991 4013 0
-5653 -4991 -4013 0
5653 -4991 4013 0
5653 4991 -4013 0
-5654 1452 0
-5654 5358 0
5654 -1452 -5358 0
-5655 -3778 0
-5655 -395 0
5655 3778 395 0
-5656 5111 0
-5656 1354 0
5656 -5111 -1354 0
-5657 -5056 0
-5657 5608 0
5657 5056 -5608 0
-5658 1146 0
-5658 -3464 0
5658 -1146 3464 0
-5659 2778 0
-5659 1837 0
5659 -2778 -1837 0
-5660 -4442 -4251 0
-5660 4442 4251 0
5660 4442 -4251 0
5660 -4442 4251 0
-5661 2886 0
-5661 -2744 0
5661 -2886 2744 0
-5662 3108 0
-5662 -1855 0
5662 -3108 1855 0
-5663 1614 0
-5663 -4682 0
5663 -1614 4682 0
-5664 -297 -391 0
-5664 297 391 0
5664 297 -391 0
5664 -297 391 0
-5665 4115 0
-5665 1731 0
5665 -4115 -1731 0
-5666 852 0
-5666 -1627 0
5666 -852 1627 0
-5667 -1989 -3870 0
-5667 1989 3870 0
5667 1989 -3870 0
5667 -1989 3870 0
-5668 -3424 -3072 0
-5668 3424 3072 0
5668 3424 -3072 0
5668 -3424 3072 0
-5669 -3829 0
-5669 2778 0
5669 3829 -2778 0
-5670 5372 0
-5670 462 0
5670 -5372 -462 0
-5671 209 0
-5671 2356 0
5671 -209 -2356 0
-5672 3350 -1207 0
-5672 -3350 1207 0
5672 -3350 -1207 0
5672 3350 1207 0
-5673 -4541 0
-5673 -4906 0
5673 4541 4906 0
-5674 2092 0
-5674 5102 0
5674 -2092 -5102 0
-5675 4926 0
-5675 3882 0
5675 -4926 -3882 0
-5676 -5020 0
-5676 4646 0
5676 5020 -4646 0
-5677 -2711 0
-5677 -5669 0
5677 2711 5669 0
-5678 1569 0
-5678 2323 0
5678 -1569 -2323 0
-5679 945 0
-5679 -4316 0
5679 -945 4316 0
-5680 3258 0
-5680 3554 0
5680 -3258 -3554 0
-5681 -2541 0
-5681 -2396 0
5681 2541 2396 0
-5682 3278 0
-5682 -2431 0
5682 -3278 2431 0
-5683 4389 0
-5683 -2077 0
5683 -4389 2077 0
-5684 -1621 2323 0
-5684 1621 -2323 0
5684 1621 2323 0
5684 -1621 -2323 0
-5685 2442 0
-5685 4512 0
5685 -2442 -4512 0
-5686 756 136 0
-5686 -756 -136 0
5686 -756 136 0
5686 756 -136 0
-5687 20 0
-5687 -4379 0
5687 -20 4379 0
-5688 891 0
-5688 -263 0
5688 -891 263 0
-5689 -1512 -955 0
-5689 1512 955 0
5689 1512 -955 0
5689 -1512 955 0
-5690 3558 0
-5690 1930 0
5690 -3558 -1930 0
-5691 5017 0
-5691 -1938 0
5691 -5017 1938 0
-5692 4670 0
-5692 288 0
5692 -4670 -288 0
-5693 -4243 0
-5693 4827 0
5693 4243 -4827 0
-5694 1986 3047 0
-5694 -1986 -3047 0
5694 -1986 3047 0
5694 1986 -3047 0
-5695 5668 0
-5695 -3122 0
5695 -5668 3122 0
-5696 -1584 0
-5696 5403 0
5696 1584 -5403 0
-5697 -920 1183 0
-5697 920 -1183 0
5697 920 1183 0
5697 -920 -1183 0
-5698 3578 0
-5698 4218 0
5698 -3578 -4218 0
-5699 5639 -816 0
-5699 -5639 816 0
5699 -5639 -816 0
5699 5639 816 0
-5700 530 0
-5700 3565 0
5700 -530 -3565 0
-5701 807 -1597 0
-5701 -807 1597 0
5701 -807 -1597 0
5701 807 1597 0
-5702 -8 0
-5702 -3420 0
5702 8 3420 0
-5703 55 0
-5703 3263 0
5703 -55 -3263 0
-5704 -3627 0
-5704 -1953 0
5704 3627 1953 0
-5705 -4046 0
-5705 2399 0
5705 4046 -2399 0
-5706 4263 0
-5706 3761 0
5706 -4263 -3761 0
-5707 1035 0
-5707 4152 0
5707 -1035 -4152 0
-5708 -1328 0
-5708 -1926 0
5708 1328 1926 0
-5709 -5023 287 0
-5709 5023 -287 0
5709 5023 287 0
5709 -5023 -287 0
-5710 -1407 0
-5710 -4082 0
5710 1407 4082 0
-5711 1368 0
-5711 -4028 0
5711 -1368 4028 0
-5712 -2483 0
-5712 3556 0
5712 2483 -3556 0
-5713 4306 0
-5713 -4743 0
5713 -4306 4743 0
-5714 -897 0
-5714 -4526 0
5714 897 4526 0
-5715 -4251 0
-5715 1485 0
5715 4251 -1485 0
-5716 329 0
-5716 2387 0
5716 -329 -2387 0
-5717 3990 2216 0
-5717 -3990 -2216 0
5717 -3990 2216 0
5717 3990 -2216 0
-5718 1674 0
-5718 -30 0
5718 -1674 30 0
-5719 1035 0
-5719 3680 0
5719 -1035 -3680 0
-5720 1844 0
-5720 -3359 0
5720 -1844 3359 0
-5721 -4641 2634 0
-5721 4641 -2634 0
5721 4641 2634 0
5721 -4641 -2634 0
-5722 -4926 0
-5722 1458 0
5722 4926 -1458 0
-5723 5431 2989 0
-5723 -5431 -2989 0
5723 -5431 2989 0
5723 5431 -2989 0
-5724 -2822 0
-5724 3513 0
5724 2822 -3513 0
-5725 -4457 0
-5725 2150 0
5725 4457 -2150 0
-5726 -3288 0
-5726 -1761 0
5726 3288 1761 0
-5727 -5086 0
-5727 -534 0
5727 5086 534 0
-5728 -941 0
-5728 947 0
5728 941 -947 0
-5729 4102 0
-5729 5106 0
5729 -4102 -5106 0
-5730 1744 0
-5730 -4361 0
5730 -1744 4361 0
-5731 2711 0
-5731 177 0
5731 -2711 -177 0
-5732 -2126 -1499 0
-5732 2126 1499 0
5732 2126 -1499 0
5732 -2126 1499 0
-5733 -3616 -4191 0
-5733 3616 4191 0
5733 3616 -4191 0
5733 -3616 4191 0
-5734 -4356 0
-5734 2781 0
5734 4356 -2781 0
-5735 3211 0
-5735 4221 0
5735 -3211 -4221 0
-5736 -1222 0
-5736 4285 0
5736 1222 -4285 0
-5737 -5238 0
-5737 -3079 0
5737 5238 3079 0
-5738 -2185 -3885 0
-5738 2185 3885 0
5738 2185 -3885 0
5738 -2185 3885 0
-5739 -4877 0
-5739 -3006 0
5739 4877 3006 0
-5740 -4169 0
-5740 -1164 0
5740 4169 1164 0
-5741 -3375 0
-5741 -5132 0
5741 3375 5132 0
-5742 4795 4125 0
-5742 -4795 -4125 0
5742 -4795 4125 0
5742 4795 -4125 0
-5743 795 -751 0
-5743 -795 751 0
5743 -795 -751 0
5743 795 751 0
-5744 2866 0
-5744 -1418 0
5744 -2866 1418 0
-5745 969 0
-5745 4891 0
5745 -969 -4891 0
-5746 3526 0
-5746 -2561 0
5746 -3526 2561 0
-5747 1042 0
-5747 -3733 0
5747 -1042 3733 0
-5748 2765 5437 0
-5748 -2765 -5437 0
5748 -2765 5437 0
5748 2765 -5437 0
-5749 -1716 0
-5749 -2881 0
5749 1716 2881 0
-5750 -2318 2624 0
-5750 2318 -2624 0
5750 2318 2624 0
5750 -2318 -2624 0
-5751 -2343 0
-5751 2490 0
5751 2343 -2490 0
-5752 5664 0
-5752 -469 0
5752 -5664 469 0
-5753 4047 5689 0
-5753 -4047 -5689 0
5753 -4047 5689 0
5753 4047 -5689 0
-5754 -37 0
-5754 -4161 0
5754 37 4161 0
-5755 1074 -1615 0
-5755 -1074 1615 0
5755 -1074 -1615 0
5755 1074 1615 0
-5756 -140 -1417 0
-5756 140 1417 0
5756 140 -1417 0
5756 -140 1417 0
-5757 3036 0
-5757 2386 0
5757 -3036 -2386 0
-5758 4875 0
-5758 -5075 0
5758 -4875 5075 0
-5759 4485 0
-5759 -977 0
5759 -4485 977 0
-5760 -1906 -509 0
-5760 1906 509 0
5760 1906 -509 0
5760 -1906 509 0
-5761 -1897 0
-5761 2093 0
5761 1897 -2093 0
-5762 3830 3184 0
-5762 -3830 -3184 0
5762 -3830 3184 0
5762 3830 -3184 0
-5763 1800 0
-5763 -4567 0
5763 -1800 4567 0
-5764 -5078 2456 0
-5764 5078 -2456 0
5764 5078 2456 0
5764 -5078 -2456 0
-5765 4582 0
-5765 3302 0
5765 -4582 -3302 0
-5766 -320 1504 0
-5766 320 -1504 0
5766 320 1504 0
5766 -320 -1504 0
-5767 -1920 0
-5767 -3880 0
5767 1920 3880 0
-5768 -4790 0
-5768 2912 0
5768 4790 -2912 0
-5769 5376 5438 0
-5769 -5376 -5438 0
5769 -5376 5438 0
5769 5376 -5438 0
-5770 3574 0
-5770 3775 0
5770 -3574 -3775 0
-5771 -301 0
-5771 -54 0
5771 301 54 0
-5772 -1142 0
-5772 -1092 0
5772 1142 1092 0
-5773 689 0
-5773 -1588 0
5773 -689 1588 0
-5774 3820 0
-5774 -3724 0
5774 -3820 3724 0
-5775 3138 4438 0
-5775 -3138 -4438 0
5775 -3138 4438 0
5775 3138 -4438 0
-5776 837 0
-5776 -2186 0
5776 -837 2186 0
-5777 434 0
-5777 5689 0
5777 -434 -5689 0
-5778 -73 0
-5778 1173 0
5778 73 -1173 0
-5779 -3858 -3848 0
-5779 3858 3848 0
5779 3858 -3848 0
5779 -3858 3848 0
-5780 1838 0
-5780 -1462 0
5780 -1838 1462 0
-5781 1944 0
-5781 -3568 0
5781 -1944 3568 0
-5782 266 0
-5782 4158 0
5782 -266 -4158 0
-5783 210 0
-5783 -1652 0
5783 -210 1652 0
-5784 -427 3374 0
-5784 427 -3374 0
5784 427 3374 0
5784 -427 -3374 0
-5785 1184 0
-5785 -1853 0
5785 -1184 1853 0
-5786 -1393 2299 0
-5786 1393 -2299 0
5786 1393 2299 0
5786 -1393 -2299 0
-5787 -4727 0
-5787 388 0
5787 4727 -388 0
-5788 -3090 2583 0
-5788 3090 -2583 0
5788 3090 2583 0
5788 -3090 -2583 0
-5789 -3794 4886 0
-5789 3794 -4886 0
5789 3794 4886 0
5789 -3794 -4886 0
-5790 58 -1365 0
-5790 -58 1365 0
5790 -58 -1365 0
5790 58 1365 0
-5791 5238 0
-5791 5202 0
5791 -5238 -5202 0
-5792 275 2500 0
-5792 -275 -2500 0
5792 -275 2500 0
5792 275 -2500 0
-5793 3837 3647 0
-5793 -3837 -3647 0
5793 -3837 3647 0
5793 3837 -3647 0
-5794 3840 0
-5794 -4957 0
5794 -3840 4957 0
-5795 4237 -4073 0
-5795 -4237 4073 0
5795 -4237 -4073 0
5795 4237 4073 0
-5796 1350 0
-5796 -1693 0
5796 -1350 1693 0
-5797 1861 0
-5797 -4335 0
5797 -1861 4335 0
-5798 5030 2084 0
-5798 -5030 -2084 0
5798 -5030 2084 0
5798 5030 -2084 0
-5799 3058 0
-5799 -1593 0
5799 -3058 1593 0
-5800 4097 0
-5800 2763 0
5800 -4097 -2763 0
-5801 -3826 0
-5801 75 0
5801 3826 -75 0
-5802 -3622 1515 0
-5802 3622 -1515 0
5802 3622 1515 0
5802 -3622 -1515 0
-5803 742 5652 0
-5803 -742 -5652 0
5803 -742 5652 0
5803 742 -5652 0
-5804 -4484 0
-5804 3530 0
5804 4484 -3530 0
-5805 -2614 0
-5805 3224 0
5805 2614 -3224 0
-5806 -1698 0
-5806 -877 0
5806 1698 877 0
-5807 1358 0
-5807 3759 0
5807 -1358 -3759 0
-5808 -3986 0
-5808 301 0
5808 3986 -301 0
-5809 284 -2138 0
-5809 -284 2138 0
5809 -284 -2138 0
5809 284 2138 0
-5810 4598 0
-5810 -4147 0
5810 -4598 4147 0
-5811 -4721 0
-5811 -1642 0
5811 4721 1642 0
-5812 2581 0
-5812 1387 0
5812 -2581 -1387 0
-5813 -4668 -2823 0
-5813 4668 2823 0
5813 4668 -2823 0
5813 -4668 2823 0
-5814 -4928 0
-5814 -436 0
5814 4928 436 0
-5815 -2195 0
-5815 4593 0
5815 2195 -4593 0
-5816 -72 0
-5816 5803 0
5816 72 -5803 0
-5817 219 0
-5817 4688 0
5817 -219 -4688 0
-5818 -851 0
-5818 -4145 0
5818 851 4145 0
-5819 -729 0
-5819 -4840 0
5819 729 4840 0
-5820 -3284 0
-5820 2312 0
5820 3284 -2312 0
-5821 572 0
-5821 3852 0
5821 -572 -3852 0
-5822 -2295 5243 0
-5822 2295 -5243 0
5822 2295 5243 0
5822 -2295 -5243 0
-5823 459 980 0
-5823 -459 -980 0
5823 -459 980 0
5823 459 -980 0
-5824 -1168 -5340 0
-5824 1168 5340 0
5824 1168 -5340 0
5824 -1168 5340 0
-5825 -2316 0
-5825 -864 0
5825 2316 864 0
-5826 -4757 0
-5826 -1900 0
5826 4757 1900 0
-5827 -5277 0
-5827 5729 0
5827 5277 -5729 0
-5828 -412 0
-5828 -5170 0
5828 412 5170 0
-5829 -4333 0
-5829 -2811 0
5829 4333 2811 0
-5830 4916 0
-5830 -2392 0
5830 -4916 2392 0
-5831 541 0
-5831 2883 0
5831 -541 -2883 0
-5832 4722 -1975 0
-5832 -4722 1975 0
5832 -4722 -1975 0
5832 4722 1975 0
-5833 -4706 0
-5833 -3968 0
5833 4706 3968 0
-5834 2286 0
-5834 1016 0
5834 -2286 -1016 0
-5835 151 0
-5835 -4584 0
5835 -151 4584 0
-5836 2453 0
-5836 -2793 0
5836 -2453 2793 0
-5837 872 0
-5837 4989 0
5837 -872 -4989 0
-5838 818 0
-5838 1743 0
5838 -818 -1743 0
-5839 -3929 0
-5839 3125 0
5839 3929 -3125 0
-5840 -44 0
-5840 -1430 0
5840 44 1430 0
-5841 -3333 0
-5841 -2691 0
5841 3333 2691 0
-5842 5196 0
-5842 -1370 0
5842 -5196 1370 0
-5843 -3161 0
-5843 -5833 0
5843 3161 5833 0
-5844 -2354 0
-5844 3710 0
5844 2354 -3710 0
-5845 3854 0
-5845 4591 0
5845 -3854 -4591 0
-5846 788 0
-5846 -254 0
5846 -788 254 0
-5847 5768 -1211 0
-5847 -5768 1211 0
5847 -5768 -1211 0
5847 5768 1211 0
-5848 -5293 0
-5848 1736 0
5848 5293 -1736 0
-5849 -2311 0
-5849 544 0
5849 2311 -544 0
-5850 -3007 0
-5850 5587 0
5850 3007 -5587 0
-5851 561 0
-5851 4174 0
5851 -561 -4174 0
-5852 -3972 0
-5852 839 0
5852 3972 -839 0
-5853 -5152 0
-5853 3052 0
5853 5152 -3052 0
-5854 2778 0
-5854 -1769 0
5854 -2778 1769 0
-5855 3908 -1385 0
-5855 -3908 1385 0
5855 -3908 -1385 0
5855 3908 1385 0
-5856 -4252 0
-5856 1496 0
5856 4252 -1496 0
-5857 1461 0
-5857 -2009 0
5857 -1461 2009 0
-5858 2122 0
-5858 -4846 0
5858 -2122 4846 0
-5859 1138 0
-5859 821 0
5859 -1138 -821 0
-5860 -5231 333 0
-5860 5231 -333 0
5860 5231 333 0
5860 -5231 -333 0
-5861 -4779 0
-5861 -3833 0
5861 4779 3833 0
-5862 1215 0
-5862 1779 0
5862 -1215 -1779 0
-5863 -879 4561 0
-5863 879 -4561 0
5863 879 4561 0
5863 -879 -4561 0
-5864 -1985 0
-5864 -2524 0
5864 1985 2524 0
-5865 1561 0
-5865 -1836 0
5865 -1561 1836 0
-5866 -3338 0
-5866 -2978 0
5866 3338 2978 0
-5867 3230 0
-5867 -4382 0
5867 -3230 4382 0
-5868 -1866 0
-5868 -3401 0
5868 1866 3401 0
-5869 712 0
-5869 -4906 0
5869 -712 4906 0
-5870 -3086 0
-5870 1878 0
5870 3086 -1878 0
-5871 -5810 0
-5871 -3950 0
5871 5810 3950 0
-5872 4366 0
-5872 -4811 0
5872 -4366 4811 0
-5873 3063 0
-5873 2995 0
5873 -3063 -2995 0
-5874 -2447 0
-5874 280 0
5874 2447 -280 0
-5875 -4688 0
-5875 -1037 0
5875 4688 1037 0
-5876 -3250 0
-5876 -5048 0
5876 3250 5048 0
-5877 4180 0
-5877 -3513 0
5877 -4180 3513 0
-5878 840 0
-5878 -4909 0
5878 -840 4909 0
-5879 -1004 0
-5879 2152 0
5879 1004 -2152 0
-5880 -1498 0
-5880 -2895 0
5880 1498 2895 0
-5881 5203 0
-5881 2475 0
5881 -5203 -2475 0
-5882 1133 0
-5882 4619 0
5882 -1133 -4619 0
-5883 -5443 0
-5883 1241 0
5883 5443 -1241 0
-5884 -2337 4176 0
-5884 2337 -4176 0
5884 2337 4176 0
5884 -2337 -4176 0
-5885 3609 0
-5885 2478 0
5885 -3609 -2478 0
-5886 -843 5033 0
-5886 843 -5033 0
5886 843 5033 0
5886 -843 -5033 0
-5887 5140 0
-5887 3515 0
5887 -5140 -3515 0
-5888 2999 -5200 0
-5888 -2999 5200 0
5888 -2999 -5200 0
5888 2999 5200 0
-5889 -746 0
-5889 -2101 0
5889 746 2101 0
-5890 -3960 0
-5890 1647 0
5890 3960 -1647 0
-5891 -193 0
-5891 1781 0
5891 193 -1781 0
-5892 2532 -3912 0
-5892 -2532 3912 0
5892 -2532 -3912 0
5892 2532 3912 0
-5893 1828 0
-5893 -5485 0
5893 -1828 5485 0
-5894 -2839 0
-5894 3820 0
5894 2839 -3820 0
-5895 -1358 -1272 0
-5895 1358 1272 0
5895 1358 -1272 0
5895 -1358 1272 0
-5896 793 3694 0
-5896 -793 -3694 0
5896 -793 3694 0
5896 793 -3694 0
-5897 516 1820 0
-5897 -516 -1820 0
5897 -516 1820 0
5897 516 -1820 0
-5898 3787 0
-5898 -3864 0
5898 -3787 3864 0
-5899 -169 0
-5899 -4607 0
5899 169 4607 0
-5900 5630 -5148 0
-5900 -5630 5148 0
5900 -5630 -5148 0
5900 5630 5148 0
-5901 -4542 0
-5901 -2706 0
5901 4542 2706 0
-5902 -789 3395 0
-5902 789 -3395 0
5902 789 3395 0
5902 -789 -3395 0
-5903 -3936 0
-5903 -1982 0
5903 3936 1982 0
-5904 -5190 0
-5904 1911 0
5904 5190 -1911 0
-5905 4821 1872 0
-5905 -4821 -1872 0
5905 -4821 1872 0
5905 4821 -1872 0
-5906 4903 0
-5906 4042 0
5906 -4903 -4042 0
-5907 1112 0
-5907 1847 0
5907 -1112 -1847 0
-5908 1018 0
-5908 4290 0
5908 -1018 -4290 0
-5909 -1037 0
-5909 -5278 0
5909 1037 5278 0
-5910 -36 0
-5910 2365 0
5910 36 -2365 0
-5911 4734 0
-5911 -5143 0
5911 -4734 5143 0
-5912 -3021 0
-5912 3846 0
5912 3021 -3846 0
-5913 -2936 0
-5913 -301 0
5913 2936 301 0
-5914 2405 0
-5914 -3003 0
5914 -2405 3003 0
-5915 -763 0
-5915 -5690 0
5915 763 5690 0
-5916 238 0
-5916 3772 0
5916 -238 -3772 0
-5917 -825 0
-5917 3750 0
5917 825 -3750 0
-5918 2608 0
-5918 -2022 0
5918 -2608 2022 0
-5919 -4771 0
-5919 -5144 0
5919 4771 5144 0
-5920 -5212 5496 0
-5920 5212 -5496 0
5920 5212 5496 0
5920 -5212 -5496 0
-5921 -1987 0
-5921 -4522 0
5921 1987 4522 0
-5922 3652 2214 0
-5922 -3652 -2214 0
5922 -3652 2214 0
5922 3652 -2214 0
-5923 4852 -3705 0
-5923 -4852 3705 0
5923 -4852 -3705 0
5923 4852 3705 0
-5924 2819 0
-5924 1143 0
5924 -2819 -1143 0
-5925 -929 0
-5925 2704 0
5925 929 -2704 0
-5926 -2770 0
-5926 841 0
5926 2770 -841 0
-5927 -2536 0
-5927 859 0
5927 2536 -859 0
-5928 4396 0
-5928 -5595 0
5928 -4396 5595 0
-5929 3567 0
-5929 1420 0
5929 -3567 -1420 0
-5930 -3749 0
-5930 -4917 0
5930 3749 4917 0
-5931 2252 0
-5931 -5671 0
5931 -2252 5671 0
-5932 759 0
-5932 -5372 0
5932 -759 5372 0
-5933 -2747 0
-5933 4849 0
5933 2747 -4849 0
-5934 -2612 0
-5934 -4309 0
5934 2612 4309 0
-5935 818 0
-5935 -4069 0
5935 -818 4069 0
-5936 -5703 5780 0
-5936 5703 -5780 0
5936 5703 5780 0
5936 -5703 -5780 0
-5937 -604 0
-5937 2291 0
5937 604 -2291 0
-5938 1014 0
-5938 4209 0
5938 -1014 -4209 0
-5939 -1578 -5641 0
-5939 1578 5641 0
5939 1578 -5641 0
5939 -1578 5641 0
-5940 4916 0
-5940 1611 0
5940 -4916 -1611 0
-5941 3352 0
-5941 218 0
5941 -3352 -218 0
-5942 608 0
-5942 1624 0
5942 -608 -1624 0
-5943 2003 0
-5943 -4006 0
5943 -2003 4006 0
-5944 1544 0
-5944 -5429 0
5944 -1544 5429 0
-5945 -876 0
-5945 5193 0
5945 876 -5193 0
-5946 2718 0
-5946 -206 0
5946 -2718 206 0
-5947 424 0
-5947 -113 0
5947 -424 113 0
-5948 -1128 0
-5948 4405 0
5948 1128 -4405 0
-5949 -4039 0
-5949 4057 0
5949 4039 -4057 0
-5950 -5472 0
-5950 -3423 0
5950 5472 3423 0
-5951 -5776 0
-5951 5760 0
5951 5776 -5760 0
-5952 -1376 0
-5952 4069 0
5952 1376 -4069 0
-5953 -4138 3923 0
-5953 4138 -3923 0
5953 4138 3923 0
5953 -4138 -3923 0
-5954 -3088 0
-5954 -3118 0
5954 3088 3118 0
-5955 -4629 -1387 0
-5955 4629 1387 0
5955 4629 -1387 0
5955 -4629 1387 0
-5956 -303 0
-5956 -4196 0
5956 303 4196 0
-5957 4077 0
-5957 160 0
5957 -4077 -160 0
-5958 235 0
-5958 -3668 0
5958 -235 3668 0
-5959 1952 0
-5959 1402 0
5959 -1952 -1402 0
-5960 -4861 0
-5960 602 0
5960 4861 -602 0
-5961 5131 1721 0
-5961 -5131 -1721 0
5961 -5131 1721 0
5961 5131 -1721 0
-5962 -3498 0
-5962 5305 0
5962 3498 -5305 0
-5963 2014 0
-5963 3388 0
5963 -2014 -3388 0
-5964 124 0
-5964 5446 0
5964 -124 -5446 0
-5965 -5862 0
-5965 -4308 0
5965 5862 4308 0
-5966 5204 0
-5966 -3059 0
5966 -5204 3059 0
-5967 3946 0
-5967 411 0
5967 -3946 -411 0
-5968 -5371 0
-5968 -4130 0
5968 5371 4130 0
-5969 -4494 0
-5969 2658 0
5969 4494 -2658 0
-5970 -5644 -1377 0
-5970 5644 1377 0
5970 5644 -1377 0
5970 -5644 1377 0
-5971 -997 0
-5971 -4971 0
5971 997 4971 0
-5972 -3944 0
-5972 1435 0
5972 3944 -1435 0
-5973 -5939 2038 0
-5973 5939 -2038 0
5973 5939 2038 0
5973 -5939 -2038 0
-5974 -2251 0
-5974 -710 0
5974 2251 710 0
-5975 5031 0
-5975 5721 0
5975 -5031 -5721 0
-5976 4796 0
-5976 2988 0
5976 -4796 -2988 0
-5977 3382 0
-5977 -5127 0
5977 -3382 5127 0
-5978 -4820 0
-5978 5942 0
5978 4820 -5942 0
-5979 5135 -94 0
-5979 -5135 94 0
5979 -5135 -94 0
5979 5135 94 0
-5980 5822 0
-5980 1598 0
5980 -5822 -1598 0
-5981 5076 0
-5981 -2221 0
5981 -5076 2221 0
-5982 4438 -4605 0
-5982 -4438 4605 0
5982 -4438 -4605 0
5982 4438 4605 0
-5983 -3351 3692 0
-5983 3351 -3692 0
5983 3351 3692 0
5983 -3351 -3692 0
-5984 -965 0
-5984 -3412 0
5984 965 3412 0
-5985 -1036 2566 0
-5985 1036 -2566 0
5985 1036 2566 0
5985 -1036 -2566 0
-5986 -447 -3422 0
-5986 447 3422 0
5986 447 -3422 0
5986 -447 3422 0
-5987 -3375 0
-5987 2748 0
5987 3375 -2748 0
-5988 1889 -3590 0
-5988 -1889 3590 0
5988 -1889 -3590 0
5988 1889 3590 0
-5989 -4278 0
-5989 1612 0
5989 4278 -1612 0
-5990 771 0
-5990 7 0
5990 -771 -7 0
-5991 4994 0
-5991 -3552 0
5991 -4994 3552 0
-5992 3284 0
-5992 678 0
5992 -3284 -678 0
-5993 3781 0
-5993 -3614 0
5993 -3781 3614 0
-5994 1799 0
-5994 -5316 0
5994 -1799 5316 0
-5995 5499 4833 0
-5995 -5499 -4833 0
5995 -5499 4833 0
5995 5499 -4833 0
-5996 4293 0
-5996 5353 0
5996 -4293 -5353 0
-5997 1416 0
-5997 -2898 0
5997 -1416 2898 0
-5998 3034 -5744 0
-5998 -3034 5744 0
5998 -3034 -5744 0
5998 3034 5744 0
-5999 3826 0
-5999 -4404 0
5999 -3826 4404 0
-6000 -2221 0
-6000 -2462 0
6000 2221 2462 0
-6001 3773 5624 0
-6001 -3773 -5624 0
6001 -3773 5624 0
6001 3773 -5624 0
-6002 -2717 0
-6002 -707 0
6002 2717 707 0
-6003 -5514 0
-6003 4298 0
6003 5514 -4298 0
-6004 -841 4775 0
-6004 841 -4775 0
6004 841 4775 0
6004 -841 -4775 0
-6005 -482 0
-6005 572 0
6005 482 -572 0
-6006 -788 0
-6006 4223 0
6006 788 -4223 0
-6007 361 -385 0
-6007 -361 385 0
6007 -361 -385 0
6007 361 385 0
-6008 2150 0
-6008 -353 0
6008 -2150 353 0
-6009 -3204 -4763 0
-6009 3204 4763 0
6009 3204 -4763 0
6009 -3204 4763 0
-6010 -764 0
-6010 -2670 0
6010 764 2670 0
-6011 4865 0
-6011 -2621 0
6011 -4865 2621 0
-6012 2860 0
-6012 -4517 0
6012 -2860 4517 0
-6013 -4752 0
-6013 1184 0
6013 4752 -1184 0
-6014 -1812 0
-6014 3052 0
6014 1812 -3052 0
-6015 -895 0
-6015 241 0
6015 895 -241 0
-6016 -2363 0
-6016 -5124 0
6016 2363 5124 0
-6017 4237 0
-6017 5884 0
6017 -4237 -5884 0
-6018 2618 0
-6018 -2796 0
6018 -2618 2796 0
-6019 5632 0
-6019 499 0
6019 -5632 -499 0
-6020 3692 0
-6020 5477 0
6020 -3692 -5477 0
-6021 -5039 0
-6021 1134 0
6021 5039 -1134 0
-6022 -5938 0
-6022 2825 0
6022 5938 -2825 0
-6023 2695 0
-6023 -1550 0
6023 -2695 1550 0
-6024 5877 0
-6024 -3615 0
6024 -5877 3615 0
-6025 4941 -5846 0
-6025 -4941 5846 0
6025 -4941 -5846 0
6025 4941 5846 0
-6026 2252 0
-6026 -5728 0
6026 -2252 5728 0
-6027 -4442 0
-6027 5023 0
6027 4442 -5023 0
-6028 -5146 0
-6028 -2795 0
6028 5146 2795 0
-6029 -5045 0
-6029 4326 0
6029 5045 -4326 0
-6030 -2056 0
-6030 -5952 0
6030 2056 5952 0
-6031 -5714 0
-6031 -1718 0
6031 5714 1718 0
-6032 2118 5464 0
-6032 -2118 -5464 0
6032 -2118 5464 0
6032 2118 -5464 0
-6033 -3973 2877 0
-6033 3973 -2877 0
6033 3973 2877 0
6033 -3973 -2877 0
-6034 1352 0
-6034 -3969 0
6034 -1352 3969 0
-6035 5289 0
-6035 1177 0
6035 -5289 -1177 0
-6036 1887 -1992 0
-6036 -1887 1992 0
6036 -1887 -1992 0
6036 1887 1992 0
-6037 -3647 0
-6037 4324 0
6037 3647 -4324 0
-6038 2932 0
-6038 -3574 0
6038 -2932 3574 0
-6039 -1789 0
-6039 -5663 0
6039 1789 5663 0
-6040 -3282 -1017 0
-6040 3282 1017 0
6040 3282 -1017 0
6040 -3282 1017 0
-6041 -2391 -3620 0
-6041 2391 3620 0
6041 2391 -3620 0
6041 -2391 3620 0
-6042 4118 0
-6042 4129 0
6042 -4118 -4129 0
-6043 4470 0
-6043 5396 0
6043 -4470 -5396 0
-6044 1680 -2885 0
-6044 -1680 2885 0
6044 -1680 -2885 0
6044 1680 2885 0
-6045 -2922 3337 0
-6045 2922 -3337 0
6045 2922 3337 0
6045 -2922 -3337 0
-6046 2248 0
-6046 3426 0
6046 -2248 -3426 0
-6047 4011 -5609 0
-6047 -4011 5609 0
6047 -4011 -5609 0
6047 4011 5609 0
-6048 3029 3059 0
-6048 -3029 -3059 0
6048 -3029 3059 0
6048 3029 -3059 0
-6049 -3192 -4838 0
-6049 3192 4838 0
6049 3192 -4838 0
6049 -3192 4838 0
-6050 1110 0
-6050 -4810 0
6050 -1110 4810 0
-6051 5351 0
-6051 -2778 0
6051 -5351 2778 0
-6052 1052 0
-6052 5863 0
6052 -1052 -5863 0
-6053 -3490 0
-6053 -1299 0
6053 3490 1299 0
-6054 2095 0
-6054 -2941 0
6054 -2095 2941 0
-6055 1981 -751 0
-6055 -1981 751 0
6055 -1981 -751 0
6055 1981 751 0
-6056 5050 0
-6056 2162 0
6056 -5050 -2162 0
-6057 5595 -1914 0
-6057 -5595 1914 0
6057 -5595 -1914 0
6057 5595 1914 0
-6058 4665 0
-6058 -3335 0
6058 -4665 3335 0
-6059 195 0
-6059 -3638 0
6059 -195 3638 0
-6060 -3120 0
-6060 -5619 0
6060 3120 5619 0
-6061 5394 0
-6061 2058 0
6061 -5394 -2058 0
-6062 426 0
-6062 -2590 0
6062 -426 2590 0
-6063 -5741 0
-6063 -1255 0
6063 5741 1255 0
-6064 3128 0
-6064 2190 0
6064 -3128 -2190 0
-6065 4118 -1434 0
-6065 -4118 1434 0
6065 -4118 -1434 0
6065 4118 1434 0
-6066 -3632 -3316 0
-6066 3632 3316 0
6066 3632 -3316 0
6066 -3632 3316 0
-6067 5013 0
-6067 5198 0
6067 -5013 -5198 0
-6068 -3339 0
-6068 -5817 0
6068 3339 5817 0
-6069 1800 0
-6069 -4380 0
6069 -1800 4380 0
-6070 2160 0
-6070 -4403 0
6070 -2160 4403 0
-6071 -5227 0
-6071 957 0
6071 5227 -957 0
-6072 477 -4378 0
-6072 -477 4378 0
6072 -477 -4378 0
6072 477 4378 0
-6073 5606 0
-6073 -1432 0
6073 -5606 1432 0
-6074 -3189 0
-6074 -1968 0
6074 3189 1968 0
-6075 813 -728 0
-6075 -813 728 0
6075 -813 -728 0
6075 813 728 0
-6076 3872 -5818 0
-6076 -3872 5818 0
6076 -3872 -5818 0
6076 3872 5818 0
-6077 4113 -3449 0
-6077 -4113 3449 0
6077 -4113 -3449 0
6077 4113 3449 0
-6078 -3370 0
-6078 678 0
6078 3370 -678 0
-6079 -1012 0
-6079 -647 0
6079 1012 647 0
-6080 -3152 968 0
-6080 3152 -968 0
6080 3152 968 0
6080 -3152 -968 0
-6081 5063 0
-6081 2159 0
6081 -5063 -2159 0
-6082 -3792 0
-6082 5291 0
6082 3792 -5291 0
-6083 -4551 5210 0
-6083 4551 -5210 0
6083 4551 5210 0
6083 -4551 -5210 0
-6084 -1611 0
-6084 2487 0
6084 1611 -2487 0
-6085 1792 0
-6085 5130 0
6085 -1792 -5130 0
-6086 3243 0
-6086 -2070 0
6086 -3243 2070 0
-6087 -2185 0
-6087 -658 0
6087 2185 658 0
-6088 4441 -2837 0
-6088 -4441 2837 0
6088 -4441 -2837 0
6088 4441 2837 0
-6089 4897 0
-6089 4798 0
6089 -4897 -4798 0
-6090 3456 5351 0
-6090 -3456 -5351 0
6090 -3456 5351 0
6090 3456 -5351 0
-6091 2097 -3747 0
-6091 -2097 3747 0
6091 -2097 -3747 0
6091 2097 3747 0
-6092 -1275 0
-6092 573 0
6092 1275 -573 0
-6093 3789 -1253 0
-6093 -3789 1253 0
6093 -3789 -1253 0
6093 3789 1253 0
-6094 -650 0
-6094 307 0
6094 650 -307 0
-6095 2722 0
-6095 -2193 0
6095 -2722 2193 0
-6096 2770 -5576 0
-6096 -2770 5576 0
6096 -2770 -5576 0
6096 2770 5576 0
-6097 -5908 1797 0
-6097 5908 -1797 0
6097 5908 1797 0
6097 -5908 -1797 0
-6098 3117 0
-6098 3881 0
6098 -3117 -3881 0
-6099 -1820 0
-6099 2428 0
6099 1820 -2428 0
-6100 -2707 0
-6100 -294 0
6100 2707 294 0
-6101 -1043 2408 0
-6101 1043 -2408 0
6101 1043 2408 0
6101 -1043 -2408 0
-6102 402 5646 0
-6102 -402 -5646 0
6102 -402 5646 0
6102 402 -5646 0
-6103 -3341 0
-6103 1511 0
6103 3341 -1511 0
-6104 -5866 0
-6104 -5804 0
6104 5866 5804 0
-6105 -4694 4484 0
-6105 4694 -4484 0
6105 4694 4484 0
6105 -4694 -4484 0
-6106 -4423 0
-6106 2427 0
6106 4423 -2427 0
-6107 -3439 0
-6107 3046 0
6107 3439 -3046 0
-6108 4613 0
-6108 -1460 0
6108 -4613 1460 0
-6109 4024 0
-6109 -1499 0
6109 -4024 1499 0
-6110 -5031 0
-6110 -2813 0
6110 5031 2813 0
-6111 -2988 0
-6111 -3561 0
6111 2988 3561 0
-6112 4806 -178 0
-6112 -4806 178 0
6112 -4806 -178 0
6112 4806 178 0
-6113 1090 0
-6113 -1694 0
6113 -1090 1694 0
-6114 -674 0
-6114 -1519 0
6114 674 1519 0
-6115 -2465 1279 0
-6115 2465 -1279 0
6115 2465 1279 0
6115 -2465 -1279 0
-6116 -5786 0
-6116 1585 0
6116 5786 -1585 0
-6117 1072 731 0
-6117 -1072 -731 0
6117 -1072 731 0
6117 1072 -731 0
-6118 1165 -3043 0
-6118 -1165 3043 0
6118 -1165 -3043 0
6118 1165 3043 0
-6119 4893 0
-6119 285 0
6119 -4893 -285 0
-6120 345 0
-6120 -5227 0
6120 -345 5227 0
-6121 -2374 -951 0
-6121 2374 951 0
6121 2374 -951 0
6121 -2374 951 0
-6122 -2009 0
-6122 -3087 0
6122 2009 3087 0
-6123 -3259 0
-6123 1685 0
6123 3259 -1685 0
-6124 -3547 0
-6124 6104 0
6124 3547 -6104 0
-6125 -3193 0
-6125 -6080 0
6125 3193 6080 0
-5998 0
-5999 0
6000 0
6001 0
6002 0
6003 0
6004 0
-6005 0
6006 0
-6007 0
-6008 0
-6009 0
6010 0
6011 0
6012 0
-6013 0
-6014 0
-6015 0
-6016 0
-6017 0
-6018 0
6019 0
-6020 0
-6021 0
-6022 0
-6023 0
-6024 0
6025 0
6026 0
6027 0
6028 0
6029 0
-6030 0
-6031 0
-6032 0
6033 0
-6034 0
-6035 0
-6036 0
-6037 0
6038 0
6039 0
-6040 0
6041 0
-6042 0
-6043 0
-6044 0
6045 0
-6046 0
-6047 0
6048 0
6049 0
6050 0
-6051 0
-6052 0
6053 0
-6054 0
-6055 0
-6056 0
6057 0
-6058 0
6059 0
6060 0
6061 0
-6062 0
-6063 0
-6064 0
-6065 0
-6066 0
-6067 0
-6068 0
6069 0
-6070 0
6071 0
-6072 0
6073 0
-6074 0
6075 0
6076 0
6077 0
-6078 0
6079 0
6080 0
-6081 0
-6082 0
-6083 0
-6084 0
-6085 0
-6086 0
-6087 0
-6088 0
-6089 0
6090 0
6091 0
-6092 0
6093 0
-6094 0
6095 0
6096 0
6097 0
6098 0
-6099 0
-6100 0
-6101 0
-6102 0
-6103 0
-6104 0
-6105 0
-6106 0
-6107 0
-6108 0
-6109 0
6110 0
6111 0
-6112 0
-6113 0
6114 0
-6115 0
-6116 0
-6117 0
-6118 0
-6119 0
-6120 0
-6121 0
6122 0
-6123 0
-6124 0
-6125 0
