c xor-heavy random circuit, inputs=24 gates=200, last 24 signals pinned to a planted input assignment; input variables are 1..24
c generated by TurboCryptoSAT gen-benchmark - satisfiable by construction
p cnf 223 757
-25 -8 21 0
-25 8 -21 0
25 8 21 0
25 -8 -21 0
-26 -18 0
-26 -17 0
26 18 17 0
-27 -17 0
-27 -1 0
27 17 1 0
-28 -25 0
-28 13 0
28 25 -13 0
-29 22 25 0
-29 -22 -25 0
29 -22 25 0
29 22 -25 0
-30 10 8 0
-30 -10 -8 0
30 -10 8 0
30 10 -8 0
-31 -29 8 0
-31 29 -8 0
31 29 8 0
31 -29 -8 0
-32 28 -15 0
-32 -28 15 0
32 -28 -15 0
32 28 15 0
-33 -14 32 0
-33 14 -32 0
33 14 32 0
33 -14 -32 0
-34 2 -14 0
-34 -2 14 0
34 -2 -14 0
34 2 14 0
-35 -22 2 0
-35 22 -2 0
35 22 2 0
35 -22 -2 0
-36 30 1 0
-36 -30 -1 0
36 -30 1 0
36 30 -1 0
-37 -22 0
-37 20 0
37 22 -20 0
-38 -18 -12 0
-38 18 12 0
38 18 -12 0
38 -18 12 0
-39 -25 9 0
-39 25 -9 0
39 25 9 0
39 -25 -9 0
-40 12 39 0
-40 -12 -39 0
40 -12 39 0
40 12 -39 0
-41 -24 18 0
-41 24 -18 0
41 24 18 0
41 -24 -18 0
-42 18 3 0
-42 -18 -3 0
42 -18 3 0
42 18 -3 0
-43 19 -28 0
-43 -19 28 0
43 -19 -28 0
43 19 28 0
-44 -32 18 0
-44 32 -18 0
44 32 18 0
44 -32 -18 0
-45 -29 0
-45 1 0
45 29 -1 0
-46 4 0
-46 26 0
46 -4 -26 0
-47 -24 43 0
-47 24 -43 0
47 24 43 0
47 -24 -43 0
-48 -3 20 0
-48 3 -20 0
48 3 20 0
48 -3 -20 0
-49 -48 43 0
-49 48 -43 0
49 48 43 0
49 -48 -43 0
-50 13 0
-50 9 0
50 -13 -9 0
-51 -27 -10 0
-51 27 10 0
51 27 -10 0
51 -27 10 0
-52 24 0
-52 2 0
52 -24 -2 0
-53 -15 45 0
-53 15 -45 0
53 15 45 0
53 -15 -45 0
-54 -38 0
-54 53 0
54 38 -53 0
-55 12 -36 0
-55 -12 36 0
55 -12 -36 0
55 12 36 0
-56 55 2 0
-56 -55 -2 0
56 -55 2 0
56 55 -2 0
-57 -56 -40 0
-57 56 40 0
57 56 -40 0
57 -56 40 0
-58 51 21 0
-58 -51 -21 0
58 -51 21 0
58 51 -21 0
-59 13 -55 0
-59 -13 55 0
59 -13 -55 0
59 13 55 0
-60 6 56 0
-60 -6 -56 0
60 -6 56 0
60 6 -56 0
-61 52 -1 0
-61 -52 1 0
61 -52 -1 0
61 52 1 0
-62 5 -32 0
-62 -5 32 0
62 -5 -32 0
62 5 32 0
-63 -45 0
-63 10 0
63 45 -10 0
-64 -30 -9 0
-64 30 9 0
64 30 -9 0
64 -30 9 0
-65 14 17 0
-65 -14 -17 0
65 -14 17 0
65 14 -17 0
-66 1 -34 0
-66 -1 34 0
66 -1 -34 0
66 1 34 0
-67 -1 15 0
-67 1 -15 0
67 1 15 0
67 -1 -15 0
-68 -14 0
-68 -17 0
68 14 17 0
-69 15 0
-69 61 0
69 -15 -61 0
-70 38 21 0
-70 -38 -21 0
70 -38 21 0
70 38 -21 0
-71 23 -63 0
-71 -23 63 0
71 -23 -63 0
71 23 63 0
-72 6 42 0
-72 -6 -42 0
72 -6 42 0
72 6 -42 0
-73 15 53 0
-73 -15 -53 0
73 -15 53 0
73 15 -53 0
-74 34 0
-74 8 0
74 -34 -8 0
-75 -22 62 0
-75 22 -62 0
75 22 62 0
75 -22 -62 0
-76 25 64 0
-76 -25 -64 0
76 -25 64 0
76 25 -64 0
-77 2 0
-77 -69 0
77 -2 69 0
-78 56 -16 0
-78 -56 16 0
78 -56 -16 0
78 56 16 0
-79 30 23 0
-79 -30 -23 0
79 -30 23 0
79 30 -23 0
-80 -71 51 0
-80 71 -51 0
80 71 51 0
80 -71 -51 0
-81 16 0
-81 -54 0
81 -16 54 0
-82 1 13 0
-82 -1 -13 0
82 -1 13 0
82 1 -13 0
-83 -45 -9 0
-83 45 9 0
83 45 -9 0
83 -45 9 0
-84 47 40 0
-84 -47 -40 0
84 -47 40 0
84 47 -40 0
-85 14 52 0
-85 -14 -52 0
85 -14 52 0
85 14 -52 0
-86 82 77 0
-86 -82 -77 0
86 -82 77 0
86 82 -77 0
-87 52 -1 0
-87 -52 1 0
87 -52 -1 0
87 52 1 0
-88 52 0
-88 -20 0
88 -52 20 0
-89 -48 80 0
-89 48 -80 0
89 48 80 0
89 -48 -80 0
-90 -57 88 0
-90 57 -88 0
90 57 88 0
90 -57 -88 0
-91 -77 2 0
-91 77 -2 0
91 77 2 0
91 -77 -2 0
-92 -81 0
-92 -37 0
92 81 37 0
-93 46 -45 0
-93 -46 45 0
93 -46 -45 0
93 46 45 0
-94 54 35 0
-94 -54 -35 0
94 -54 35 0
94 54 -35 0
-95 2 -6 0
-95 -2 6 0
95 -2 -6 0
95 2 6 0
-96 92 0
-96 70 0
96 -92 -70 0
-97 -23 0
-97 -5 0
97 23 5 0
-98 8 -71 0
-98 -8 71 0
98 -8 -71 0
98 8 71 0
-99 -46 -39 0
-99 46 39 0
99 46 -39 0
99 -46 39 0
-100 82 -46 0
-100 -82 46 0
100 -82 -46 0
100 82 46 0
-101 -96 11 0
-101 96 -11 0
101 96 11 0
101 -96 -11 0
-102 58 20 0
-102 -58 -20 0
102 -58 20 0
102 58 -20 0
-103 34 91 0
-103 -34 -91 0
103 -34 91 0
103 34 -91 0
-104 80 0
-104 -36 0
104 -80 36 0
-105 -31 0
-105 -24 0
105 31 24 0
-106 24 0
-106 41 0
106 -24 -41 0
-107 6 0
-107 -84 0
107 -6 84 0
-108 75 0
-108 4 0
108 -75 -4 0
-109 -107 0
-109 47 0
109 107 -47 0
-110 98 4 0
-110 -98 -4 0
110 -98 4 0
110 98 -4 0
-111 -29 -106 0
-111 29 106 0
111 29 -106 0
111 -29 106 0
-112 -88 65 0
-112 88 -65 0
112 88 65 0
112 -88 -65 0
-113 -80 0
-113 -56 0
113 80 56 0
-114 17 -53 0
-114 -17 53 0
114 -17 -53 0
114 17 53 0
-115 -62 0
-115 -40 0
115 62 40 0
-116 -69 0
-116 43 0
116 69 -43 0
-117 11 42 0
-117 -11 -42 0
117 -11 42 0
117 11 -42 0
-118 18 69 0
-118 -18 -69 0
118 -18 69 0
118 18 -69 0
-119 -80 0
-119 -10 0
119 80 10 0
-120 69 0
-120 -50 0
120 -69 50 0
-121 14 0
-121 83 0
121 -14 -83 0
-122 35 0
-122 -99 0
122 -35 99 0
-123 -91 -63 0
-123 91 63 0
123 91 -63 0
123 -91 63 0
-124 -8 0
-124 65 0
124 8 -65 0
-125 76 -24 0
-125 -76 24 0
125 -76 -24 0
125 76 24 0
-126 1 43 0
-126 -1 -43 0
126 -1 43 0
126 1 -43 0
-127 -119 0
-127 -62 0
127 119 62 0
-128 -8 0
-128 -22 0
128 8 22 0
-129 -57 -32 0
-129 57 32 0
129 57 -32 0
129 -57 32 0
-130 27 -104 0
-130 -27 104 0
130 -27 -104 0
130 27 104 0
-131 -108 11 0
-131 108 -11 0
131 108 11 0
131 -108 -11 0
-132 -77 127 0
-132 77 -127 0
132 77 127 0
132 -77 -127 0
-133 -47 -110 0
-133 47 110 0
133 47 -110 0
133 -47 110 0
-134 111 -68 0
-134 -111 68 0
134 -111 -68 0
134 111 68 0
-135 -75 -15 0
-135 75 15 0
135 75 -15 0
135 -75 15 0
-136 130 0
-136 24 0
136 -130 -24 0
-137 -97 66 0
-137 97 -66 0
137 97 66 0
137 -97 -66 0
-138 -129 -51 0
-138 129 51 0
138 129 -51 0
138 -129 51 0
-139 42 -69 0
-139 -42 69 0
139 -42 -69 0
139 42 69 0
-140 -55 -14 0
-140 55 14 0
140 55 -14 0
140 -55 14 0
-141 -48 0
-141 -62 0
141 48 62 0
-142 -8 115 0
-142 8 -115 0
142 8 115 0
142 -8 -115 0
-143 77 -9 0
-143 -77 9 0
143 -77 -9 0
143 77 9 0
-144 1 0
-144 15 0
144 -1 -15 0
-145 122 -15 0
-145 -122 15 0
145 -122 -15 0
145 122 15 0
-146 116 66 0
-146 -116 -66 0
146 -116 66 0
146 116 -66 0
-147 114 -41 0
-147 -114 41 0
147 -114 -41 0
147 114 41 0
-148 147 67 0
-148 -147 -67 0
148 -147 67 0
148 147 -67 0
-149 145 125 0
-149 -145 -125 0
149 -145 125 0
149 145 -125 0
-150 -128 -113 0
-150 128 113 0
150 128 -113 0
150 -128 113 0
-151 -47 0
-151 -115 0
151 47 115 0
-152 68 -7 0
-152 -68 7 0
152 -68 -7 0
152 68 7 0
-153 -36 0
-153 -125 0
153 36 125 0
-154 72 0
-154 4 0
154 -72 -4 0
-155 -139 10 0
-155 139 -10 0
155 139 10 0
155 -139 -10 0
-156 112 143 0
-156 -112 -143 0
156 -112 143 0
156 112 -143 0
-157 17 -149 0
-157 -17 149 0
157 -17 -149 0
157 17 149 0
-158 -65 0
-158 -106 0
158 65 106 0
-159 31 0
-159 -17 0
159 -31 17 0
-160 74 -102 0
-160 -74 102 0
160 -74 -102 0
160 74 102 0
-161 -54 -64 0
-161 54 64 0
161 54 -64 0
161 -54 64 0
-162 -100 -96 0
-162 100 96 0
162 100 -96 0
162 -100 96 0
-163 80 0
-163 28 0
163 -80 -28 0
-164 -41 61 0
-164 41 -61 0
164 41 61 0
164 -41 -61 0
-165 96 3 0
-165 -96 -3 0
165 -96 3 0
165 96 -3 0
-166 132 -55 0
-166 -132 55 0
166 -132 -55 0
166 132 55 0
-167 75 -139 0
-167 -75 139 0
167 -75 -139 0
167 75 139 0
-168 137 65 0
-168 -137 -65 0
168 -137 65 0
168 137 -65 0
-169 12 90 0
-169 -12 -90 0
169 -12 90 0
169 12 -90 0
-170 18 54 0
-170 -18 -54 0
170 -18 54 0
170 18 -54 0
-171 5 0
-171 -38 0
171 -5 38 0
-172 148 -111 0
-172 -148 111 0
172 -148 -111 0
172 148 111 0
-173 -30 121 0
-173 30 -121 0
173 30 121 0
173 -30 -121 0
-174 -80 3 0
-174 80 -3 0
174 80 3 0
174 -80 -3 0
-175 65 170 0
-175 -65 -170 0
175 -65 170 0
175 65 -170 0
-176 65 0
-176 166 0
176 -65 -166 0
-177 122 0
-177 75 0
177 -122 -75 0
-178 166 94 0
-178 -166 -94 0
178 -166 94 0
178 166 -94 0
-179 -19 49 0
-179 19 -49 0
179 19 49 0
179 -19 -49 0
-180 19 -22 0
-180 -19 22 0
180 -19 -22 0
180 19 22 0
-181 -173 29 0
-181 173 -29 0
181 173 29 0
181 -173 -29 0
-182 -46 0
-182 27 0
182 46 -27 0
-183 -182 112 0
-183 182 -112 0
183 182 112 0
183 -182 -112 0
-184 59 66 0
-184 -59 -66 0
184 -59 66 0
184 59 -66 0
-185 -89 0
-185 -171 0
185 89 171 0
-186 34 -151 0
-186 -34 151 0
186 -34 -151 0
186 34 151 0
-187 -2 26 0
-187 2 -26 0
187 2 26 0
187 -2 -26 0
-188 23 174 0
-188 -23 -174 0
188 -23 174 0
188 23 -174 0
-189 -6 0
-189 -133 0
189 6 133 0
-190 122 -152 0
-190 -122 152 0
190 -122 -152 0
190 122 152 0
-191 116 96 0
-191 -116 -96 0
191 -116 96 0
191 116 -96 0
-192 142 -28 0
-192 -142 28 0
192 -142 -28 0
192 142 28 0
-193 99 -153 0
-193 -99 153 0
193 -99 -153 0
193 99 153 0
-194 84 -119 0
-194 -84 119 0
194 -84 -119 0
194 84 119 0
-195 10 79 0
-195 -10 -79 0
195 -10 79 0
195 10 -79 0
-196 -15 0
-196 -4 0
196 15 4 0
-197 95 -30 0
-197 -95 30 0
197 -95 -30 0
197 95 30 0
-198 -26 -68 0
-198 26 68 0
198 26 -68 0
198 -26 68 0
-199 -32 -68 0
-199 32 68 0
199 32 -68 0
199 -32 68 0
-200 -160 0
-200 -25 0
200 160 25 0
-201 -123 1 0
-201 123 -1 0
201 123 1 0
201 -123 -1 0
-202 -94 -201 0
-202 94 201 0
202 94 -201 0
202 -94 201 0
-203 82 -1 0
-203 -82 1 0
203 -82 -1 0
203 82 1 0
-204 -129 0
-204 -124 0
204 129 124 0
-205 -65 69 0
-205 65 -69 0
205 65 69 0
205 -65 -69 0
-206 -2 0
-206 33 0
206 2 -33 0
-207 127 28 0
-207 -127 -28 0
207 -127 28 0
207 127 -28 0
-208 135 0
-208 -104 0
208 -135 104 0
-209 -203 0
-209 167 0
209 203 -167 0
-210 78 -132 0
-210 -78 132 0
210 -78 -132 0
210 78 132 0
-211 34 -210 0
-211 -34 210 0
211 -34 -210 0
211 34 210 0
-212 -79 0
-212 173 0
212 79 -173 0
-213 -59 162 0
-213 59 -162 0
213 59 162 0
213 -59 -162 0
-214 -80 0
-214 -76 0
214 80 76 0
-215 -16 0
-215 -98 0
215 16 98 0
-216 155 0
-216 -7 0
216 -155 7 0
-217 170 0
-217 -183 0
217 -170 183 0
-218 -66 -188 0
-218 66 188 0
218 66 -188 0
218 -66 188 0
-219 177 -147 0
-219 -177 147 0
219 -177 -147 0
219 177 147 0
-220 161 0
-220 -129 0
220 -161 129 0
-221 128 0
-221 -203 0
221 -128 203 0
-222 -171 127 0
-222 171 -127 0
222 171 127 0
222 -171 -127 0
-223 136 -157 0
-223 -136 157 0
223 -136 -157 0
223 136 157 0
-200 0
-201 0
-202 0
203 0
204 0
-205 0
-206 0
207 0
-208 0
-209 0
210 0
211 0
-212 0
213 0
214 0
-215 0
216 0
-217 0
-218 0
-219 0
220 0
-221 0
222 0
223 0
