c xor-heavy random circuit, inputs=32 gates=400, last 32 signals pinned to a planted input assignment; input variables are 1..32
c generated by TurboCryptoSAT gen-benchmark - satisfiable by construction
p cnf 430 1502
-33 -23 6 0
-33 23 -6 0
33 23 6 0
33 -23 -6 0
-34 -27 -3 0
-34 27 3 0
34 27 -3 0
34 -27 3 0
-35 -24 -12 0
-35 24 12 0
35 24 -12 0
35 -24 12 0
-36 17 24 0
-36 -17 -24 0
36 -17 24 0
36 17 -24 0
-37 -23 0
-37 9 0
37 23 -9 0
-38 13 -9 0
-38 -13 9 0
38 -13 -9 0
38 13 9 0
-39 -17 28 0
-39 17 -28 0
39 17 28 0
39 -17 -28 0
-40 11 18 0
-40 -11 -18 0
40 -11 18 0
40 11 -18 0
-41 -24 0
-41 -17 0
41 24 17 0
-42 -5 0
-42 32 0
42 5 -32 0
-43 33 -18 0
-43 -33 18 0
43 -33 -18 0
43 33 18 0
-44 14 16 0
-44 -14 -16 0
44 -14 16 0
44 14 -16 0
-45 -43 34 0
-45 43 -34 0
45 43 34 0
45 -43 -34 0
-46 -38 2 0
-46 38 -2 0
46 38 2 0
46 -38 -2 0
-47 32 0
-47 5 0
47 -32 -5 0
-48 -33 -1 0
-48 33 1 0
48 33 -1 0
48 -33 1 0
-49 42 1 0
-49 -42 -1 0
49 -42 1 0
49 42 -1 0
-50 32 0
-50 -4 0
50 -32 4 0
-51 -22 -36 0
-51 22 36 0
51 22 -36 0
51 -22 36 0
-52 -30 -20 0
-52 30 20 0
52 30 -20 0
52 -30 20 0
-53 -7 -32 0
-53 7 32 0
53 7 -32 0
53 -7 32 0
-54 -8 0
-54 -36 0
54 8 36 0
-55 33 0
-55 27 0
55 -33 -27 0
-56 -20 -30 0
-56 20 30 0
56 20 -30 0
56 -20 30 0
-57 23 -26 0
-57 -23 26 0
57 -23 -26 0
57 23 26 0
-58 57 -35 0
-58 -57 35 0
58 -57 -35 0
58 57 35 0
-59 -9 -2 0
-59 9 2 0
59 9 -2 0
59 -9 2 0
-60 -53 -50 0
-60 53 50 0
60 53 -50 0
60 -53 50 0
-61 -29 0
-61 45 0
61 29 -45 0
-62 6 0
-62 44 0
62 -6 -44 0
-63 50 -24 0
-63 -50 24 0
63 -50 -24 0
63 50 24 0
-64 12 41 0
-64 -12 -41 0
64 -12 41 0
64 12 -41 0
-65 33 10 0
-65 -33 -10 0
65 -33 10 0
65 33 -10 0
-66 -12 28 0
-66 12 -28 0
66 12 28 0
66 -12 -28 0
-67 -48 15 0
-67 48 -15 0
67 48 15 0
67 -48 -15 0
-68 -12 -2 0
-68 12 2 0
68 12 -2 0
68 -12 2 0
-69 5 -36 0
-69 -5 36 0
69 -5 -36 0
69 5 36 0
-70 -5 -57 0
-70 5 57 0
70 5 -57 0
70 -5 57 0
-71 42 0
-71 -59 0
71 -42 59 0
-72 -34 0
-72 63 0
72 34 -63 0
-73 35 0
-73 -23 0
73 -35 23 0
-74 5 65 0
-74 -5 -65 0
74 -5 65 0
74 5 -65 0
-75 -34 13 0
-75 34 -13 0
75 34 13 0
75 -34 -13 0
-76 -32 0
-76 -40 0
76 32 40 0
-77 -36 43 0
-77 36 -43 0
77 36 43 0
77 -36 -43 0
-78 46 0
-78 37 0
78 -46 -37 0
-79 12 13 0
-79 -12 -13 0
79 -12 13 0
79 12 -13 0
-80 -54 0
-80 39 0
80 54 -39 0
-81 -36 -37 0
-81 36 37 0
81 36 -37 0
81 -36 37 0
-82 80 0
-82 30 0
82 -80 -30 0
-83 17 63 0
-83 -17 -63 0
83 -17 63 0
83 17 -63 0
-84 -74 -8 0
-84 74 8 0
84 74 -8 0
84 -74 8 0
-85 84 -27 0
-85 -84 27 0
85 -84 -27 0
85 84 27 0
-86 38 61 0
-86 -38 -61 0
86 -38 61 0
86 38 -61 0
-87 13 0
-87 34 0
87 -13 -34 0
-88 -34 29 0
-88 34 -29 0
88 34 29 0
88 -34 -29 0
-89 32 0
-89 -51 0
89 -32 51 0
-90 38 -13 0
-90 -38 13 0
90 -38 -13 0
90 38 13 0
-91 -37 90 0
-91 37 -90 0
91 37 90 0
91 -37 -90 0
-92 -37 -50 0
-92 37 50 0
92 37 -50 0
92 -37 50 0
-93 -37 -62 0
-93 37 62 0
93 37 -62 0
93 -37 62 0
-94 64 3 0
-94 -64 -3 0
94 -64 3 0
94 64 -3 0
-95 52 -81 0
-95 -52 81 0
95 -52 -81 0
95 52 81 0
-96 -27 0
-96 -9 0
96 27 9 0
-97 -23 -96 0
-97 23 96 0
97 23 -96 0
97 -23 96 0
-98 -34 -44 0
-98 34 44 0
98 34 -44 0
98 -34 44 0
-99 35 0
-99 37 0
99 -35 -37 0
-100 -63 41 0
-100 63 -41 0
100 63 41 0
100 -63 -41 0
-101 -71 35 0
-101 71 -35 0
101 71 35 0
101 -71 -35 0
-102 -91 -62 0
-102 91 62 0
102 91 -62 0
102 -91 62 0
-103 -7 0
-103 -40 0
103 7 40 0
-104 70 -78 0
-104 -70 78 0
104 -70 -78 0
104 70 78 0
-105 72 68 0
-105 -72 -68 0
105 -72 68 0
105 72 -68 0
-106 -86 0
-106 13 0
106 86 -13 0
-107 23 8 0
-107 -23 -8 0
107 -23 8 0
107 23 -8 0
-108 -14 0
-108 22 0
108 14 -22 0
-109 77 0
-109 -19 0
109 -77 19 0
-110 72 69 0
-110 -72 -69 0
110 -72 69 0
110 72 -69 0
-111 39 -24 0
-111 -39 24 0
111 -39 -24 0
111 39 24 0
-112 -28 -13 0
-112 28 13 0
112 28 -13 0
112 -28 13 0
-113 47 -88 0
-113 -47 88 0
113 -47 -88 0
113 47 88 0
-114 63 110 0
-114 -63 -110 0
114 -63 110 0
114 63 -110 0
-115 92 63 0
-115 -92 -63 0
115 -92 63 0
115 92 -63 0
-116 12 59 0
-116 -12 -59 0
116 -12 59 0
116 12 -59 0
-117 -105 -71 0
-117 105 71 0
117 105 -71 0
117 -105 71 0
-118 -110 -43 0
-118 110 43 0
118 110 -43 0
118 -110 43 0
-119 95 46 0
-119 -95 -46 0
119 -95 46 0
119 95 -46 0
-120 49 -2 0
-120 -49 2 0
120 -49 -2 0
120 49 2 0
-121 -9 0
-121 101 0
121 9 -101 0
-122 -100 20 0
-122 100 -20 0
122 100 20 0
122 -100 -20 0
-123 -111 0
-123 -7 0
123 111 7 0
-124 119 54 0
-124 -119 -54 0
124 -119 54 0
124 119 -54 0
-125 37 0
-125 -38 0
125 -37 38 0
-126 109 94 0
-126 -109 -94 0
126 -109 94 0
126 109 -94 0
-127 11 0
-127 -73 0
127 -11 73 0
-128 62 0
-128 46 0
128 -62 -46 0
-129 -126 7 0
-129 126 -7 0
129 126 7 0
129 -126 -7 0
-130 16 0
-130 -24 0
130 -16 24 0
-131 -61 -129 0
-131 61 129 0
131 61 -129 0
131 -61 129 0
-132 14 -49 0
-132 -14 49 0
132 -14 -49 0
132 14 49 0
-133 92 -21 0
-133 -92 21 0
133 -92 -21 0
133 92 21 0
-134 100 20 0
-134 -100 -20 0
134 -100 20 0
134 100 -20 0
-135 -72 0
-135 -16 0
135 72 16 0
-136 82 -64 0
-136 -82 64 0
136 -82 -64 0
136 82 64 0
-137 114 60 0
-137 -114 -60 0
137 -114 60 0
137 114 -60 0
-138 9 -101 0
-138 -9 101 0
138 -9 -101 0
138 9 101 0
-139 -48 -33 0
-139 48 33 0
139 48 -33 0
139 -48 33 0
-140 -72 -124 0
-140 72 124 0
140 72 -124 0
140 -72 124 0
-141 -55 69 0
-141 55 -69 0
141 55 69 0
141 -55 -69 0
-142 -62 129 0
-142 62 -129 0
142 62 129 0
142 -62 -129 0
-143 52 0
-143 26 0
143 -52 -26 0
-144 -11 0
-144 -122 0
144 11 122 0
-145 -48 0
-145 1 0
145 48 -1 0
-146 123 -90 0
-146 -123 90 0
146 -123 -90 0
146 123 90 0
-147 -106 103 0
-147 106 -103 0
147 106 103 0
147 -106 -103 0
-148 -78 49 0
-148 78 -49 0
148 78 49 0
148 -78 -49 0
-149 18 17 0
-149 -18 -17 0
149 -18 17 0
149 18 -17 0
-150 -140 92 0
-150 140 -92 0
150 140 92 0
150 -140 -92 0
-151 132 -69 0
-151 -132 69 0
151 -132 -69 0
151 132 69 0
-152 98 -77 0
-152 -98 77 0
152 -98 -77 0
152 98 77 0
-153 97 0
-153 24 0
153 -97 -24 0
-154 124 151 0
-154 -124 -151 0
154 -124 151 0
154 124 -151 0
-155 -18 71 0
-155 18 -71 0
155 18 71 0
155 -18 -71 0
-156 92 148 0
-156 -92 -148 0
156 -92 148 0
156 92 -148 0
-157 33 -125 0
-157 -33 125 0
157 -33 -125 0
157 33 125 0
-158 -35 0
-158 150 0
158 35 -150 0
-159 56 -87 0
-159 -56 87 0
159 -56 -87 0
159 56 87 0
-160 72 98 0
-160 -72 -98 0
160 -72 98 0
160 72 -98 0
-161 24 46 0
-161 -24 -46 0
161 -24 46 0
161 24 -46 0
-162 -91 0
-162 14 0
162 91 -14 0
-163 147 -45 0
-163 -147 45 0
163 -147 -45 0
163 147 45 0
-164 -121 0
-164 -20 0
164 121 20 0
-165 52 111 0
-165 -52 -111 0
165 -52 111 0
165 52 -111 0
-166 124 104 0
-166 -124 -104 0
166 -124 104 0
166 124 -104 0
-167 106 -80 0
-167 -106 80 0
167 -106 -80 0
167 106 80 0
-168 121 149 0
-168 -121 -149 0
168 -121 149 0
168 121 -149 0
-169 -70 -117 0
-169 70 117 0
169 70 -117 0
169 -70 117 0
-170 -86 0
-170 -26 0
170 86 26 0
-171 -68 0
-171 -153 0
171 68 153 0
-172 100 29 0
-172 -100 -29 0
172 -100 29 0
172 100 -29 0
-173 -2 0
-173 -141 0
173 2 141 0
-174 -160 0
-174 121 0
174 160 -121 0
-175 146 125 0
-175 -146 -125 0
175 -146 125 0
175 146 -125 0
-176 -155 0
-176 -36 0
176 155 36 0
-177 -106 0
-177 20 0
177 106 -20 0
-178 -86 0
-178 149 0
178 86 -149 0
-179 52 0
-179 31 0
179 -52 -31 0
-180 -7 75 0
-180 7 -75 0
180 7 75 0
180 -7 -75 0
-181 -2 0
-181 16 0
181 2 -16 0
-182 112 -116 0
-182 -112 116 0
182 -112 -116 0
182 112 116 0
-183 72 -73 0
-183 -72 73 0
183 -72 -73 0
183 72 73 0
-184 -4 0
-184 -10 0
184 4 10 0
-185 50 -160 0
-185 -50 160 0
185 -50 -160 0
185 50 160 0
-186 157 16 0
-186 -157 -16 0
186 -157 16 0
186 157 -16 0
-187 -21 0
-187 -60 0
187 21 60 0
-188 -169 0
-188 -173 0
188 169 173 0
-189 -64 0
-189 141 0
189 64 -141 0
-190 5 -58 0
-190 -5 58 0
190 -5 -58 0
190 5 58 0
-191 44 0
-191 -21 0
191 -44 21 0
-192 168 0
-192 35 0
192 -168 -35 0
-193 128 183 0
-193 -128 -183 0
193 -128 183 0
193 128 -183 0
-194 -164 0
-194 -100 0
194 164 100 0
-195 40 -140 0
-195 -40 140 0
195 -40 -140 0
195 40 140 0
-196 -165 -105 0
-196 165 105 0
196 165 -105 0
196 -165 105 0
-197 68 147 0
-197 -68 -147 0
197 -68 147 0
197 68 -147 0
-198 -111 0
-198 -41 0
198 111 41 0
-199 65 -185 0
-199 -65 185 0
199 -65 -185 0
199 65 185 0
-200 80 86 0
-200 -80 -86 0
200 -80 86 0
200 80 -86 0
-201 33 0
-201 -167 0
201 -33 167 0
-202 198 -118 0
-202 -198 118 0
202 -198 -118 0
202 198 118 0
-203 -9 167 0
-203 9 -167 0
203 9 167 0
203 -9 -167 0
-204 31 99 0
-204 -31 -99 0
204 -31 99 0
204 31 -99 0
-205 182 0
-205 53 0
205 -182 -53 0
-206 -50 97 0
-206 50 -97 0
206 50 97 0
206 -50 -97 0
-207 -160 0
-207 -174 0
207 160 174 0
-208 -35 186 0
-208 35 -186 0
208 35 186 0
208 -35 -186 0
-209 191 89 0
-209 -191 -89 0
209 -191 89 0
209 191 -89 0
-210 148 -161 0
-210 -148 161 0
210 -148 -161 0
210 148 161 0
-211 -79 0
-211 -20 0
211 79 20 0
-212 137 101 0
-212 -137 -101 0
212 -137 101 0
212 137 -101 0
-213 33 -79 0
-213 -33 79 0
213 -33 -79 0
213 33 79 0
-214 179 0
-214 139 0
214 -179 -139 0
-215 113 109 0
-215 -113 -109 0
215 -113 109 0
215 113 -109 0
-216 95 -21 0
-216 -95 21 0
216 -95 -21 0
216 95 21 0
-217 -49 0
-217 27 0
217 49 -27 0
-218 35 -56 0
-218 -35 56 0
218 -35 -56 0
218 35 56 0
-219 -143 0
-219 93 0
219 143 -93 0
-220 -148 -93 0
-220 148 93 0
220 148 -93 0
220 -148 93 0
-221 25 -19 0
-221 -25 19 0
221 -25 -19 0
221 25 19 0
-222 -136 -212 0
-222 136 212 0
222 136 -212 0
222 -136 212 0
-223 -143 132 0
-223 143 -132 0
223 143 132 0
223 -143 -132 0
-224 -28 -167 0
-224 28 167 0
224 28 -167 0
224 -28 167 0
-225 219 0
-225 -222 0
225 -219 222 0
-226 -104 -35 0
-226 104 35 0
226 104 -35 0
226 -104 35 0
-227 9 0
-227 -113 0
227 -9 113 0
-228 62 -110 0
-228 -62 110 0
228 -62 -110 0
228 62 110 0
-229 171 0
-229 -49 0
229 -171 49 0
-230 60 0
-230 -20 0
230 -60 20 0
-231 186 166 0
-231 -186 -166 0
231 -186 166 0
231 186 -166 0
-232 -18 -74 0
-232 18 74 0
232 18 -74 0
232 -18 74 0
-233 -140 81 0
-233 140 -81 0
233 140 81 0
233 -140 -81 0
-234 -65 0
-234 -68 0
234 65 68 0
-235 40 0
-235 -136 0
235 -40 136 0
-236 198 214 0
-236 -198 -214 0
236 -198 214 0
236 198 -214 0
-237 -115 0
-237 131 0
237 115 -131 0
-238 -165 -40 0
-238 165 40 0
238 165 -40 0
238 -165 40 0
-239 44 125 0
-239 -44 -125 0
239 -44 125 0
239 44 -125 0
-240 -116 -146 0
-240 116 146 0
240 116 -146 0
240 -116 146 0
-241 113 0
-241 -70 0
241 -113 70 0
-242 -121 155 0
-242 121 -155 0
242 121 155 0
242 -121 -155 0
-243 -136 239 0
-243 136 -239 0
243 136 239 0
243 -136 -239 0
-244 64 28 0
-244 -64 -28 0
244 -64 28 0
244 64 -28 0
-245 35 0
-245 -122 0
245 -35 122 0
-246 115 121 0
-246 -115 -121 0
246 -115 121 0
246 115 -121 0
-247 98 -150 0
-247 -98 150 0
247 -98 -150 0
247 98 150 0
-248 -92 72 0
-248 92 -72 0
248 92 72 0
248 -92 -72 0
-249 -182 -191 0
-249 182 191 0
249 182 -191 0
249 -182 191 0
-250 64 96 0
-250 -64 -96 0
250 -64 96 0
250 64 -96 0
-251 -191 0
-251 53 0
251 191 -53 0
-252 218 0
-252 -40 0
252 -218 40 0
-253 -227 191 0
-253 227 -191 0
253 227 191 0
253 -227 -191 0
-254 101 84 0
-254 -101 -84 0
254 -101 84 0
254 101 -84 0
-255 -162 0
-255 70 0
255 162 -70 0
-256 172 -30 0
-256 -172 30 0
256 -172 -30 0
256 172 30 0
-257 -30 -3 0
-257 30 3 0
257 30 -3 0
257 -30 3 0
-258 -162 0
-258 -175 0
258 162 175 0
-259 141 69 0
-259 -141 -69 0
259 -141 69 0
259 141 -69 0
-260 45 0
-260 66 0
260 -45 -66 0
-261 70 0
-261 123 0
261 -70 -123 0
-262 -211 -7 0
-262 211 7 0
262 211 -7 0
262 -211 7 0
-263 -42 -46 0
-263 42 46 0
263 42 -46 0
263 -42 46 0
-264 -73 0
-264 261 0
264 73 -261 0
-265 -54 -254 0
-265 54 254 0
265 54 -254 0
265 -54 254 0
-266 -66 -19 0
-266 66 19 0
266 66 -19 0
266 -66 19 0
-267 39 84 0
-267 -39 -84 0
267 -39 84 0
267 39 -84 0
-268 -109 -129 0
-268 109 129 0
268 109 -129 0
268 -109 129 0
-269 -64 208 0
-269 64 -208 0
269 64 208 0
269 -64 -208 0
-270 -121 63 0
-270 121 -63 0
270 121 63 0
270 -121 -63 0
-271 -87 160 0
-271 87 -160 0
271 87 160 0
271 -87 -160 0
-272 51 -12 0
-272 -51 12 0
272 -51 -12 0
272 51 12 0
-273 -36 74 0
-273 36 -74 0
273 36 74 0
273 -36 -74 0
-274 -177 0
-274 -2 0
274 177 2 0
-275 -92 108 0
-275 92 -108 0
275 92 108 0
275 -92 -108 0
-276 92 84 0
-276 -92 -84 0
276 -92 84 0
276 92 -84 0
-277 -216 -175 0
-277 216 175 0
277 216 -175 0
277 -216 175 0
-278 156 253 0
-278 -156 -253 0
278 -156 253 0
278 156 -253 0
-279 -41 30 0
-279 41 -30 0
279 41 30 0
279 -41 -30 0
-280 268 -36 0
-280 -268 36 0
280 -268 -36 0
280 268 36 0
-281 -130 178 0
-281 130 -178 0
281 130 178 0
281 -130 -178 0
-282 -207 -106 0
-282 207 106 0
282 207 -106 0
282 -207 106 0
-283 -3 0
-283 158 0
283 3 -158 0
-284 84 24 0
-284 -84 -24 0
284 -84 24 0
284 84 -24 0
-285 -111 120 0
-285 111 -120 0
285 111 120 0
285 -111 -120 0
-286 -251 0
-286 132 0
286 251 -132 0
-287 246 0
-287 148 0
287 -246 -148 0
-288 -265 -104 0
-288 265 104 0
288 265 -104 0
288 -265 104 0
-289 284 55 0
-289 -284 -55 0
289 -284 55 0
289 284 -55 0
-290 -74 24 0
-290 74 -24 0
290 74 24 0
290 -74 -24 0
-291 -255 243 0
-291 255 -243 0
291 255 243 0
291 -255 -243 0
-292 251 -203 0
-292 -251 203 0
292 -251 -203 0
292 251 203 0
-293 133 0
-293 -145 0
293 -133 145 0
-294 151 0
-294 225 0
294 -151 -225 0
-295 147 0
-295 -11 0
295 -147 11 0
-296 185 261 0
-296 -185 -261 0
296 -185 261 0
296 185 -261 0
-297 119 0
-297 -158 0
297 -119 158 0
-298 58 -39 0
-298 -58 39 0
298 -58 -39 0
298 58 39 0
-299 -53 215 0
-299 53 -215 0
299 53 215 0
299 -53 -215 0
-300 -124 0
-300 283 0
300 124 -283 0
-301 -11 56 0
-301 11 -56 0
301 11 56 0
301 -11 -56 0
-302 -28 54 0
-302 28 -54 0
302 28 54 0
302 -28 -54 0
-303 241 119 0
-303 -241 -119 0
303 -241 119 0
303 241 -119 0
-304 -84 0
-304 151 0
304 84 -151 0
-305 -126 2 0
-305 126 -2 0
305 126 2 0
305 -126 -2 0
-306 118 0
-306 220 0
306 -118 -220 0
-307 79 0
-307 -99 0
307 -79 99 0
-308 98 0
-308 -188 0
308 -98 188 0
-309 131 49 0
-309 -131 -49 0
309 -131 49 0
309 131 -49 0
-310 -163 -174 0
-310 163 174 0
310 163 -174 0
310 -163 174 0
-311 -212 -84 0
-311 212 84 0
311 212 -84 0
311 -212 84 0
-312 -160 -117 0
-312 160 117 0
312 160 -117 0
312 -160 117 0
-313 294 131 0
-313 -294 -131 0
313 -294 131 0
313 294 -131 0
-314 261 288 0
-314 -261 -288 0
314 -261 288 0
314 261 -288 0
-315 -80 255 0
-315 80 -255 0
315 80 255 0
315 -80 -255 0
-316 107 -3 0
-316 -107 3 0
316 -107 -3 0
316 107 3 0
-317 -20 -174 0
-317 20 174 0
317 20 -174 0
317 -20 174 0
-318 179 201 0
-318 -179 -201 0
318 -179 201 0
318 179 -201 0
-319 110 0
-319 122 0
319 -110 -122 0
-320 189 -258 0
-320 -189 258 0
320 -189 -258 0
320 189 258 0
-321 -188 -276 0
-321 188 276 0
321 188 -276 0
321 -188 276 0
-322 92 -203 0
-322 -92 203 0
322 -92 -203 0
322 92 203 0
-323 -273 -262 0
-323 273 262 0
323 273 -262 0
323 -273 262 0
-324 -264 -175 0
-324 264 175 0
324 264 -175 0
324 -264 175 0
-325 278 69 0
-325 -278 -69 0
325 -278 69 0
325 278 -69 0
-326 -236 0
-326 -41 0
326 236 41 0
-327 46 136 0
-327 -46 -136 0
327 -46 136 0
327 46 -136 0
-328 23 -229 0
-328 -23 229 0
328 -23 -229 0
328 23 229 0
-329 324 0
-329 276 0
329 -324 -276 0
-330 -94 68 0
-330 94 -68 0
330 94 68 0
330 -94 -68 0
-331 256 -172 0
-331 -256 172 0
331 -256 -172 0
331 256 172 0
-332 42 -53 0
-332 -42 53 0
332 -42 -53 0
332 42 53 0
-333 174 270 0
-333 -174 -270 0
333 -174 270 0
333 174 -270 0
-334 185 0
-334 -35 0
334 -185 35 0
-335 242 -86 0
-335 -242 86 0
335 -242 -86 0
335 242 86 0
-336 -68 -151 0
-336 68 151 0
336 68 -151 0
336 -68 151 0
-337 -35 -2 0
-337 35 2 0
337 35 -2 0
337 -35 2 0
-338 124 0
-338 4 0
338 -124 -4 0
-339 -153 0
-339 -133 0
339 153 133 0
-340 -223 85 0
-340 223 -85 0
340 223 85 0
340 -223 -85 0
-341 205 0
-341 308 0
341 -205 -308 0
-342 239 0
-342 213 0
342 -239 -213 0
-343 -216 251 0
-343 216 -251 0
343 216 251 0
343 -216 -251 0
-344 128 167 0
-344 -128 -167 0
344 -128 167 0
344 128 -167 0
-345 -214 -262 0
-345 214 262 0
345 214 -262 0
345 -214 262 0
-346 -2 -65 0
-346 2 65 0
346 2 -65 0
346 -2 65 0
-347 199 -99 0
-347 -199 99 0
347 -199 -99 0
347 199 99 0
-348 -231 301 0
-348 231 -301 0
348 231 301 0
348 -231 -301 0
-349 -94 283 0
-349 94 -283 0
349 94 283 0
349 -94 -283 0
-350 199 -124 0
-350 -199 124 0
350 -199 -124 0
350 199 124 0
-351 -260 -214 0
-351 260 214 0
351 260 -214 0
351 -260 214 0
-352 274 338 0
-352 -274 -338 0
352 -274 338 0
352 274 -338 0
-353 6 0
-353 -60 0
353 -6 60 0
-354 38 -233 0
-354 -38 233 0
354 -38 -233 0
354 38 233 0
-355 65 -123 0
-355 -65 123 0
355 -65 -123 0
355 65 123 0
-356 159 -215 0
-356 -159 215 0
356 -159 -215 0
356 159 215 0
-357 -296 41 0
-357 296 -41 0
357 296 41 0
357 -296 -41 0
-358 -340 -249 0
-358 340 249 0
358 340 -249 0
358 -340 249 0
-359 -212 0
-359 -279 0
359 212 279 0
-360 -171 -210 0
-360 171 210 0
360 171 -210 0
360 -171 210 0
-361 -6 0
-361 89 0
361 6 -89 0
-362 94 -361 0
-362 -94 361 0
362 -94 -361 0
362 94 361 0
-363 -82 -124 0
-363 82 124 0
363 82 -124 0
363 -82 124 0
-364 237 -92 0
-364 -237 92 0
364 -237 -92 0
364 237 92 0
-365 -99 -326 0
-365 99 326 0
365 99 -326 0
365 -99 326 0
-366 -103 135 0
-366 103 -135 0
366 103 135 0
366 -103 -135 0
-367 234 170 0
-367 -234 -170 0
367 -234 170 0
367 234 -170 0
-368 270 0
-368 -39 0
368 -270 39 0
-369 7 174 0
-369 -7 -174 0
369 -7 174 0
369 7 -174 0
-370 -103 0
-370 150 0
370 103 -150 0
-371 26 41 0
-371 -26 -41 0
371 -26 41 0
371 26 -41 0
-372 332 0
-372 341 0
372 -332 -341 0
-373 155 0
-373 76 0
373 -155 -76 0
-374 115 0
-374 -91 0
374 -115 91 0
-375 89 79 0
-375 -89 -79 0
375 -89 79 0
375 89 -79 0
-376 222 225 0
-376 -222 -225 0
376 -222 225 0
376 222 -225 0
-377 -237 0
-377 -317 0
377 237 317 0
-378 -47 201 0
-378 47 -201 0
378 47 201 0
378 -47 -201 0
-379 331 322 0
-379 -331 -322 0
379 -331 322 0
379 331 -322 0
-380 -307 -165 0
-380 307 165 0
380 307 -165 0
380 -307 165 0
-381 96 0
-381 53 0
381 -96 -53 0
-382 -283 -244 0
-382 283 244 0
382 283 -244 0
382 -283 244 0
-383 -287 -304 0
-383 287 304 0
383 287 -304 0
383 -287 304 0
-384 257 347 0
-384 -257 -347 0
384 -257 347 0
384 257 -347 0
-385 322 59 0
-385 -322 -59 0
385 -322 59 0
385 322 -59 0
-386 -335 -115 0
-386 335 115 0
386 335 -115 0
386 -335 115 0
-387 -96 -112 0
-387 96 112 0
387 96 -112 0
387 -96 112 0
-388 -125 0
-388 -54 0
388 125 54 0
-389 329 -10 0
-389 -329 10 0
389 -329 -10 0
389 329 10 0
-390 -282 0
-390 -206 0
390 282 206 0
-391 -256 367 0
-391 256 -367 0
391 256 367 0
391 -256 -367 0
-392 -328 171 0
-392 328 -171 0
392 328 171 0
392 -328 -171 0
-393 -56 0
-393 -142 0
393 56 142 0
-394 217 -170 0
-394 -217 170 0
394 -217 -170 0
394 217 170 0
-395 -67 232 0
-395 67 -232 0
395 67 232 0
395 -67 -232 0
-396 -172 -240 0
-396 172 240 0
396 172 -240 0
396 -172 240 0
-397 49 0
-397 -325 0
397 -49 325 0
-398 -163 -147 0
-398 163 147 0
398 163 -147 0
398 -163 147 0
-399 -84 -162 0
-399 84 162 0
399 84 -162 0
399 -84 162 0
-400 -346 45 0
-400 346 -45 0
400 346 45 0
400 -346 -45 0
-401 105 0
-401 360 0
401 -105 -360 0
-402 -157 -28 0
-402 157 28 0
402 157 -28 0
402 -157 28 0
-403 -265 -226 0
-403 265 226 0
403 265 -226 0
403 -265 226 0
-404 256 0
-404 -357 0
404 -256 357 0
-405 171 -168 0
-405 -171 168 0
405 -171 -168 0
405 171 168 0
-406 -254 -329 0
-406 254 329 0
406 254 -329 0
406 -254 329 0
-407 94 -318 0
-407 -94 318 0
407 -94 -318 0
407 94 318 0
-408 -204 66 0
-408 204 -66 0
408 204 66 0
408 -204 -66 0
-409 -320 89 0
-409 320 -89 0
409 320 89 0
409 -320 -89 0
-410 11 152 0
-410 -11 -152 0
410 -11 152 0
410 11 -152 0
-411 256 -339 0
-411 -256 339 0
411 -256 -339 0
411 256 339 0
-412 -322 -157 0
-412 322 157 0
412 322 -157 0
412 -322 157 0
-413 -157 0
-413 154 0
413 157 -154 0
-414 -30 -103 0
-414 30 103 0
414 30 -103 0
414 -30 103 0
-415 -90 0
-415 -109 0
415 90 109 0
-416 -248 18 0
-416 248 -18 0
416 248 18 0
416 -248 -18 0
-417 -264 136 0
-417 264 -136 0
417 264 136 0
417 -264 -136 0
-418 211 331 0
-418 -211 -331 0
418 -211 331 0
418 211 -331 0
-419 -385 0
-419 2 0
419 385 -2 0
-420 -400 0
-420 -43 0
420 400 43 0
-421 229 163 0
-421 -229 -163 0
421 -229 163 0
421 229 -163 0
-422 -379 0
-422 127 0
422 379 -127 0
-423 119 45 0
-423 -119 -45 0
423 -119 45 0
423 119 -45 0
-424 -95 -155 0
-424 95 155 0
424 95 -155 0
424 -95 155 0
-425 -89 0
-425 74 0
425 89 -74 0
-426 -232 0
-426 88 0
426 232 -88 0
-427 142 -315 0
-427 -142 315 0
427 -142 -315 0
427 142 315 0
-428 141 303 0
-428 -141 -303 0
428 -141 303 0
428 141 -303 0
-429 -151 -289 0
-429 151 289 0
429 151 -289 0
429 -151 289 0
-430 -167 208 0
-430 167 -208 0
430 167 208 0
430 -167 -208 0
399 0
400 0
401 0
-402 0
-403 0
404 0
405 0
-406 0
-407 0
-408 0
409 0
410 0
-411 0
412 0
-413 0
-414 0
415 0
-416 0
-417 0
-418 0
419 0
-420 0
421 0
-422 0
-423 0
424 0
425 0
-426 0
427 0
428 0
-429 0
430 0
