c xor-heavy random circuit, inputs=48 gates=800, last 48 signals pinned to a planted input assignment; input variables are 1..48
c generated by TurboCryptoSAT gen-benchmark - satisfiable by construction
p cnf 846 3000
-49 2 -8 0
-49 -2 8 0
49 -2 -8 0
49 2 8 0
-50 -11 -22 0
-50 11 22 0
50 11 -22 0
50 -11 22 0
-51 7 50 0
-51 -7 -50 0
51 -7 50 0
51 7 -50 0
-52 -51 0
-52 -21 0
52 51 21 0
-53 -17 -45 0
-53 17 45 0
53 17 -45 0
53 -17 45 0
-54 -12 -32 0
-54 12 32 0
54 12 -32 0
54 -12 32 0
-55 -44 -46 0
-55 44 46 0
55 44 -46 0
55 -44 46 0
-56 -20 41 0
-56 20 -41 0
56 20 41 0
56 -20 -41 0
-57 28 0
-57 -26 0
57 -28 26 0
-58 8 0
-58 -37 0
58 -8 37 0
-59 -4 0
-59 -22 0
59 4 22 0
-60 -21 -44 0
-60 21 44 0
60 21 -44 0
60 -21 44 0
-61 47 53 0
-61 -47 -53 0
61 -47 53 0
61 47 -53 0
-62 56 0
-62 5 0
62 -56 -5 0
-63 19 42 0
-63 -19 -42 0
63 -19 42 0
63 19 -42 0
-64 -27 0
-64 18 0
64 27 -18 0
-65 20 39 0
-65 -20 -39 0
65 -20 39 0
65 20 -39 0
-66 -9 -47 0
-66 9 47 0
66 9 -47 0
66 -9 47 0
-67 10 -31 0
-67 -10 31 0
67 -10 -31 0
67 10 31 0
-68 18 -51 0
-68 -18 51 0
68 -18 -51 0
68 18 51 0
-69 28 -65 0
-69 -28 65 0
69 -28 -65 0
69 28 65 0
-70 46 -27 0
-70 -46 27 0
70 -46 -27 0
70 46 27 0
-71 17 0
-71 33 0
71 -17 -33 0
-72 69 -13 0
-72 -69 13 0
72 -69 -13 0
72 69 13 0
-73 -41 66 0
-73 41 -66 0
73 41 66 0
73 -41 -66 0
-74 -64 -11 0
-74 64 11 0
74 64 -11 0
74 -64 11 0
-75 10 0
-75 34 0
75 -10 -34 0
-76 -9 0
-76 17 0
76 9 -17 0
-77 -22 -55 0
-77 22 55 0
77 22 -55 0
77 -22 55 0
-78 -8 -1 0
-78 8 1 0
78 8 -1 0
78 -8 1 0
-79 39 0
-79 59 0
79 -39 -59 0
-80 -74 0
-80 -17 0
80 74 17 0
-81 -31 32 0
-81 31 -32 0
81 31 32 0
81 -31 -32 0
-82 4 30 0
-82 -4 -30 0
82 -4 30 0
82 4 -30 0
-83 -9 40 0
-83 9 -40 0
83 9 40 0
83 -9 -40 0
-84 34 79 0
-84 -34 -79 0
84 -34 79 0
84 34 -79 0
-85 25 0
-85 -69 0
85 -25 69 0
-86 56 -74 0
-86 -56 74 0
86 -56 -74 0
86 56 74 0
-87 81 85 0
-87 -81 -85 0
87 -81 85 0
87 81 -85 0
-88 73 -12 0
-88 -73 12 0
88 -73 -12 0
88 73 12 0
-89 84 -72 0
-89 -84 72 0
89 -84 -72 0
89 84 72 0
-90 -43 85 0
-90 43 -85 0
90 43 85 0
90 -43 -85 0
-91 -62 -77 0
-91 62 77 0
91 62 -77 0
91 -62 77 0
-92 -78 28 0
-92 78 -28 0
92 78 28 0
92 -78 -28 0
-93 -71 0
-93 1 0
93 71 -1 0
-94 25 -75 0
-94 -25 75 0
94 -25 -75 0
94 25 75 0
-95 31 0
-95 -2 0
95 -31 2 0
-96 -1 85 0
-96 1 -85 0
96 1 85 0
96 -1 -85 0
-97 83 -7 0
-97 -83 7 0
97 -83 -7 0
97 83 7 0
-98 91 0
-98 -17 0
98 -91 17 0
-99 51 -62 0
-99 -51 62 0
99 -51 -62 0
99 51 62 0
-100 -52 0
-100 -17 0
100 52 17 0
-101 92 -2 0
-101 -92 2 0
101 -92 -2 0
101 92 2 0
-102 -27 13 0
-102 27 -13 0
102 27 13 0
102 -27 -13 0
-103 -21 34 0
-103 21 -34 0
103 21 34 0
103 -21 -34 0
-104 -102 -53 0
-104 102 53 0
104 102 -53 0
104 -102 53 0
-105 -65 0
-105 77 0
105 65 -77 0
-106 -79 -65 0
-106 79 65 0
106 79 -65 0
106 -79 65 0
-107 97 0
-107 14 0
107 -97 -14 0
-108 63 -58 0
-108 -63 58 0
108 -63 -58 0
108 63 58 0
-109 21 0
-109 -52 0
109 -21 52 0
-110 -8 -100 0
-110 8 100 0
110 8 -100 0
110 -8 100 0
-111 -45 0
-111 -61 0
111 45 61 0
-112 46 -97 0
-112 -46 97 0
112 -46 -97 0
112 46 97 0
-113 -2 -81 0
-113 2 81 0
113 2 -81 0
113 -2 81 0
-114 85 -84 0
-114 -85 84 0
114 -85 -84 0
114 85 84 0
-115 22 76 0
-115 -22 -76 0
115 -22 76 0
115 22 -76 0
-116 -4 0
-116 -92 0
116 4 92 0
-117 -14 83 0
-117 14 -83 0
117 14 83 0
117 -14 -83 0
-118 -21 -33 0
-118 21 33 0
118 21 -33 0
118 -21 33 0
-119 -56 3 0
-119 56 -3 0
119 56 3 0
119 -56 -3 0
-120 22 -49 0
-120 -22 49 0
120 -22 -49 0
120 22 49 0
-121 -49 -4 0
-121 49 4 0
121 49 -4 0
121 -49 4 0
-122 85 0
-122 -63 0
122 -85 63 0
-123 -106 -15 0
-123 106 15 0
123 106 -15 0
123 -106 15 0
-124 -85 -55 0
-124 85 55 0
124 85 -55 0
124 -85 55 0
-125 -101 -69 0
-125 101 69 0
125 101 -69 0
125 -101 69 0
-126 -74 21 0
-126 74 -21 0
126 74 21 0
126 -74 -21 0
-127 -120 -21 0
-127 120 21 0
127 120 -21 0
127 -120 21 0
-128 -50 -114 0
-128 50 114 0
128 50 -114 0
128 -50 114 0
-129 54 -15 0
-129 -54 15 0
129 -54 -15 0
129 54 15 0
-130 21 0
-130 47 0
130 -21 -47 0
-131 18 -72 0
-131 -18 72 0
131 -18 -72 0
131 18 72 0
-132 98 0
-132 60 0
132 -98 -60 0
-133 -33 109 0
-133 33 -109 0
133 33 109 0
133 -33 -109 0
-134 133 0
-134 114 0
134 -133 -114 0
-135 90 -23 0
-135 -90 23 0
135 -90 -23 0
135 90 23 0
-136 127 -101 0
-136 -127 101 0
136 -127 -101 0
136 127 101 0
-137 131 -54 0
-137 -131 54 0
137 -131 -54 0
137 131 54 0
-138 -12 0
-138 44 0
138 12 -44 0
-139 129 -20 0
-139 -129 20 0
139 -129 -20 0
139 129 20 0
-140 38 -138 0
-140 -38 138 0
140 -38 -138 0
140 38 138 0
-141 -8 0
-141 42 0
141 8 -42 0
-142 -76 134 0
-142 76 -134 0
142 76 134 0
142 -76 -134 0
-143 -50 0
-143 122 0
143 50 -122 0
-144 -91 0
-144 108 0
144 91 -108 0
-145 -13 -87 0
-145 13 87 0
145 13 -87 0
145 -13 87 0
-146 -106 -113 0
-146 106 113 0
146 106 -113 0
146 -106 113 0
-147 136 0
-147 25 0
147 -136 -25 0
-148 111 -44 0
-148 -111 44 0
148 -111 -44 0
148 111 44 0
-149 -47 0
-149 -71 0
149 47 71 0
-150 -102 48 0
-150 102 -48 0
150 102 48 0
150 -102 -48 0
-151 96 -117 0
-151 -96 117 0
151 -96 -117 0
151 96 117 0
-152 123 -84 0
-152 -123 84 0
152 -123 -84 0
152 123 84 0
-153 32 -95 0
-153 -32 95 0
153 -32 -95 0
153 32 95 0
-154 148 0
-154 -81 0
154 -148 81 0
-155 -125 -94 0
-155 125 94 0
155 125 -94 0
155 -125 94 0
-156 -144 12 0
-156 144 -12 0
156 144 12 0
156 -144 -12 0
-157 -77 88 0
-157 77 -88 0
157 77 88 0
157 -77 -88 0
-158 93 82 0
-158 -93 -82 0
158 -93 82 0
158 93 -82 0
-159 -14 0
-159 150 0
159 14 -150 0
-160 -24 -98 0
-160 24 98 0
160 24 -98 0
160 -24 98 0
-161 -149 94 0
-161 149 -94 0
161 149 94 0
161 -149 -94 0
-162 102 -140 0
-162 -102 140 0
162 -102 -140 0
162 102 140 0
-163 -149 -72 0
-163 149 72 0
163 149 -72 0
163 -149 72 0
-164 89 0
-164 77 0
164 -89 -77 0
-165 -72 -148 0
-165 72 148 0
165 72 -148 0
165 -72 148 0
-166 -14 0
-166 -56 0
166 14 56 0
-167 -72 -98 0
-167 72 98 0
167 72 -98 0
167 -72 98 0
-168 139 -108 0
-168 -139 108 0
168 -139 -108 0
168 139 108 0
-169 92 143 0
-169 -92 -143 0
169 -92 143 0
169 92 -143 0
-170 -122 0
-170 97 0
170 122 -97 0
-171 -56 -153 0
-171 56 153 0
171 56 -153 0
171 -56 153 0
-172 30 169 0
-172 -30 -169 0
172 -30 169 0
172 30 -169 0
-173 58 0
-173 72 0
173 -58 -72 0
-174 -93 0
-174 -89 0
174 93 89 0
-175 31 0
-175 -151 0
175 -31 151 0
-176 -154 -106 0
-176 154 106 0
176 154 -106 0
176 -154 106 0
-177 -60 0
-177 -130 0
177 60 130 0
-178 -141 7 0
-178 141 -7 0
178 141 7 0
178 -141 -7 0
-179 101 68 0
-179 -101 -68 0
179 -101 68 0
179 101 -68 0
-180 -58 0
-180 152 0
180 58 -152 0
-181 164 144 0
-181 -164 -144 0
181 -164 144 0
181 164 -144 0
-182 24 -20 0
-182 -24 20 0
182 -24 -20 0
182 24 20 0
-183 52 0
-183 -14 0
183 -52 14 0
-184 -39 -69 0
-184 39 69 0
184 39 -69 0
184 -39 69 0
-185 180 0
-185 99 0
185 -180 -99 0
-186 -127 68 0
-186 127 -68 0
186 127 68 0
186 -127 -68 0
-187 -18 3 0
-187 18 -3 0
187 18 3 0
187 -18 -3 0
-188 -133 101 0
-188 133 -101 0
188 133 101 0
188 -133 -101 0
-189 141 0
-189 -106 0
189 -141 106 0
-190 2 -117 0
-190 -2 117 0
190 -2 -117 0
190 2 117 0
-191 -141 0
-191 103 0
191 141 -103 0
-192 -140 119 0
-192 140 -119 0
192 140 119 0
192 -140 -119 0
-193 -2 -9 0
-193 2 9 0
193 2 -9 0
193 -2 9 0
-194 36 95 0
-194 -36 -95 0
194 -36 95 0
194 36 -95 0
-195 -45 57 0
-195 45 -57 0
195 45 57 0
195 -45 -57 0
-196 -33 0
-196 -195 0
196 33 195 0
-197 89 0
-197 -179 0
197 -89 179 0
-198 -106 152 0
-198 106 -152 0
198 106 152 0
198 -106 -152 0
-199 -163 0
-199 -14 0
199 163 14 0
-200 192 31 0
-200 -192 -31 0
200 -192 31 0
200 192 -31 0
-201 -132 0
-201 58 0
201 132 -58 0
-202 -4 109 0
-202 4 -109 0
202 4 109 0
202 -4 -109 0
-203 -95 -3 0
-203 95 3 0
203 95 -3 0
203 -95 3 0
-204 104 -97 0
-204 -104 97 0
204 -104 -97 0
204 104 97 0
-205 -161 0
-205 -156 0
205 161 156 0
-206 -152 0
-206 196 0
206 152 -196 0
-207 156 -116 0
-207 -156 116 0
207 -156 -116 0
207 156 116 0
-208 -195 0
-208 -101 0
208 195 101 0
-209 192 -159 0
-209 -192 159 0
209 -192 -159 0
209 192 159 0
-210 -40 42 0
-210 40 -42 0
210 40 42 0
210 -40 -42 0
-211 172 117 0
-211 -172 -117 0
211 -172 117 0
211 172 -117 0
-212 -181 0
-212 -211 0
212 181 211 0
-213 -59 0
-213 -36 0
213 59 36 0
-214 90 -150 0
-214 -90 150 0
214 -90 -150 0
214 90 150 0
-215 -58 -187 0
-215 58 187 0
215 58 -187 0
215 -58 187 0
-216 47 74 0
-216 -47 -74 0
216 -47 74 0
216 47 -74 0
-217 -111 0
-217 125 0
217 111 -125 0
-218 -73 -199 0
-218 73 199 0
218 73 -199 0
218 -73 199 0
-219 194 -198 0
-219 -194 198 0
219 -194 -198 0
219 194 198 0
-220 -141 -134 0
-220 141 134 0
220 141 -134 0
220 -141 134 0
-221 -150 0
-221 48 0
221 150 -48 0
-222 -4 154 0
-222 4 -154 0
222 4 154 0
222 -4 -154 0
-223 88 73 0
-223 -88 -73 0
223 -88 73 0
223 88 -73 0
-224 -139 0
-224 -148 0
224 139 148 0
-225 -113 190 0
-225 113 -190 0
225 113 190 0
225 -113 -190 0
-226 -110 206 0
-226 110 -206 0
226 110 206 0
226 -110 -206 0
-227 68 0
-227 132 0
227 -68 -132 0
-228 31 -130 0
-228 -31 130 0
228 -31 -130 0
228 31 130 0
-229 52 198 0
-229 -52 -198 0
229 -52 198 0
229 52 -198 0
-230 -55 0
-230 -52 0
230 55 52 0
-231 -83 108 0
-231 83 -108 0
231 83 108 0
231 -83 -108 0
-232 -124 205 0
-232 124 -205 0
232 124 205 0
232 -124 -205 0
-233 187 223 0
-233 -187 -223 0
233 -187 223 0
233 187 -223 0
-234 188 0
-234 150 0
234 -188 -150 0
-235 130 95 0
-235 -130 -95 0
235 -130 95 0
235 130 -95 0
-236 168 -120 0
-236 -168 120 0
236 -168 -120 0
236 168 120 0
-237 49 0
-237 -216 0
237 -49 216 0
-238 -135 207 0
-238 135 -207 0
238 135 207 0
238 -135 -207 0
-239 -90 0
-239 -9 0
239 90 9 0
-240 211 161 0
-240 -211 -161 0
240 -211 161 0
240 211 -161 0
-241 -23 0
-241 166 0
241 23 -166 0
-242 -22 -185 0
-242 22 185 0
242 22 -185 0
242 -22 185 0
-243 128 -136 0
-243 -128 136 0
243 -128 -136 0
243 128 136 0
-244 -185 0
-244 8 0
244 185 -8 0
-245 -190 0
-245 -133 0
245 190 133 0
-246 -40 0
-246 -60 0
246 40 60 0
-247 227 107 0
-247 -227 -107 0
247 -227 107 0
247 227 -107 0
-248 -200 27 0
-248 200 -27 0
248 200 27 0
248 -200 -27 0
-249 22 -202 0
-249 -22 202 0
249 -22 -202 0
249 22 202 0
-250 28 79 0
-250 -28 -79 0
250 -28 79 0
250 28 -79 0
-251 -139 85 0
-251 139 -85 0
251 139 85 0
251 -139 -85 0
-252 156 51 0
-252 -156 -51 0
252 -156 51 0
252 156 -51 0
-253 119 0
-253 -129 0
253 -119 129 0
-254 225 29 0
-254 -225 -29 0
254 -225 29 0
254 225 -29 0
-255 -149 -19 0
-255 149 19 0
255 149 -19 0
255 -149 19 0
-256 96 -183 0
-256 -96 183 0
256 -96 -183 0
256 96 183 0
-257 -7 0
-257 36 0
257 7 -36 0
-258 31 89 0
-258 -31 -89 0
258 -31 89 0
258 31 -89 0
-259 -11 0
-259 74 0
259 11 -74 0
-260 -99 -76 0
-260 99 76 0
260 99 -76 0
260 -99 76 0
-261 256 0
-261 124 0
261 -256 -124 0
-262 59 -7 0
-262 -59 7 0
262 -59 -7 0
262 59 7 0
-263 -163 52 0
-263 163 -52 0
263 163 52 0
263 -163 -52 0
-264 115 -224 0
-264 -115 224 0
264 -115 -224 0
264 115 224 0
-265 29 -81 0
-265 -29 81 0
265 -29 -81 0
265 29 81 0
-266 -85 -82 0
-266 85 82 0
266 85 -82 0
266 -85 82 0
-267 59 0
-267 -53 0
267 -59 53 0
-268 -87 0
-268 6 0
268 87 -6 0
-269 -256 -165 0
-269 256 165 0
269 256 -165 0
269 -256 165 0
-270 241 0
-270 -200 0
270 -241 200 0
-271 -140 -28 0
-271 140 28 0
271 140 -28 0
271 -140 28 0
-272 225 141 0
-272 -225 -141 0
272 -225 141 0
272 225 -141 0
-273 89 -245 0
-273 -89 245 0
273 -89 -245 0
273 89 245 0
-274 128 -195 0
-274 -128 195 0
274 -128 -195 0
274 128 195 0
-275 -165 0
-275 -126 0
275 165 126 0
-276 -262 -106 0
-276 262 106 0
276 262 -106 0
276 -262 106 0
-277 114 -59 0
-277 -114 59 0
277 -114 -59 0
277 114 59 0
-278 -237 -136 0
-278 237 136 0
278 237 -136 0
278 -237 136 0
-279 -133 -139 0
-279 133 139 0
279 133 -139 0
279 -133 139 0
-280 -273 0
-280 -156 0
280 273 156 0
-281 52 -102 0
-281 -52 102 0
281 -52 -102 0
281 52 102 0
-282 84 1 0
-282 -84 -1 0
282 -84 1 0
282 84 -1 0
-283 72 160 0
-283 -72 -160 0
283 -72 160 0
283 72 -160 0
-284 -20 64 0
-284 20 -64 0
284 20 64 0
284 -20 -64 0
-285 -266 0
-285 -15 0
285 266 15 0
-286 132 0
-286 108 0
286 -132 -108 0
-287 -10 -8 0
-287 10 8 0
287 10 -8 0
287 -10 8 0
-288 213 0
-288 -283 0
288 -213 283 0
-289 -13 161 0
-289 13 -161 0
289 13 161 0
289 -13 -161 0
-290 -109 -177 0
-290 109 177 0
290 109 -177 0
290 -109 177 0
-291 274 -178 0
-291 -274 178 0
291 -274 -178 0
291 274 178 0
-292 219 -126 0
-292 -219 126 0
292 -219 -126 0
292 219 126 0
-293 -188 0
-293 27 0
293 188 -27 0
-294 -99 250 0
-294 99 -250 0
294 99 250 0
294 -99 -250 0
-295 17 272 0
-295 -17 -272 0
295 -17 272 0
295 17 -272 0
-296 -195 0
-296 90 0
296 195 -90 0
-297 170 0
-297 -228 0
297 -170 228 0
-298 -265 0
-298 24 0
298 265 -24 0
-299 -42 257 0
-299 42 -257 0
299 42 257 0
299 -42 -257 0
-300 -74 -2 0
-300 74 2 0
300 74 -2 0
300 -74 2 0
-301 247 -155 0
-301 -247 155 0
301 -247 -155 0
301 247 155 0
-302 -19 112 0
-302 19 -112 0
302 19 112 0
302 -19 -112 0
-303 66 -244 0
-303 -66 244 0
303 -66 -244 0
303 66 244 0
-304 -89 -265 0
-304 89 265 0
304 89 -265 0
304 -89 265 0
-305 130 218 0
-305 -130 -218 0
305 -130 218 0
305 130 -218 0
-306 -139 91 0
-306 139 -91 0
306 139 91 0
306 -139 -91 0
-307 -104 250 0
-307 104 -250 0
307 104 250 0
307 -104 -250 0
-308 304 -209 0
-308 -304 209 0
308 -304 -209 0
308 304 209 0
-309 297 72 0
-309 -297 -72 0
309 -297 72 0
309 297 -72 0
-310 -28 -213 0
-310 28 213 0
310 28 -213 0
310 -28 213 0
-311 259 -148 0
-311 -259 148 0
311 -259 -148 0
311 259 148 0
-312 152 0
-312 -98 0
312 -152 98 0
-313 -119 255 0
-313 119 -255 0
313 119 255 0
313 -119 -255 0
-314 -292 0
-314 -68 0
314 292 68 0
-315 -63 -233 0
-315 63 233 0
315 63 -233 0
315 -63 233 0
-316 -138 0
-316 40 0
316 138 -40 0
-317 179 233 0
-317 -179 -233 0
317 -179 233 0
317 179 -233 0
-318 243 -159 0
-318 -243 159 0
318 -243 -159 0
318 243 159 0
-319 100 0
-319 314 0
319 -100 -314 0
-320 -43 0
-320 183 0
320 43 -183 0
-321 99 131 0
-321 -99 -131 0
321 -99 131 0
321 99 -131 0
-322 53 -307 0
-322 -53 307 0
322 -53 -307 0
322 53 307 0
-323 313 175 0
-323 -313 -175 0
323 -313 175 0
323 313 -175 0
-324 66 73 0
-324 -66 -73 0
324 -66 73 0
324 66 -73 0
-325 -249 0
-325 144 0
325 249 -144 0
-326 245 -151 0
-326 -245 151 0
326 -245 -151 0
326 245 151 0
-327 64 123 0
-327 -64 -123 0
327 -64 123 0
327 64 -123 0
-328 -193 -157 0
-328 193 157 0
328 193 -157 0
328 -193 157 0
-329 -237 -19 0
-329 237 19 0
329 237 -19 0
329 -237 19 0
-330 183 -291 0
-330 -183 291 0
330 -183 -291 0
330 183 291 0
-331 10 -185 0
-331 -10 185 0
331 -10 -185 0
331 10 185 0
-332 -201 0
-332 276 0
332 201 -276 0
-333 201 -268 0
-333 -201 268 0
333 -201 -268 0
333 201 268 0
-334 162 -70 0
-334 -162 70 0
334 -162 -70 0
334 162 70 0
-335 5 -47 0
-335 -5 47 0
335 -5 -47 0
335 5 47 0
-336 147 257 0
-336 -147 -257 0
336 -147 257 0
336 147 -257 0
-337 141 314 0
-337 -141 -314 0
337 -141 314 0
337 141 -314 0
-338 -217 -68 0
-338 217 68 0
338 217 -68 0
338 -217 68 0
-339 333 0
-339 129 0
339 -333 -129 0
-340 -263 0
-340 49 0
340 263 -49 0
-341 185 0
-341 162 0
341 -185 -162 0
-342 -37 -194 0
-342 37 194 0
342 37 -194 0
342 -37 194 0
-343 167 0
-343 -224 0
343 -167 224 0
-344 324 248 0
-344 -324 -248 0
344 -324 248 0
344 324 -248 0
-345 315 -245 0
-345 -315 245 0
345 -315 -245 0
345 315 245 0
-346 342 -264 0
-346 -342 264 0
346 -342 -264 0
346 342 264 0
-347 110 305 0
-347 -110 -305 0
347 -110 305 0
347 110 -305 0
-348 -343 192 0
-348 343 -192 0
348 343 192 0
348 -343 -192 0
-349 99 -106 0
-349 -99 106 0
349 -99 -106 0
349 99 106 0
-350 -118 0
-350 253 0
350 118 -253 0
-351 112 -167 0
-351 -112 167 0
351 -112 -167 0
351 112 167 0
-352 10 187 0
-352 -10 -187 0
352 -10 187 0
352 10 -187 0
-353 39 0
-353 -18 0
353 -39 18 0
-354 -321 7 0
-354 321 -7 0
354 321 7 0
354 -321 -7 0
-355 -219 0
-355 161 0
355 219 -161 0
-356 -211 -274 0
-356 211 274 0
356 211 -274 0
356 -211 274 0
-357 -161 0
-357 188 0
357 161 -188 0
-358 321 0
-358 96 0
358 -321 -96 0
-359 -158 0
-359 145 0
359 158 -145 0
-360 191 0
-360 218 0
360 -191 -218 0
-361 -64 0
-361 40 0
361 64 -40 0
-362 178 211 0
-362 -178 -211 0
362 -178 211 0
362 178 -211 0
-363 -190 -304 0
-363 190 304 0
363 190 -304 0
363 -190 304 0
-364 172 22 0
-364 -172 -22 0
364 -172 22 0
364 172 -22 0
-365 -212 0
-365 -201 0
365 212 201 0
-366 25 0
-366 -269 0
366 -25 269 0
-367 -232 347 0
-367 232 -347 0
367 232 347 0
367 -232 -347 0
-368 -330 112 0
-368 330 -112 0
368 330 112 0
368 -330 -112 0
-369 225 107 0
-369 -225 -107 0
369 -225 107 0
369 225 -107 0
-370 345 183 0
-370 -345 -183 0
370 -345 183 0
370 345 -183 0
-371 -246 0
-371 -188 0
371 246 188 0
-372 43 -254 0
-372 -43 254 0
372 -43 -254 0
372 43 254 0
-373 -266 -112 0
-373 266 112 0
373 266 -112 0
373 -266 112 0
-374 -5 0
-374 -348 0
374 5 348 0
-375 -191 -73 0
-375 191 73 0
375 191 -73 0
375 -191 73 0
-376 -173 0
-376 -355 0
376 173 355 0
-377 -6 0
-377 -91 0
377 6 91 0
-378 -9 0
-378 86 0
378 9 -86 0
-379 -330 367 0
-379 330 -367 0
379 330 367 0
379 -330 -367 0
-380 -88 273 0
-380 88 -273 0
380 88 273 0
380 -88 -273 0
-381 -256 11 0
-381 256 -11 0
381 256 11 0
381 -256 -11 0
-382 49 -368 0
-382 -49 368 0
382 -49 -368 0
382 49 368 0
-383 381 5 0
-383 -381 -5 0
383 -381 5 0
383 381 -5 0
-384 -355 52 0
-384 355 -52 0
384 355 52 0
384 -355 -52 0
-385 -128 -85 0
-385 128 85 0
385 128 -85 0
385 -128 85 0
-386 46 331 0
-386 -46 -331 0
386 -46 331 0
386 46 -331 0
-387 87 -88 0
-387 -87 88 0
387 -87 -88 0
387 87 88 0
-388 161 283 0
-388 -161 -283 0
388 -161 283 0
388 161 -283 0
-389 -301 -253 0
-389 301 253 0
389 301 -253 0
389 -301 253 0
-390 154 0
-390 -356 0
390 -154 356 0
-391 -98 126 0
-391 98 -126 0
391 98 126 0
391 -98 -126 0
-392 -72 0
-392 -163 0
392 72 163 0
-393 -91 338 0
-393 91 -338 0
393 91 338 0
393 -91 -338 0
-394 -330 362 0
-394 330 -362 0
394 330 362 0
394 -330 -362 0
-395 31 172 0
-395 -31 -172 0
395 -31 172 0
395 31 -172 0
-396 214 35 0
-396 -214 -35 0
396 -214 35 0
396 214 -35 0
-397 -316 108 0
-397 316 -108 0
397 316 108 0
397 -316 -108 0
-398 12 -382 0
-398 -12 382 0
398 -12 -382 0
398 12 382 0
-399 -258 -356 0
-399 258 356 0
399 258 -356 0
399 -258 356 0
-400 385 -162 0
-400 -385 162 0
400 -385 -162 0
400 385 162 0
-401 -182 -305 0
-401 182 305 0
401 182 -305 0
401 -182 305 0
-402 29 -59 0
-402 -29 59 0
402 -29 -59 0
402 29 59 0
-403 -122 -372 0
-403 122 372 0
403 122 -372 0
403 -122 372 0
-404 -111 -286 0
-404 111 286 0
404 111 -286 0
404 -111 286 0
-405 -290 -262 0
-405 290 262 0
405 290 -262 0
405 -290 262 0
-406 370 -191 0
-406 -370 191 0
406 -370 -191 0
406 370 191 0
-407 115 0
-407 9 0
407 -115 -9 0
-408 288 0
-408 322 0
408 -288 -322 0
-409 -156 257 0
-409 156 -257 0
409 156 257 0
409 -156 -257 0
-410 -266 279 0
-410 266 -279 0
410 266 279 0
410 -266 -279 0
-411 -34 -70 0
-411 34 70 0
411 34 -70 0
411 -34 70 0
-412 207 0
-412 144 0
412 -207 -144 0
-413 -43 257 0
-413 43 -257 0
413 43 257 0
413 -43 -257 0
-414 -145 79 0
-414 145 -79 0
414 145 79 0
414 -145 -79 0
-415 340 62 0
-415 -340 -62 0
415 -340 62 0
415 340 -62 0
-416 414 -46 0
-416 -414 46 0
416 -414 -46 0
416 414 46 0
-417 -75 203 0
-417 75 -203 0
417 75 203 0
417 -75 -203 0
-418 -115 -199 0
-418 115 199 0
418 115 -199 0
418 -115 199 0
-419 -199 323 0
-419 199 -323 0
419 199 323 0
419 -199 -323 0
-420 159 171 0
-420 -159 -171 0
420 -159 171 0
420 159 -171 0
-421 365 66 0
-421 -365 -66 0
421 -365 66 0
421 365 -66 0
-422 16 153 0
-422 -16 -153 0
422 -16 153 0
422 16 -153 0
-423 -78 0
-423 201 0
423 78 -201 0
-424 -396 270 0
-424 396 -270 0
424 396 270 0
424 -396 -270 0
-425 30 0
-425 -72 0
425 -30 72 0
-426 -296 54 0
-426 296 -54 0
426 296 54 0
426 -296 -54 0
-427 -351 79 0
-427 351 -79 0
427 351 79 0
427 -351 -79 0
-428 310 297 0
-428 -310 -297 0
428 -310 297 0
428 310 -297 0
-429 392 0
-429 73 0
429 -392 -73 0
-430 414 -135 0
-430 -414 135 0
430 -414 -135 0
430 414 135 0
-431 -388 263 0
-431 388 -263 0
431 388 263 0
431 -388 -263 0
-432 20 -120 0
-432 -20 120 0
432 -20 -120 0
432 20 120 0
-433 -79 0
-433 8 0
433 79 -8 0
-434 321 -55 0
-434 -321 55 0
434 -321 -55 0
434 321 55 0
-435 -12 -277 0
-435 12 277 0
435 12 -277 0
435 -12 277 0
-436 215 167 0
-436 -215 -167 0
436 -215 167 0
436 215 -167 0
-437 -54 -168 0
-437 54 168 0
437 54 -168 0
437 -54 168 0
-438 -250 0
-438 90 0
438 250 -90 0
-439 -279 96 0
-439 279 -96 0
439 279 96 0
439 -279 -96 0
-440 -121 0
-440 151 0
440 121 -151 0
-441 -312 -372 0
-441 312 372 0
441 312 -372 0
441 -312 372 0
-442 -208 207 0
-442 208 -207 0
442 208 207 0
442 -208 -207 0
-443 -131 97 0
-443 131 -97 0
443 131 97 0
443 -131 -97 0
-444 -109 0
-444 286 0
444 109 -286 0
-445 106 0
-445 -357 0
445 -106 357 0
-446 -278 164 0
-446 278 -164 0
446 278 164 0
446 -278 -164 0
-447 103 248 0
-447 -103 -248 0
447 -103 248 0
447 103 -248 0
-448 285 171 0
-448 -285 -171 0
448 -285 171 0
448 285 -171 0
-449 435 -441 0
-449 -435 441 0
449 -435 -441 0
449 435 441 0
-450 248 391 0
-450 -248 -391 0
450 -248 391 0
450 248 -391 0
-451 -37 142 0
-451 37 -142 0
451 37 142 0
451 -37 -142 0
-452 107 -427 0
-452 -107 427 0
452 -107 -427 0
452 107 427 0
-453 -16 0
-453 -99 0
453 16 99 0
-454 92 78 0
-454 -92 -78 0
454 -92 78 0
454 92 -78 0
-455 -132 370 0
-455 132 -370 0
455 132 370 0
455 -132 -370 0
-456 -281 -387 0
-456 281 387 0
456 281 -387 0
456 -281 387 0
-457 20 0
-457 -61 0
457 -20 61 0
-458 -389 106 0
-458 389 -106 0
458 389 106 0
458 -389 -106 0
-459 373 -44 0
-459 -373 44 0
459 -373 -44 0
459 373 44 0
-460 -195 0
-460 -345 0
460 195 345 0
-461 -259 0
-461 -174 0
461 259 174 0
-462 453 243 0
-462 -453 -243 0
462 -453 243 0
462 453 -243 0
-463 -222 0
-463 53 0
463 222 -53 0
-464 -3 0
-464 68 0
464 3 -68 0
-465 -193 0
-465 222 0
465 193 -222 0
-466 -25 -238 0
-466 25 238 0
466 25 -238 0
466 -25 238 0
-467 74 -351 0
-467 -74 351 0
467 -74 -351 0
467 74 351 0
-468 -260 -209 0
-468 260 209 0
468 260 -209 0
468 -260 209 0
-469 -278 0
-469 -137 0
469 278 137 0
-470 333 0
-470 -11 0
470 -333 11 0
-471 -318 271 0
-471 318 -271 0
471 318 271 0
471 -318 -271 0
-472 225 99 0
-472 -225 -99 0
472 -225 99 0
472 225 -99 0
-473 347 0
-473 440 0
473 -347 -440 0
-474 -299 215 0
-474 299 -215 0
474 299 215 0
474 -299 -215 0
-475 -189 0
-475 -406 0
475 189 406 0
-476 194 -56 0
-476 -194 56 0
476 -194 -56 0
476 194 56 0
-477 391 292 0
-477 -391 -292 0
477 -391 292 0
477 391 -292 0
-478 426 200 0
-478 -426 -200 0
478 -426 200 0
478 426 -200 0
-479 18 0
-479 75 0
479 -18 -75 0
-480 -185 -361 0
-480 185 361 0
480 185 -361 0
480 -185 361 0
-481 -52 251 0
-481 52 -251 0
481 52 251 0
481 -52 -251 0
-482 148 -325 0
-482 -148 325 0
482 -148 -325 0
482 148 325 0
-483 -371 281 0
-483 371 -281 0
483 371 281 0
483 -371 -281 0
-484 210 0
-484 147 0
484 -210 -147 0
-485 12 0
-485 -264 0
485 -12 264 0
-486 -146 -221 0
-486 146 221 0
486 146 -221 0
486 -146 221 0
-487 -227 0
-487 -477 0
487 227 477 0
-488 -270 0
-488 1 0
488 270 -1 0
-489 -243 -211 0
-489 243 211 0
489 243 -211 0
489 -243 211 0
-490 269 35 0
-490 -269 -35 0
490 -269 35 0
490 269 -35 0
-491 -190 -111 0
-491 190 111 0
491 190 -111 0
491 -190 111 0
-492 351 0
-492 271 0
492 -351 -271 0
-493 355 57 0
-493 -355 -57 0
493 -355 57 0
493 355 -57 0
-494 -344 0
-494 -341 0
494 344 341 0
-495 350 -316 0
-495 -350 316 0
495 -350 -316 0
495 350 316 0
-496 -16 18 0
-496 16 -18 0
496 16 18 0
496 -16 -18 0
-497 381 401 0
-497 -381 -401 0
497 -381 401 0
497 381 -401 0
-498 482 407 0
-498 -482 -407 0
498 -482 407 0
498 482 -407 0
-499 23 274 0
-499 -23 -274 0
499 -23 274 0
499 23 -274 0
-500 -370 468 0
-500 370 -468 0
500 370 468 0
500 -370 -468 0
-501 182 0
-501 144 0
501 -182 -144 0
-502 393 0
-502 54 0
502 -393 -54 0
-503 -495 412 0
-503 495 -412 0
503 495 412 0
503 -495 -412 0
-504 -476 0
-504 267 0
504 476 -267 0
-505 -307 -10 0
-505 307 10 0
505 307 -10 0
505 -307 10 0
-506 441 111 0
-506 -441 -111 0
506 -441 111 0
506 441 -111 0
-507 50 -401 0
-507 -50 401 0
507 -50 -401 0
507 50 401 0
-508 427 -61 0
-508 -427 61 0
508 -427 -61 0
508 427 61 0
-509 -223 -195 0
-509 223 195 0
509 223 -195 0
509 -223 195 0
-510 -247 442 0
-510 247 -442 0
510 247 442 0
510 -247 -442 0
-511 66 10 0
-511 -66 -10 0
511 -66 10 0
511 66 -10 0
-512 -343 451 0
-512 343 -451 0
512 343 451 0
512 -343 -451 0
-513 -37 -45 0
-513 37 45 0
513 37 -45 0
513 -37 45 0
-514 -170 459 0
-514 170 -459 0
514 170 459 0
514 -170 -459 0
-515 111 0
-515 -446 0
515 -111 446 0
-516 -465 0
-516 205 0
516 465 -205 0
-517 -175 215 0
-517 175 -215 0
517 175 215 0
517 -175 -215 0
-518 -263 29 0
-518 263 -29 0
518 263 29 0
518 -263 -29 0
-519 138 0
-519 249 0
519 -138 -249 0
-520 212 -167 0
-520 -212 167 0
520 -212 -167 0
520 212 167 0
-521 43 130 0
-521 -43 -130 0
521 -43 130 0
521 43 -130 0
-522 -120 425 0
-522 120 -425 0
522 120 425 0
522 -120 -425 0
-523 -477 -468 0
-523 477 468 0
523 477 -468 0
523 -477 468 0
-524 -343 297 0
-524 343 -297 0
524 343 297 0
524 -343 -297 0
-525 10 479 0
-525 -10 -479 0
525 -10 479 0
525 10 -479 0
-526 347 0
-526 -217 0
526 -347 217 0
-527 -134 -177 0
-527 134 177 0
527 134 -177 0
527 -134 177 0
-528 -409 0
-528 401 0
528 409 -401 0
-529 -79 393 0
-529 79 -393 0
529 79 393 0
529 -79 -393 0
-530 140 0
-530 -14 0
530 -140 14 0
-531 -277 0
-531 136 0
531 277 -136 0
-532 85 -378 0
-532 -85 378 0
532 -85 -378 0
532 85 378 0
-533 110 -54 0
-533 -110 54 0
533 -110 -54 0
533 110 54 0
-534 -355 -125 0
-534 355 125 0
534 355 -125 0
534 -355 125 0
-535 52 0
-535 344 0
535 -52 -344 0
-536 -480 -314 0
-536 480 314 0
536 480 -314 0
536 -480 314 0
-537 -388 0
-537 152 0
537 388 -152 0
-538 -266 -471 0
-538 266 471 0
538 266 -471 0
538 -266 471 0
-539 214 0
-539 412 0
539 -214 -412 0
-540 -59 137 0
-540 59 -137 0
540 59 137 0
540 -59 -137 0
-541 -232 0
-541 -304 0
541 232 304 0
-542 463 0
-542 427 0
542 -463 -427 0
-543 542 523 0
-543 -542 -523 0
543 -542 523 0
543 542 -523 0
-544 114 530 0
-544 -114 -530 0
544 -114 530 0
544 114 -530 0
-545 -313 0
-545 -368 0
545 313 368 0
-546 174 -521 0
-546 -174 521 0
546 -174 -521 0
546 174 521 0
-547 -141 -129 0
-547 141 129 0
547 141 -129 0
547 -141 129 0
-548 451 0
-548 -340 0
548 -451 340 0
-549 328 -56 0
-549 -328 56 0
549 -328 -56 0
549 328 56 0
-550 419 0
-550 -281 0
550 -419 281 0
-551 -47 -517 0
-551 47 517 0
551 47 -517 0
551 -47 517 0
-552 124 -221 0
-552 -124 221 0
552 -124 -221 0
552 124 221 0
-553 404 390 0
-553 -404 -390 0
553 -404 390 0
553 404 -390 0
-554 -210 -551 0
-554 210 551 0
554 210 -551 0
554 -210 551 0
-555 -84 199 0
-555 84 -199 0
555 84 199 0
555 -84 -199 0
-556 -328 -436 0
-556 328 436 0
556 328 -436 0
556 -328 436 0
-557 -496 195 0
-557 496 -195 0
557 496 195 0
557 -496 -195 0
-558 508 0
-558 -534 0
558 -508 534 0
-559 80 0
-559 -122 0
559 -80 122 0
-560 -337 276 0
-560 337 -276 0
560 337 276 0
560 -337 -276 0
-561 354 0
-561 -449 0
561 -354 449 0
-562 444 0
-562 492 0
562 -444 -492 0
-563 -37 -506 0
-563 37 506 0
563 37 -506 0
563 -37 506 0
-564 -267 11 0
-564 267 -11 0
564 267 11 0
564 -267 -11 0
-565 -288 0
-565 142 0
565 288 -142 0
-566 488 0
-566 -54 0
566 -488 54 0
-567 322 -389 0
-567 -322 389 0
567 -322 -389 0
567 322 389 0
-568 474 100 0
-568 -474 -100 0
568 -474 100 0
568 474 -100 0
-569 352 -63 0
-569 -352 63 0
569 -352 -63 0
569 352 63 0
-570 -330 0
-570 383 0
570 330 -383 0
-571 -264 169 0
-571 264 -169 0
571 264 169 0
571 -264 -169 0
-572 -70 338 0
-572 70 -338 0
572 70 338 0
572 -70 -338 0
-573 388 -297 0
-573 -388 297 0
573 -388 -297 0
573 388 297 0
-574 -411 0
-574 392 0
574 411 -392 0
-575 -298 567 0
-575 298 -567 0
575 298 567 0
575 -298 -567 0
-576 -207 0
-576 -535 0
576 207 535 0
-577 -1 -156 0
-577 1 156 0
577 1 -156 0
577 -1 156 0
-578 -498 0
-578 -32 0
578 498 32 0
-579 13 -121 0
-579 -13 121 0
579 -13 -121 0
579 13 121 0
-580 388 -416 0
-580 -388 416 0
580 -388 -416 0
580 388 416 0
-581 -540 11 0
-581 540 -11 0
581 540 11 0
581 -540 -11 0
-582 -405 -315 0
-582 405 315 0
582 405 -315 0
582 -405 315 0
-583 -353 0
-583 163 0
583 353 -163 0
-584 352 12 0
-584 -352 -12 0
584 -352 12 0
584 352 -12 0
-585 45 517 0
-585 -45 -517 0
585 -45 517 0
585 45 -517 0
-586 -292 407 0
-586 292 -407 0
586 292 407 0
586 -292 -407 0
-587 135 -218 0
-587 -135 218 0
587 -135 -218 0
587 135 218 0
-588 -116 0
-588 336 0
588 116 -336 0
-589 83 33 0
-589 -83 -33 0
589 -83 33 0
589 83 -33 0
-590 178 236 0
-590 -178 -236 0
590 -178 236 0
590 178 -236 0
-591 88 -462 0
-591 -88 462 0
591 -88 -462 0
591 88 462 0
-592 588 583 0
-592 -588 -583 0
592 -588 583 0
592 588 -583 0
-593 -238 323 0
-593 238 -323 0
593 238 323 0
593 -238 -323 0
-594 88 0
-594 -334 0
594 -88 334 0
-595 51 169 0
-595 -51 -169 0
595 -51 169 0
595 51 -169 0
-596 565 526 0
-596 -565 -526 0
596 -565 526 0
596 565 -526 0
-597 -236 -568 0
-597 236 568 0
597 236 -568 0
597 -236 568 0
-598 -297 -591 0
-598 297 591 0
598 297 -591 0
598 -297 591 0
-599 145 -268 0
-599 -145 268 0
599 -145 -268 0
599 145 268 0
-600 -273 151 0
-600 273 -151 0
600 273 151 0
600 -273 -151 0
-601 124 157 0
-601 -124 -157 0
601 -124 157 0
601 124 -157 0
-602 -74 498 0
-602 74 -498 0
602 74 498 0
602 -74 -498 0
-603 -357 0
-603 200 0
603 357 -200 0
-604 581 268 0
-604 -581 -268 0
604 -581 268 0
604 581 -268 0
-605 319 0
-605 -60 0
605 -319 60 0
-606 518 590 0
-606 -518 -590 0
606 -518 590 0
606 518 -590 0
-607 48 95 0
-607 -48 -95 0
607 -48 95 0
607 48 -95 0
-608 209 -496 0
-608 -209 496 0
608 -209 -496 0
608 209 496 0
-609 228 400 0
-609 -228 -400 0
609 -228 400 0
609 228 -400 0
-610 -473 0
-610 -299 0
610 473 299 0
-611 458 -294 0
-611 -458 294 0
611 -458 -294 0
611 458 294 0
-612 -401 -545 0
-612 401 545 0
612 401 -545 0
612 -401 545 0
-613 347 306 0
-613 -347 -306 0
613 -347 306 0
613 347 -306 0
-614 -586 184 0
-614 586 -184 0
614 586 184 0
614 -586 -184 0
-615 -366 -348 0
-615 366 348 0
615 366 -348 0
615 -366 348 0
-616 119 -593 0
-616 -119 593 0
616 -119 -593 0
616 119 593 0
-617 -34 182 0
-617 34 -182 0
617 34 182 0
617 -34 -182 0
-618 -15 463 0
-618 15 -463 0
618 15 463 0
618 -15 -463 0
-619 74 0
-619 -347 0
619 -74 347 0
-620 225 -613 0
-620 -225 613 0
620 -225 -613 0
620 225 613 0
-621 372 32 0
-621 -372 -32 0
621 -372 32 0
621 372 -32 0
-622 401 0
-622 28 0
622 -401 -28 0
-623 394 0
-623 133 0
623 -394 -133 0
-624 -389 0
-624 -384 0
624 389 384 0
-625 -133 534 0
-625 133 -534 0
625 133 534 0
625 -133 -534 0
-626 -445 0
-626 479 0
626 445 -479 0
-627 -530 0
-627 418 0
627 530 -418 0
-628 593 0
-628 -127 0
628 -593 127 0
-629 410 350 0
-629 -410 -350 0
629 -410 350 0
629 410 -350 0
-630 587 0
-630 -121 0
630 -587 121 0
-631 -101 -347 0
-631 101 347 0
631 101 -347 0
631 -101 347 0
-632 436 -548 0
-632 -436 548 0
632 -436 -548 0
632 436 548 0
-633 419 109 0
-633 -419 -109 0
633 -419 109 0
633 419 -109 0
-634 204 0
-634 -445 0
634 -204 445 0
-635 -154 210 0
-635 154 -210 0
635 154 210 0
635 -154 -210 0
-636 132 -469 0
-636 -132 469 0
636 -132 -469 0
636 132 469 0
-637 442 -387 0
-637 -442 387 0
637 -442 -387 0
637 442 387 0
-638 -633 237 0
-638 633 -237 0
638 633 237 0
638 -633 -237 0
-639 -617 0
-639 60 0
639 617 -60 0
-640 10 0
-640 214 0
640 -10 -214 0
-641 619 0
-641 -48 0
641 -619 48 0
-642 380 -213 0
-642 -380 213 0
642 -380 -213 0
642 380 213 0
-643 259 0
-643 -529 0
643 -259 529 0
-644 140 0
-644 -370 0
644 -140 370 0
-645 -563 6 0
-645 563 -6 0
645 563 6 0
645 -563 -6 0
-646 -436 84 0
-646 436 -84 0
646 436 84 0
646 -436 -84 0
-647 -234 -588 0
-647 234 588 0
647 234 -588 0
647 -234 588 0
-648 -15 -14 0
-648 15 14 0
648 15 -14 0
648 -15 14 0
-649 367 573 0
-649 -367 -573 0
649 -367 573 0
649 367 -573 0
-650 -611 0
-650 416 0
650 611 -416 0
-651 -224 -646 0
-651 224 646 0
651 224 -646 0
651 -224 646 0
-652 -376 0
-652 576 0
652 376 -576 0
-653 379 0
-653 -246 0
653 -379 246 0
-654 224 -403 0
-654 -224 403 0
654 -224 -403 0
654 224 403 0
-655 303 -147 0
-655 -303 147 0
655 -303 -147 0
655 303 147 0
-656 -547 -352 0
-656 547 352 0
656 547 -352 0
656 -547 352 0
-657 -361 93 0
-657 361 -93 0
657 361 93 0
657 -361 -93 0
-658 610 0
-658 -563 0
658 -610 563 0
-659 -80 583 0
-659 80 -583 0
659 80 583 0
659 -80 -583 0
-660 -233 0
-660 -31 0
660 233 31 0
-661 -216 -328 0
-661 216 328 0
661 216 -328 0
661 -216 328 0
-662 -165 66 0
-662 165 -66 0
662 165 66 0
662 -165 -66 0
-663 -4 -274 0
-663 4 274 0
663 4 -274 0
663 -4 274 0
-664 204 0
-664 -303 0
664 -204 303 0
-665 459 0
-665 125 0
665 -459 -125 0
-666 -120 0
-666 -166 0
666 120 166 0
-667 -94 -558 0
-667 94 558 0
667 94 -558 0
667 -94 558 0
-668 -45 -463 0
-668 45 463 0
668 45 -463 0
668 -45 463 0
-669 440 254 0
-669 -440 -254 0
669 -440 254 0
669 440 -254 0
-670 -651 0
-670 296 0
670 651 -296 0
-671 -326 385 0
-671 326 -385 0
671 326 385 0
671 -326 -385 0
-672 120 0
-672 585 0
672 -120 -585 0
-673 -335 421 0
-673 335 -421 0
673 335 421 0
673 -335 -421 0
-674 -113 -466 0
-674 113 466 0
674 113 -466 0
674 -113 466 0
-675 -416 0
-675 -125 0
675 416 125 0
-676 212 344 0
-676 -212 -344 0
676 -212 344 0
676 212 -344 0
-677 -501 -102 0
-677 501 102 0
677 501 -102 0
677 -501 102 0
-678 -654 553 0
-678 654 -553 0
678 654 553 0
678 -654 -553 0
-679 462 400 0
-679 -462 -400 0
679 -462 400 0
679 462 -400 0
-680 -153 523 0
-680 153 -523 0
680 153 523 0
680 -153 -523 0
-681 24 406 0
-681 -24 -406 0
681 -24 406 0
681 24 -406 0
-682 142 663 0
-682 -142 -663 0
682 -142 663 0
682 142 -663 0
-683 310 0
-683 479 0
683 -310 -479 0
-684 125 0
-684 661 0
684 -125 -661 0
-685 130 -573 0
-685 -130 573 0
685 -130 -573 0
685 130 573 0
-686 47 460 0
-686 -47 -460 0
686 -47 460 0
686 47 -460 0
-687 224 375 0
-687 -224 -375 0
687 -224 375 0
687 224 -375 0
-688 234 0
-688 -429 0
688 -234 429 0
-689 -416 682 0
-689 416 -682 0
689 416 682 0
689 -416 -682 0
-690 -544 0
-690 338 0
690 544 -338 0
-691 -262 0
-691 565 0
691 262 -565 0
-692 362 0
-692 -407 0
692 -362 407 0
-693 -639 683 0
-693 639 -683 0
693 639 683 0
693 -639 -683 0
-694 -276 538 0
-694 276 -538 0
694 276 538 0
694 -276 -538 0
-695 -553 -388 0
-695 553 388 0
695 553 -388 0
695 -553 388 0
-696 -281 0
-696 -112 0
696 281 112 0
-697 -74 549 0
-697 74 -549 0
697 74 549 0
697 -74 -549 0
-698 -304 382 0
-698 304 -382 0
698 304 382 0
698 -304 -382 0
-699 -552 -306 0
-699 552 306 0
699 552 -306 0
699 -552 306 0
-700 368 -42 0
-700 -368 42 0
700 -368 -42 0
700 368 42 0
-701 -10 -258 0
-701 10 258 0
701 10 -258 0
701 -10 258 0
-702 577 550 0
-702 -577 -550 0
702 -577 550 0
702 577 -550 0
-703 -696 0
-703 207 0
703 696 -207 0
-704 82 153 0
-704 -82 -153 0
704 -82 153 0
704 82 -153 0
-705 -81 -292 0
-705 81 292 0
705 81 -292 0
705 -81 292 0
-706 485 254 0
-706 -485 -254 0
706 -485 254 0
706 485 -254 0
-707 -20 0
-707 40 0
707 20 -40 0
-708 404 438 0
-708 -404 -438 0
708 -404 438 0
708 404 -438 0
-709 465 420 0
-709 -465 -420 0
709 -465 420 0
709 465 -420 0
-710 132 -178 0
-710 -132 178 0
710 -132 -178 0
710 132 178 0
-711 -641 -272 0
-711 641 272 0
711 641 -272 0
711 -641 272 0
-712 -203 -391 0
-712 203 391 0
712 203 -391 0
712 -203 391 0
-713 -694 162 0
-713 694 -162 0
713 694 162 0
713 -694 -162 0
-714 337 0
-714 -191 0
714 -337 191 0
-715 567 0
-715 491 0
715 -567 -491 0
-716 -631 -9 0
-716 631 9 0
716 631 -9 0
716 -631 9 0
-717 -540 -634 0
-717 540 634 0
717 540 -634 0
717 -540 634 0
-718 -103 0
-718 523 0
718 103 -523 0
-719 618 -506 0
-719 -618 506 0
719 -618 -506 0
719 618 506 0
-720 -122 560 0
-720 122 -560 0
720 122 560 0
720 -122 -560 0
-721 -203 0
-721 -270 0
721 203 270 0
-722 422 37 0
-722 -422 -37 0
722 -422 37 0
722 422 -37 0
-723 -570 -198 0
-723 570 198 0
723 570 -198 0
723 -570 198 0
-724 -251 0
-724 558 0
724 251 -558 0
-725 383 -588 0
-725 -383 588 0
725 -383 -588 0
725 383 588 0
-726 -201 -582 0
-726 201 582 0
726 201 -582 0
726 -201 582 0
-727 -178 0
-727 -721 0
727 178 721 0
-728 -304 308 0
-728 304 -308 0
728 304 308 0
728 -304 -308 0
-729 441 170 0
-729 -441 -170 0
729 -441 170 0
729 441 -170 0
-730 171 608 0
-730 -171 -608 0
730 -171 608 0
730 171 -608 0
-731 71 -603 0
-731 -71 603 0
731 -71 -603 0
731 71 603 0
-732 -414 0
-732 -723 0
732 414 723 0
-733 -110 -691 0
-733 110 691 0
733 110 -691 0
733 -110 691 0
-734 684 -327 0
-734 -684 327 0
734 -684 -327 0
734 684 327 0
-735 231 -639 0
-735 -231 639 0
735 -231 -639 0
735 231 639 0
-736 -721 103 0
-736 721 -103 0
736 721 103 0
736 -721 -103 0
-737 25 614 0
-737 -25 -614 0
737 -25 614 0
737 25 -614 0
-738 -449 224 0
-738 449 -224 0
738 449 224 0
738 -449 -224 0
-739 -265 160 0
-739 265 -160 0
739 265 160 0
739 -265 -160 0
-740 -619 0
-740 -223 0
740 619 223 0
-741 -489 0
-741 -529 0
741 489 529 0
-742 69 89 0
-742 -69 -89 0
742 -69 89 0
742 69 -89 0
-743 141 613 0
-743 -141 -613 0
743 -141 613 0
743 141 -613 0
-744 564 0
-744 268 0
744 -564 -268 0
-745 245 61 0
-745 -245 -61 0
745 -245 61 0
745 245 -61 0
-746 51 250 0
-746 -51 -250 0
746 -51 250 0
746 51 -250 0
-747 21 526 0
-747 -21 -526 0
747 -21 526 0
747 21 -526 0
-748 -396 0
-748 51 0
748 396 -51 0
-749 529 -318 0
-749 -529 318 0
749 -529 -318 0
749 529 318 0
-750 737 0
-750 368 0
750 -737 -368 0
-751 -469 278 0
-751 469 -278 0
751 469 278 0
751 -469 -278 0
-752 331 393 0
-752 -331 -393 0
752 -331 393 0
752 331 -393 0
-753 411 -641 0
-753 -411 641 0
753 -411 -641 0
753 411 641 0
-754 -295 -320 0
-754 295 320 0
754 295 -320 0
754 -295 320 0
-755 97 541 0
-755 -97 -541 0
755 -97 541 0
755 97 -541 0
-756 -730 0
-756 328 0
756 730 -328 0
-757 -524 -30 0
-757 524 30 0
757 524 -30 0
757 -524 30 0
-758 -497 0
-758 609 0
758 497 -609 0
-759 -309 0
-759 -533 0
759 309 533 0
-760 258 679 0
-760 -258 -679 0
760 -258 679 0
760 258 -679 0
-761 540 0
-761 74 0
761 -540 -74 0
-762 -668 131 0
-762 668 -131 0
762 668 131 0
762 -668 -131 0
-763 -510 0
-763 210 0
763 510 -210 0
-764 -535 385 0
-764 535 -385 0
764 535 385 0
764 -535 -385 0
-765 -651 0
-765 588 0
765 651 -588 0
-766 85 0
-766 160 0
766 -85 -160 0
-767 461 694 0
-767 -461 -694 0
767 -461 694 0
767 461 -694 0
-768 298 -106 0
-768 -298 106 0
768 -298 -106 0
768 298 106 0
-769 588 532 0
-769 -588 -532 0
769 -588 532 0
769 588 -532 0
-770 598 127 0
-770 -598 -127 0
770 -598 127 0
770 598 -127 0
-771 315 -671 0
-771 -315 671 0
771 -315 -671 0
771 315 671 0
-772 15 0
-772 -432 0
772 -15 432 0
-773 -480 -215 0
-773 480 215 0
773 480 -215 0
773 -480 215 0
-774 89 -697 0
-774 -89 697 0
774 -89 -697 0
774 89 697 0
-775 452 0
-775 76 0
775 -452 -76 0
-776 -422 267 0
-776 422 -267 0
776 422 267 0
776 -422 -267 0
-777 421 -347 0
-777 -421 347 0
777 -421 -347 0
777 421 347 0
-778 -691 566 0
-778 691 -566 0
778 691 566 0
778 -691 -566 0
-779 -248 0
-779 40 0
779 248 -40 0
-780 -284 731 0
-780 284 -731 0
780 284 731 0
780 -284 -731 0
-781 526 -645 0
-781 -526 645 0
781 -526 -645 0
781 526 645 0
-782 304 -596 0
-782 -304 596 0
782 -304 -596 0
782 304 596 0
-783 -424 353 0
-783 424 -353 0
783 424 353 0
783 -424 -353 0
-784 81 -102 0
-784 -81 102 0
784 -81 -102 0
784 81 102 0
-785 -16 -459 0
-785 16 459 0
785 16 -459 0
785 -16 459 0
-786 -667 285 0
-786 667 -285 0
786 667 285 0
786 -667 -285 0
-787 376 657 0
-787 -376 -657 0
787 -376 657 0
787 376 -657 0
-788 233 -782 0
-788 -233 782 0
788 -233 -782 0
788 233 782 0
-789 646 0
-789 -569 0
789 -646 569 0
-790 -170 -30 0
-790 170 30 0
790 170 -30 0
790 -170 30 0
-791 461 705 0
-791 -461 -705 0
791 -461 705 0
791 461 -705 0
-792 -185 -201 0
-792 185 201 0
792 185 -201 0
792 -185 201 0
-793 444 624 0
-793 -444 -624 0
793 -444 624 0
793 444 -624 0
-794 -506 0
-794 543 0
794 506 -543 0
-795 -748 177 0
-795 748 -177 0
795 748 177 0
795 -748 -177 0
-796 -732 -532 0
-796 732 532 0
796 732 -532 0
796 -732 532 0
-797 522 315 0
-797 -522 -315 0
797 -522 315 0
797 522 -315 0
-798 -689 728 0
-798 689 -728 0
798 689 728 0
798 -689 -728 0
-799 -73 683 0
-799 73 -683 0
799 73 683 0
799 -73 -683 0
-800 -314 156 0
-800 314 -156 0
800 314 156 0
800 -314 -156 0
-801 -161 -188 0
-801 161 188 0
801 161 -188 0
801 -161 188 0
-802 435 -273 0
-802 -435 273 0
802 -435 -273 0
802 435 273 0
-803 663 392 0
-803 -663 -392 0
803 -663 392 0
803 663 -392 0
-804 27 -576 0
-804 -27 576 0
804 -27 -576 0
804 27 576 0
-805 730 -121 0
-805 -730 121 0
805 -730 -121 0
805 730 121 0
-806 -53 -313 0
-806 53 313 0
806 53 -313 0
806 -53 313 0
-807 356 -375 0
-807 -356 375 0
807 -356 -375 0
807 356 375 0
-808 401 -445 0
-808 -401 445 0
808 -401 -445 0
808 401 445 0
-809 -279 0
-809 714 0
809 279 -714 0
-810 177 0
-810 369 0
810 -177 -369 0
-811 765 0
-811 179 0
811 -765 -179 0
-812 143 0
-812 -748 0
812 -143 748 0
-813 460 -749 0
-813 -460 749 0
813 -460 -749 0
813 460 749 0
-814 503 -772 0
-814 -503 772 0
814 -503 -772 0
814 503 772 0
-815 -70 -668 0
-815 70 668 0
815 70 -668 0
815 -70 668 0
-816 -455 -696 0
-816 455 696 0
816 455 -696 0
816 -455 696 0
-817 216 448 0
-817 -216 -448 0
817 -216 448 0
817 216 -448 0
-818 -682 -140 0
-818 682 140 0
818 682 -140 0
818 -682 140 0
-819 173 347 0
-819 -173 -347 0
819 -173 347 0
819 173 -347 0
-820 293 -356 0
-820 -293 356 0
820 -293 -356 0
820 293 356 0
-821 687 0
-821 -50 0
821 -687 50 0
-822 -247 -455 0
-822 247 455 0
822 247 -455 0
822 -247 455 0
-823 348 450 0
-823 -348 -450 0
823 -348 450 0
823 348 -450 0
-824 378 -460 0
-824 -378 460 0
824 -378 -460 0
824 378 460 0
-825 56 0
-825 258 0
825 -56 -258 0
-826 -42 498 0
-826 42 -498 0
826 42 498 0
826 -42 -498 0
-827 -569 0
-827 483 0
827 569 -483 0
-828 -629 178 0
-828 629 -178 0
828 629 178 0
828 -629 -178 0
-829 416 459 0
-829 -416 -459 0
829 -416 459 0
829 416 -459 0
-830 279 -410 0
-830 -279 410 0
830 -279 -410 0
830 279 410 0
-831 26 544 0
-831 -26 -544 0
831 -26 544 0
831 26 -544 0
-832 -348 -305 0
-832 348 305 0
832 348 -305 0
832 -348 305 0
-833 123 149 0
-833 -123 -149 0
833 -123 149 0
833 123 -149 0
-834 -517 -334 0
-834 517 334 0
834 517 -334 0
834 -517 334 0
-835 420 336 0
-835 -420 -336 0
835 -420 336 0
835 420 -336 0
-836 -134 445 0
-836 134 -445 0
836 134 445 0
836 -134 -445 0
-837 -96 0
-837 378 0
837 96 -378 0
-838 -204 0
-838 -270 0
838 204 270 0
-839 492 -763 0
-839 -492 763 0
839 -492 -763 0
839 492 763 0
-840 607 -511 0
-840 -607 511 0
840 -607 -511 0
840 607 511 0
-841 -756 78 0
-841 756 -78 0
841 756 78 0
841 -756 -78 0
-842 -288 561 0
-842 288 -561 0
842 288 561 0
842 -288 -561 0
-843 674 -656 0
-843 -674 656 0
843 -674 -656 0
843 674 656 0
-844 90 -97 0
-844 -90 97 0
844 -90 -97 0
844 90 97 0
-845 -61 -369 0
-845 61 369 0
845 61 -369 0
845 -61 369 0
-846 -801 -398 0
-846 801 398 0
846 801 -398 0
846 -801 398 0
-799 0
800 0
801 0
-802 0
-803 0
-804 0
805 0
-806 0
807 0
-808 0
-809 0
-810 0
-811 0
-812 0
-813 0
-814 0
815 0
-816 0
-817 0
818 0
-819 0
-820 0
821 0
822 0
823 0
824 0
-825 0
-826 0
-827 0
-828 0
829 0
-830 0
-831 0
832 0
833 0
-834 0
-835 0
836 0
-837 0
-838 0
-839 0
-840 0
841 0
842 0
843 0
-844 0
-845 0
-846 0
