c xor-heavy random circuit, inputs=64 gates=1500, last 64 signals pinned to a planted input assignment; input variables are 1..64
c generated by TurboCryptoSAT gen-benchmark - satisfiable by construction
p cnf 1562 5586
-65 -32 17 0
-65 32 -17 0
65 32 17 0
65 -32 -17 0
-66 38 -10 0
-66 -38 10 0
66 -38 -10 0
66 38 10 0
-67 -61 -32 0
-67 61 32 0
67 61 -32 0
67 -61 32 0
-68 35 0
-68 25 0
68 -35 -25 0
-69 -33 0
-69 -54 0
69 33 54 0
-70 57 -22 0
-70 -57 22 0
70 -57 -22 0
70 57 22 0
-71 63 -37 0
-71 -63 37 0
71 -63 -37 0
71 63 37 0
-72 -66 -47 0
-72 66 47 0
72 66 -47 0
72 -66 47 0
-73 28 0
-73 10 0
73 -28 -10 0
-74 -61 39 0
-74 61 -39 0
74 61 39 0
74 -61 -39 0
-75 43 62 0
-75 -43 -62 0
75 -43 62 0
75 43 -62 0
-76 -37 -26 0
-76 37 26 0
76 37 -26 0
76 -37 26 0
-77 -67 0
-77 -13 0
77 67 13 0
-78 -61 -60 0
-78 61 60 0
78 61 -60 0
78 -61 60 0
-79 2 51 0
-79 -2 -51 0
79 -2 51 0
79 2 -51 0
-80 -50 -11 0
-80 50 11 0
80 50 -11 0
80 -50 11 0
-81 59 0
-81 -2 0
81 -59 2 0
-82 12 0
-82 -49 0
82 -12 49 0
-83 -69 -68 0
-83 69 68 0
83 69 -68 0
83 -69 68 0
-84 -50 -42 0
-84 50 42 0
84 50 -42 0
84 -50 42 0
-85 1 -45 0
-85 -1 45 0
85 -1 -45 0
85 1 45 0
-86 -53 0
-86 35 0
86 53 -35 0
-87 63 0
-87 -27 0
87 -63 27 0
-88 56 63 0
-88 -56 -63 0
88 -56 63 0
88 56 -63 0
-89 -50 -44 0
-89 50 44 0
89 50 -44 0
89 -50 44 0
-90 -30 0
-90 -41 0
90 30 41 0
-91 -75 0
-91 40 0
91 75 -40 0
-92 77 5 0
-92 -77 -5 0
92 -77 5 0
92 77 -5 0
-93 23 -88 0
-93 -23 88 0
93 -23 -88 0
93 23 88 0
-94 12 0
-94 -89 0
94 -12 89 0
-95 17 -70 0
-95 -17 70 0
95 -17 -70 0
95 17 70 0
-96 -30 0
-96 32 0
96 30 -32 0
-97 64 0
-97 46 0
97 -64 -46 0
-98 -3 -10 0
-98 3 10 0
98 3 -10 0
98 -3 10 0
-99 1 0
-99 9 0
99 -1 -9 0
-100 11 0
-100 95 0
100 -11 -95 0
-101 -60 33 0
-101 60 -33 0
101 60 33 0
101 -60 -33 0
-102 92 -100 0
-102 -92 100 0
102 -92 -100 0
102 92 100 0
-103 -14 0
-103 -34 0
103 14 34 0
-104 -75 -102 0
-104 75 102 0
104 75 -102 0
104 -75 102 0
-105 -58 -71 0
-105 58 71 0
105 58 -71 0
105 -58 71 0
-106 93 0
-106 82 0
106 -93 -82 0
-107 92 0
-107 -28 0
107 -92 28 0
-108 105 -65 0
-108 -105 65 0
108 -105 -65 0
108 105 65 0
-109 -58 -75 0
-109 58 75 0
109 58 -75 0
109 -58 75 0
-110 27 44 0
-110 -27 -44 0
110 -27 44 0
110 27 -44 0
-111 -83 0
-111 -77 0
111 83 77 0
-112 -78 0
-112 -91 0
112 78 91 0
-113 63 9 0
-113 -63 -9 0
113 -63 9 0
113 63 -9 0
-114 -112 110 0
-114 112 -110 0
114 112 110 0
114 -112 -110 0
-115 59 0
-115 -90 0
115 -59 90 0
-116 -23 -35 0
-116 23 35 0
116 23 -35 0
116 -23 35 0
-117 -34 0
-117 -15 0
117 34 15 0
-118 101 0
-118 100 0
118 -101 -100 0
-119 14 -111 0
-119 -14 111 0
119 -14 -111 0
119 14 111 0
-120 84 0
-120 -109 0
120 -84 109 0
-121 80 0
-121 107 0
121 -80 -107 0
-122 38 -119 0
-122 -38 119 0
122 -38 -119 0
122 38 119 0
-123 65 0
-123 22 0
123 -65 -22 0
-124 -72 24 0
-124 72 -24 0
124 72 24 0
124 -72 -24 0
-125 -41 100 0
-125 41 -100 0
125 41 100 0
125 -41 -100 0
-126 38 82 0
-126 -38 -82 0
126 -38 82 0
126 38 -82 0
-127 -92 91 0
-127 92 -91 0
127 92 91 0
127 -92 -91 0
-128 -66 9 0
-128 66 -9 0
128 66 9 0
128 -66 -9 0
-129 26 -65 0
-129 -26 65 0
129 -26 -65 0
129 26 65 0
-130 -78 118 0
-130 78 -118 0
130 78 118 0
130 -78 -118 0
-131 54 46 0
-131 -54 -46 0
131 -54 46 0
131 54 -46 0
-132 -25 28 0
-132 25 -28 0
132 25 28 0
132 -25 -28 0
-133 -32 0
-133 106 0
133 32 -106 0
-134 12 109 0
-134 -12 -109 0
134 -12 109 0
134 12 -109 0
-135 -108 -121 0
-135 108 121 0
135 108 -121 0
135 -108 121 0
-136 43 0
-136 29 0
136 -43 -29 0
-137 134 34 0
-137 -134 -34 0
137 -134 34 0
137 134 -34 0
-138 14 86 0
-138 -14 -86 0
138 -14 86 0
138 14 -86 0
-139 37 129 0
-139 -37 -129 0
139 -37 129 0
139 37 -129 0
-140 -49 32 0
-140 49 -32 0
140 49 32 0
140 -49 -32 0
-141 -97 114 0
-141 97 -114 0
141 97 114 0
141 -97 -114 0
-142 -53 -129 0
-142 53 129 0
142 53 -129 0
142 -53 129 0
-143 -119 -17 0
-143 119 17 0
143 119 -17 0
143 -119 17 0
-144 2 -124 0
-144 -2 124 0
144 -2 -124 0
144 2 124 0
-145 -114 -1 0
-145 114 1 0
145 114 -1 0
145 -114 1 0
-146 -59 98 0
-146 59 -98 0
146 59 98 0
146 -59 -98 0
-147 -127 -32 0
-147 127 32 0
147 127 -32 0
147 -127 32 0
-148 64 0
-148 -133 0
148 -64 133 0
-149 -125 0
-149 24 0
149 125 -24 0
-150 20 57 0
-150 -20 -57 0
150 -20 57 0
150 20 -57 0
-151 -58 0
-151 95 0
151 58 -95 0
-152 14 0
-152 -124 0
152 -14 124 0
-153 98 0
-153 -127 0
153 -98 127 0
-154 8 0
-154 123 0
154 -8 -123 0
-155 -22 0
-155 -105 0
155 22 105 0
-156 -107 -129 0
-156 107 129 0
156 107 -129 0
156 -107 129 0
-157 14 110 0
-157 -14 -110 0
157 -14 110 0
157 14 -110 0
-158 -103 143 0
-158 103 -143 0
158 103 143 0
158 -103 -143 0
-159 2 148 0
-159 -2 -148 0
159 -2 148 0
159 2 -148 0
-160 -61 -115 0
-160 61 115 0
160 61 -115 0
160 -61 115 0
-161 19 -147 0
-161 -19 147 0
161 -19 -147 0
161 19 147 0
-162 -68 0
-162 -46 0
162 68 46 0
-163 -20 0
-163 34 0
163 20 -34 0
-164 -139 -34 0
-164 139 34 0
164 139 -34 0
164 -139 34 0
-165 33 -151 0
-165 -33 151 0
165 -33 -151 0
165 33 151 0
-166 -83 6 0
-166 83 -6 0
166 83 6 0
166 -83 -6 0
-167 44 28 0
-167 -44 -28 0
167 -44 28 0
167 44 -28 0
-168 -17 0
-168 1 0
168 17 -1 0
-169 64 24 0
-169 -64 -24 0
169 -64 24 0
169 64 -24 0
-170 130 164 0
-170 -130 -164 0
170 -130 164 0
170 130 -164 0
-171 19 -108 0
-171 -19 108 0
171 -19 -108 0
171 19 108 0
-172 -18 45 0
-172 18 -45 0
172 18 45 0
172 -18 -45 0
-173 -135 0
-173 -127 0
173 135 127 0
-174 111 -38 0
-174 -111 38 0
174 -111 -38 0
174 111 38 0
-175 126 158 0
-175 -126 -158 0
175 -126 158 0
175 126 -158 0
-176 -21 -119 0
-176 21 119 0
176 21 -119 0
176 -21 119 0
-177 21 0
-177 -156 0
177 -21 156 0
-178 88 100 0
-178 -88 -100 0
178 -88 100 0
178 88 -100 0
-179 -41 59 0
-179 41 -59 0
179 41 59 0
179 -41 -59 0
-180 28 -68 0
-180 -28 68 0
180 -28 -68 0
180 28 68 0
-181 -90 -139 0
-181 90 139 0
181 90 -139 0
181 -90 139 0
-182 -96 127 0
-182 96 -127 0
182 96 127 0
182 -96 -127 0
-183 39 -28 0
-183 -39 28 0
183 -39 -28 0
183 39 28 0
-184 106 0
-184 -166 0
184 -106 166 0
-185 52 0
-185 19 0
185 -52 -19 0
-186 -126 134 0
-186 126 -134 0
186 126 134 0
186 -126 -134 0
-187 109 0
-187 -63 0
187 -109 63 0
-188 101 0
-188 -14 0
188 -101 14 0
-189 -119 0
-189 -91 0
189 119 91 0
-190 -30 0
-190 -142 0
190 30 142 0
-191 84 -166 0
-191 -84 166 0
191 -84 -166 0
191 84 166 0
-192 -70 -35 0
-192 70 35 0
192 70 -35 0
192 -70 35 0
-193 -11 0
-193 142 0
193 11 -142 0
-194 18 123 0
-194 -18 -123 0
194 -18 123 0
194 18 -123 0
-195 -12 48 0
-195 12 -48 0
195 12 48 0
195 -12 -48 0
-196 145 -183 0
-196 -145 183 0
196 -145 -183 0
196 145 183 0
-197 114 0
-197 -172 0
197 -114 172 0
-198 -133 -189 0
-198 133 189 0
198 133 -189 0
198 -133 189 0
-199 162 0
-199 157 0
199 -162 -157 0
-200 -110 -133 0
-200 110 133 0
200 110 -133 0
200 -110 133 0
-201 115 0
-201 -72 0
201 -115 72 0
-202 -124 -116 0
-202 124 116 0
202 124 -116 0
202 -124 116 0
-203 68 -3 0
-203 -68 3 0
203 -68 -3 0
203 68 3 0
-204 -92 0
-204 -38 0
204 92 38 0
-205 92 -67 0
-205 -92 67 0
205 -92 -67 0
205 92 67 0
-206 -54 0
-206 -168 0
206 54 168 0
-207 89 196 0
-207 -89 -196 0
207 -89 196 0
207 89 -196 0
-208 -82 -6 0
-208 82 6 0
208 82 -6 0
208 -82 6 0
-209 179 -18 0
-209 -179 18 0
209 -179 -18 0
209 179 18 0
-210 78 -53 0
-210 -78 53 0
210 -78 -53 0
210 78 53 0
-211 133 0
-211 -207 0
211 -133 207 0
-212 133 0
-212 62 0
212 -133 -62 0
-213 -48 0
-213 -164 0
213 48 164 0
-214 -183 0
-214 22 0
214 183 -22 0
-215 205 141 0
-215 -205 -141 0
215 -205 141 0
215 205 -141 0
-216 182 -107 0
-216 -182 107 0
216 -182 -107 0
216 182 107 0
-217 -160 -161 0
-217 160 161 0
217 160 -161 0
217 -160 161 0
-218 177 76 0
-218 -177 -76 0
218 -177 76 0
218 177 -76 0
-219 -91 54 0
-219 91 -54 0
219 91 54 0
219 -91 -54 0
-220 -71 69 0
-220 71 -69 0
220 71 69 0
220 -71 -69 0
-221 97 0
-221 206 0
221 -97 -206 0
-222 10 0
-222 211 0
222 -10 -211 0
-223 -199 220 0
-223 199 -220 0
223 199 220 0
223 -199 -220 0
-224 94 161 0
-224 -94 -161 0
224 -94 161 0
224 94 -161 0
-225 -81 67 0
-225 81 -67 0
225 81 67 0
225 -81 -67 0
-226 -33 9 0
-226 33 -9 0
226 33 9 0
226 -33 -9 0
-227 145 -26 0
-227 -145 26 0
227 -145 -26 0
227 145 26 0
-228 116 0
-228 -113 0
228 -116 113 0
-229 10 -19 0
-229 -10 19 0
229 -10 -19 0
229 10 19 0
-230 185 -163 0
-230 -185 163 0
230 -185 -163 0
230 185 163 0
-231 113 -37 0
-231 -113 37 0
231 -113 -37 0
231 113 37 0
-232 -91 -150 0
-232 91 150 0
232 91 -150 0
232 -91 150 0
-233 -117 0
-233 -28 0
233 117 28 0
-234 -2 -199 0
-234 2 199 0
234 2 -199 0
234 -2 199 0
-235 -19 -22 0
-235 19 22 0
235 19 -22 0
235 -19 22 0
-236 132 -19 0
-236 -132 19 0
236 -132 -19 0
236 132 19 0
-237 -85 0
-237 167 0
237 85 -167 0
-238 -170 90 0
-238 170 -90 0
238 170 90 0
238 -170 -90 0
-239 -12 -43 0
-239 12 43 0
239 12 -43 0
239 -12 43 0
-240 -176 0
-240 -60 0
240 176 60 0
-241 143 238 0
-241 -143 -238 0
241 -143 238 0
241 143 -238 0
-242 10 -195 0
-242 -10 195 0
242 -10 -195 0
242 10 195 0
-243 -43 -77 0
-243 43 77 0
243 43 -77 0
243 -43 77 0
-244 23 -130 0
-244 -23 130 0
244 -23 -130 0
244 23 130 0
-245 32 154 0
-245 -32 -154 0
245 -32 154 0
245 32 -154 0
-246 5 85 0
-246 -5 -85 0
246 -5 85 0
246 5 -85 0
-247 -8 -51 0
-247 8 51 0
247 8 -51 0
247 -8 51 0
-248 -205 72 0
-248 205 -72 0
248 205 72 0
248 -205 -72 0
-249 -232 139 0
-249 232 -139 0
249 232 139 0
249 -232 -139 0
-250 32 0
-250 148 0
250 -32 -148 0
-251 -9 151 0
-251 9 -151 0
251 9 151 0
251 -9 -151 0
-252 138 -155 0
-252 -138 155 0
252 -138 -155 0
252 138 155 0
-253 68 0
-253 -128 0
253 -68 128 0
-254 -51 32 0
-254 51 -32 0
254 51 32 0
254 -51 -32 0
-255 115 0
-255 50 0
255 -115 -50 0
-256 1 0
-256 136 0
256 -1 -136 0
-257 -6 -221 0
-257 6 221 0
257 6 -221 0
257 -6 221 0
-258 -62 196 0
-258 62 -196 0
258 62 196 0
258 -62 -196 0
-259 13 -207 0
-259 -13 207 0
259 -13 -207 0
259 13 207 0
-260 -79 -19 0
-260 79 19 0
260 79 -19 0
260 -79 19 0
-261 -201 34 0
-261 201 -34 0
261 201 34 0
261 -201 -34 0
-262 218 -53 0
-262 -218 53 0
262 -218 -53 0
262 218 53 0
-263 206 186 0
-263 -206 -186 0
263 -206 186 0
263 206 -186 0
-264 54 75 0
-264 -54 -75 0
264 -54 75 0
264 54 -75 0
-265 -158 0
-265 -240 0
265 158 240 0
-266 -30 240 0
-266 30 -240 0
266 30 240 0
266 -30 -240 0
-267 -231 0
-267 -3 0
267 231 3 0
-268 -153 -192 0
-268 153 192 0
268 153 -192 0
268 -153 192 0
-269 -51 0
-269 177 0
269 51 -177 0
-270 -231 0
-270 -246 0
270 231 246 0
-271 -172 0
-271 64 0
271 172 -64 0
-272 102 206 0
-272 -102 -206 0
272 -102 206 0
272 102 -206 0
-273 -93 0
-273 26 0
273 93 -26 0
-274 -263 0
-274 -14 0
274 263 14 0
-275 -10 0
-275 149 0
275 10 -149 0
-276 -126 0
-276 237 0
276 126 -237 0
-277 -53 0
-277 68 0
277 53 -68 0
-278 -30 -99 0
-278 30 99 0
278 30 -99 0
278 -30 99 0
-279 -151 0
-279 268 0
279 151 -268 0
-280 -279 -120 0
-280 279 120 0
280 279 -120 0
280 -279 120 0
-281 -255 -18 0
-281 255 18 0
281 255 -18 0
281 -255 18 0
-282 -139 0
-282 -128 0
282 139 128 0
-283 273 -111 0
-283 -273 111 0
283 -273 -111 0
283 273 111 0
-284 282 0
-284 -22 0
284 -282 22 0
-285 85 -195 0
-285 -85 195 0
285 -85 -195 0
285 85 195 0
-286 -124 145 0
-286 124 -145 0
286 124 145 0
286 -124 -145 0
-287 157 -16 0
-287 -157 16 0
287 -157 -16 0
287 157 16 0
-288 -151 0
-288 55 0
288 151 -55 0
-289 118 193 0
-289 -118 -193 0
289 -118 193 0
289 118 -193 0
-290 -218 138 0
-290 218 -138 0
290 218 138 0
290 -218 -138 0
-291 -256 0
-291 187 0
291 256 -187 0
-292 -19 -100 0
-292 19 100 0
292 19 -100 0
292 -19 100 0
-293 108 20 0
-293 -108 -20 0
293 -108 20 0
293 108 -20 0
-294 -51 168 0
-294 51 -168 0
294 51 168 0
294 -51 -168 0
-295 -202 -200 0
-295 202 200 0
295 202 -200 0
295 -202 200 0
-296 -224 0
-296 -175 0
296 224 175 0
-297 209 0
-297 -122 0
297 -209 122 0
-298 98 0
-298 -120 0
298 -98 120 0
-299 -190 0
-299 -169 0
299 190 169 0
-300 146 103 0
-300 -146 -103 0
300 -146 103 0
300 146 -103 0
-301 293 0
-301 -29 0
301 -293 29 0
-302 -281 -8 0
-302 281 8 0
302 281 -8 0
302 -281 8 0
-303 -75 -48 0
-303 75 48 0
303 75 -48 0
303 -75 48 0
-304 -153 -254 0
-304 153 254 0
304 153 -254 0
304 -153 254 0
-305 222 -139 0
-305 -222 139 0
305 -222 -139 0
305 222 139 0
-306 -242 192 0
-306 242 -192 0
306 242 192 0
306 -242 -192 0
-307 -135 0
-307 -250 0
307 135 250 0
-308 74 -128 0
-308 -74 128 0
308 -74 -128 0
308 74 128 0
-309 27 -119 0
-309 -27 119 0
309 -27 -119 0
309 27 119 0
-310 -113 -255 0
-310 113 255 0
310 113 -255 0
310 -113 255 0
-311 -75 -14 0
-311 75 14 0
311 75 -14 0
311 -75 14 0
-312 -302 0
-312 54 0
312 302 -54 0
-313 1 -217 0
-313 -1 217 0
313 -1 -217 0
313 1 217 0
-314 -193 -124 0
-314 193 124 0
314 193 -124 0
314 -193 124 0
-315 206 40 0
-315 -206 -40 0
315 -206 40 0
315 206 -40 0
-316 -238 211 0
-316 238 -211 0
316 238 211 0
316 -238 -211 0
-317 -119 -266 0
-317 119 266 0
317 119 -266 0
317 -119 266 0
-318 49 0
-318 -171 0
318 -49 171 0
-319 -118 -256 0
-319 118 256 0
319 118 -256 0
319 -118 256 0
-320 274 77 0
-320 -274 -77 0
320 -274 77 0
320 274 -77 0
-321 297 -60 0
-321 -297 60 0
321 -297 -60 0
321 297 60 0
-322 132 -108 0
-322 -132 108 0
322 -132 -108 0
322 132 108 0
-323 172 0
-323 315 0
323 -172 -315 0
-324 -42 -160 0
-324 42 160 0
324 42 -160 0
324 -42 160 0
-325 -79 0
-325 -317 0
325 79 317 0
-326 -76 0
-326 -253 0
326 76 253 0
-327 298 251 0
-327 -298 -251 0
327 -298 251 0
327 298 -251 0
-328 143 -17 0
-328 -143 17 0
328 -143 -17 0
328 143 17 0
-329 -252 -149 0
-329 252 149 0
329 252 -149 0
329 -252 149 0
-330 276 0
-330 -38 0
330 -276 38 0
-331 -170 80 0
-331 170 -80 0
331 170 80 0
331 -170 -80 0
-332 -269 -190 0
-332 269 190 0
332 269 -190 0
332 -269 190 0
-333 83 0
-333 -327 0
333 -83 327 0
-334 -246 0
-334 -173 0
334 246 173 0
-335 274 0
-335 199 0
335 -274 -199 0
-336 209 179 0
-336 -209 -179 0
336 -209 179 0
336 209 -179 0
-337 -171 221 0
-337 171 -221 0
337 171 221 0
337 -171 -221 0
-338 73 -193 0
-338 -73 193 0
338 -73 -193 0
338 73 193 0
-339 304 9 0
-339 -304 -9 0
339 -304 9 0
339 304 -9 0
-340 178 0
-340 -82 0
340 -178 82 0
-341 46 -303 0
-341 -46 303 0
341 -46 -303 0
341 46 303 0
-342 -7 0
-342 -336 0
342 7 336 0
-343 313 -169 0
-343 -313 169 0
343 -313 -169 0
343 313 169 0
-344 144 0
-344 -313 0
344 -144 313 0
-345 128 0
-345 181 0
345 -128 -181 0
-346 -63 0
-346 -339 0
346 63 339 0
-347 205 252 0
-347 -205 -252 0
347 -205 252 0
347 205 -252 0
-348 161 0
-348 -18 0
348 -161 18 0
-349 282 -18 0
-349 -282 18 0
349 -282 -18 0
349 282 18 0
-350 224 18 0
-350 -224 -18 0
350 -224 18 0
350 224 -18 0
-351 8 0
-351 56 0
351 -8 -56 0
-352 -342 0
-352 61 0
352 342 -61 0
-353 248 0
-353 213 0
353 -248 -213 0
-354 -271 205 0
-354 271 -205 0
354 271 205 0
354 -271 -205 0
-355 38 0
-355 151 0
355 -38 -151 0
-356 -45 39 0
-356 45 -39 0
356 45 39 0
356 -45 -39 0
-357 28 322 0
-357 -28 -322 0
357 -28 322 0
357 28 -322 0
-358 -93 0
-358 253 0
358 93 -253 0
-359 337 0
-359 -277 0
359 -337 277 0
-360 -321 -296 0
-360 321 296 0
360 321 -296 0
360 -321 296 0
-361 -38 0
-361 283 0
361 38 -283 0
-362 125 70 0
-362 -125 -70 0
362 -125 70 0
362 125 -70 0
-363 -338 0
-363 -72 0
363 338 72 0
-364 336 -217 0
-364 -336 217 0
364 -336 -217 0
364 336 217 0
-365 -108 320 0
-365 108 -320 0
365 108 320 0
365 -108 -320 0
-366 -1 0
-366 -212 0
366 1 212 0
-367 97 119 0
-367 -97 -119 0
367 -97 119 0
367 97 -119 0
-368 83 15 0
-368 -83 -15 0
368 -83 15 0
368 83 -15 0
-369 -178 -163 0
-369 178 163 0
369 178 -163 0
369 -178 163 0
-370 149 0
-370 -226 0
370 -149 226 0
-371 -8 78 0
-371 8 -78 0
371 8 78 0
371 -8 -78 0
-372 58 -173 0
-372 -58 173 0
372 -58 -173 0
372 58 173 0
-373 322 -23 0
-373 -322 23 0
373 -322 -23 0
373 322 23 0
-374 -113 0
-374 42 0
374 113 -42 0
-375 6 185 0
-375 -6 -185 0
375 -6 185 0
375 6 -185 0
-376 257 120 0
-376 -257 -120 0
376 -257 120 0
376 257 -120 0
-377 -325 97 0
-377 325 -97 0
377 325 97 0
377 -325 -97 0
-378 67 0
-378 -304 0
378 -67 304 0
-379 -163 -173 0
-379 163 173 0
379 163 -173 0
379 -163 173 0
-380 -8 355 0
-380 8 -355 0
380 8 355 0
380 -8 -355 0
-381 105 0
-381 -94 0
381 -105 94 0
-382 -59 -154 0
-382 59 154 0
382 59 -154 0
382 -59 154 0
-383 278 -297 0
-383 -278 297 0
383 -278 -297 0
383 278 297 0
-384 -162 0
-384 336 0
384 162 -336 0
-385 -190 0
-385 -255 0
385 190 255 0
-386 -23 -185 0
-386 23 185 0
386 23 -185 0
386 -23 185 0
-387 -72 0
-387 -51 0
387 72 51 0
-388 -162 -226 0
-388 162 226 0
388 162 -226 0
388 -162 226 0
-389 -384 0
-389 207 0
389 384 -207 0
-390 169 149 0
-390 -169 -149 0
390 -169 149 0
390 169 -149 0
-391 279 0
-391 119 0
391 -279 -119 0
-392 -41 0
-392 270 0
392 41 -270 0
-393 -67 -113 0
-393 67 113 0
393 67 -113 0
393 -67 113 0
-394 -373 27 0
-394 373 -27 0
394 373 27 0
394 -373 -27 0
-395 -174 -250 0
-395 174 250 0
395 174 -250 0
395 -174 250 0
-396 -195 -184 0
-396 195 184 0
396 195 -184 0
396 -195 184 0
-397 106 -82 0
-397 -106 82 0
397 -106 -82 0
397 106 82 0
-398 -340 -176 0
-398 340 176 0
398 340 -176 0
398 -340 176 0
-399 148 0
-399 -125 0
399 -148 125 0
-400 -380 0
-400 -214 0
400 380 214 0
-401 213 381 0
-401 -213 -381 0
401 -213 381 0
401 213 -381 0
-402 106 338 0
-402 -106 -338 0
402 -106 338 0
402 106 -338 0
-403 -237 -336 0
-403 237 336 0
403 237 -336 0
403 -237 336 0
-404 62 -54 0
-404 -62 54 0
404 -62 -54 0
404 62 54 0
-405 -188 281 0
-405 188 -281 0
405 188 281 0
405 -188 -281 0
-406 218 200 0
-406 -218 -200 0
406 -218 200 0
406 218 -200 0
-407 -255 -147 0
-407 255 147 0
407 255 -147 0
407 -255 147 0
-408 -222 111 0
-408 222 -111 0
408 222 111 0
408 -222 -111 0
-409 60 334 0
-409 -60 -334 0
409 -60 334 0
409 60 -334 0
-410 286 -323 0
-410 -286 323 0
410 -286 -323 0
410 286 323 0
-411 -335 361 0
-411 335 -361 0
411 335 361 0
411 -335 -361 0
-412 394 192 0
-412 -394 -192 0
412 -394 192 0
412 394 -192 0
-413 -53 0
-413 -410 0
413 53 410 0
-414 -317 -382 0
-414 317 382 0
414 317 -382 0
414 -317 382 0
-415 -118 62 0
-415 118 -62 0
415 118 62 0
415 -118 -62 0
-416 290 -41 0
-416 -290 41 0
416 -290 -41 0
416 290 41 0
-417 370 300 0
-417 -370 -300 0
417 -370 300 0
417 370 -300 0
-418 -210 282 0
-418 210 -282 0
418 210 282 0
418 -210 -282 0
-419 301 375 0
-419 -301 -375 0
419 -301 375 0
419 301 -375 0
-420 70 -195 0
-420 -70 195 0
420 -70 -195 0
420 70 195 0
-421 -302 -66 0
-421 302 66 0
421 302 -66 0
421 -302 66 0
-422 -404 302 0
-422 404 -302 0
422 404 302 0
422 -404 -302 0
-423 154 -152 0
-423 -154 152 0
423 -154 -152 0
423 154 152 0
-424 206 -287 0
-424 -206 287 0
424 -206 -287 0
424 206 287 0
-425 379 0
-425 -273 0
425 -379 273 0
-426 73 0
-426 -82 0
426 -73 82 0
-427 -16 0
-427 100 0
427 16 -100 0
-428 237 -226 0
-428 -237 226 0
428 -237 -226 0
428 237 226 0
-429 -297 190 0
-429 297 -190 0
429 297 190 0
429 -297 -190 0
-430 39 290 0
-430 -39 -290 0
430 -39 290 0
430 39 -290 0
-431 295 357 0
-431 -295 -357 0
431 -295 357 0
431 295 -357 0
-432 9 -248 0
-432 -9 248 0
432 -9 -248 0
432 9 248 0
-433 -379 -422 0
-433 379 422 0
433 379 -422 0
433 -379 422 0
-434 -391 183 0
-434 391 -183 0
434 391 183 0
434 -391 -183 0
-435 81 -384 0
-435 -81 384 0
435 -81 -384 0
435 81 384 0
-436 67 -42 0
-436 -67 42 0
436 -67 -42 0
436 67 42 0
-437 382 -366 0
-437 -382 366 0
437 -382 -366 0
437 382 366 0
-438 159 8 0
-438 -159 -8 0
438 -159 8 0
438 159 -8 0
-439 -164 0
-439 -390 0
439 164 390 0
-440 374 0
-440 -274 0
440 -374 274 0
-441 299 268 0
-441 -299 -268 0
441 -299 268 0
441 299 -268 0
-442 394 0
-442 269 0
442 -394 -269 0
-443 -35 -31 0
-443 35 31 0
443 35 -31 0
443 -35 31 0
-444 -316 -50 0
-444 316 50 0
444 316 -50 0
444 -316 50 0
-445 380 0
-445 30 0
445 -380 -30 0
-446 -437 -182 0
-446 437 182 0
446 437 -182 0
446 -437 182 0
-447 -69 212 0
-447 69 -212 0
447 69 212 0
447 -69 -212 0
-448 363 179 0
-448 -363 -179 0
448 -363 179 0
448 363 -179 0
-449 -414 0
-449 -225 0
449 414 225 0
-450 39 49 0
-450 -39 -49 0
450 -39 49 0
450 39 -49 0
-451 -150 182 0
-451 150 -182 0
451 150 182 0
451 -150 -182 0
-452 -185 0
-452 307 0
452 185 -307 0
-453 411 0
-453 191 0
453 -411 -191 0
-454 -108 397 0
-454 108 -397 0
454 108 397 0
454 -108 -397 0
-455 -42 -225 0
-455 42 225 0
455 42 -225 0
455 -42 225 0
-456 440 -358 0
-456 -440 358 0
456 -440 -358 0
456 440 358 0
-457 -412 -255 0
-457 412 255 0
457 412 -255 0
457 -412 255 0
-458 445 319 0
-458 -445 -319 0
458 -445 319 0
458 445 -319 0
-459 32 -37 0
-459 -32 37 0
459 -32 -37 0
459 32 37 0
-460 -217 125 0
-460 217 -125 0
460 217 125 0
460 -217 -125 0
-461 -179 156 0
-461 179 -156 0
461 179 156 0
461 -179 -156 0
-462 318 -148 0
-462 -318 148 0
462 -318 -148 0
462 318 148 0
-463 -371 0
-463 139 0
463 371 -139 0
-464 -81 300 0
-464 81 -300 0
464 81 300 0
464 -81 -300 0
-465 -150 301 0
-465 150 -301 0
465 150 301 0
465 -150 -301 0
-466 -356 -268 0
-466 356 268 0
466 356 -268 0
466 -356 268 0
-467 -350 -440 0
-467 350 440 0
467 350 -440 0
467 -350 440 0
-468 -171 375 0
-468 171 -375 0
468 171 375 0
468 -171 -375 0
-469 -196 409 0
-469 196 -409 0
469 196 409 0
469 -196 -409 0
-470 265 -464 0
-470 -265 464 0
470 -265 -464 0
470 265 464 0
-471 194 232 0
-471 -194 -232 0
471 -194 232 0
471 194 -232 0
-472 39 275 0
-472 -39 -275 0
472 -39 275 0
472 39 -275 0
-473 71 0
-473 334 0
473 -71 -334 0
-474 -103 0
-474 99 0
474 103 -99 0
-475 380 -247 0
-475 -380 247 0
475 -380 -247 0
475 380 247 0
-476 -445 -92 0
-476 445 92 0
476 445 -92 0
476 -445 92 0
-477 -393 -149 0
-477 393 149 0
477 393 -149 0
477 -393 149 0
-478 324 -87 0
-478 -324 87 0
478 -324 -87 0
478 324 87 0
-479 424 456 0
-479 -424 -456 0
479 -424 456 0
479 424 -456 0
-480 -103 34 0
-480 103 -34 0
480 103 34 0
480 -103 -34 0
-481 258 25 0
-481 -258 -25 0
481 -258 25 0
481 258 -25 0
-482 242 225 0
-482 -242 -225 0
482 -242 225 0
482 242 -225 0
-483 -466 -357 0
-483 466 357 0
483 466 -357 0
483 -466 357 0
-484 -152 0
-484 147 0
484 152 -147 0
-485 -187 0
-485 -167 0
485 187 167 0
-486 373 -353 0
-486 -373 353 0
486 -373 -353 0
486 373 353 0
-487 -39 227 0
-487 39 -227 0
487 39 227 0
487 -39 -227 0
-488 303 -398 0
-488 -303 398 0
488 -303 -398 0
488 303 398 0
-489 -56 0
-489 -421 0
489 56 421 0
-490 -347 0
-490 227 0
490 347 -227 0
-491 132 -168 0
-491 -132 168 0
491 -132 -168 0
491 132 168 0
-492 420 223 0
-492 -420 -223 0
492 -420 223 0
492 420 -223 0
-493 127 0
-493 -148 0
493 -127 148 0
-494 -233 467 0
-494 233 -467 0
494 233 467 0
494 -233 -467 0
-495 362 0
-495 416 0
495 -362 -416 0
-496 -238 0
-496 406 0
496 238 -406 0
-497 -357 -139 0
-497 357 139 0
497 357 -139 0
497 -357 139 0
-498 -219 0
-498 215 0
498 219 -215 0
-499 -39 -337 0
-499 39 337 0
499 39 -337 0
499 -39 337 0
-500 -315 340 0
-500 315 -340 0
500 315 340 0
500 -315 -340 0
-501 -366 -179 0
-501 366 179 0
501 366 -179 0
501 -366 179 0
-502 -210 214 0
-502 210 -214 0
502 210 214 0
502 -210 -214 0
-503 348 -172 0
-503 -348 172 0
503 -348 -172 0
503 348 172 0
-504 -116 264 0
-504 116 -264 0
504 116 264 0
504 -116 -264 0
-505 -470 485 0
-505 470 -485 0
505 470 485 0
505 -470 -485 0
-506 465 38 0
-506 -465 -38 0
506 -465 38 0
506 465 -38 0
-507 409 29 0
-507 -409 -29 0
507 -409 29 0
507 409 -29 0
-508 -272 126 0
-508 272 -126 0
508 272 126 0
508 -272 -126 0
-509 56 475 0
-509 -56 -475 0
509 -56 475 0
509 56 -475 0
-510 -28 100 0
-510 28 -100 0
510 28 100 0
510 -28 -100 0
-511 -402 446 0
-511 402 -446 0
511 402 446 0
511 -402 -446 0
-512 56 347 0
-512 -56 -347 0
512 -56 347 0
512 56 -347 0
-513 -309 0
-513 -211 0
513 309 211 0
-514 325 -457 0
-514 -325 457 0
514 -325 -457 0
514 325 457 0
-515 -463 23 0
-515 463 -23 0
515 463 23 0
515 -463 -23 0
-516 -353 -41 0
-516 353 41 0
516 353 -41 0
516 -353 41 0
-517 109 -63 0
-517 -109 63 0
517 -109 -63 0
517 109 63 0
-518 -141 -493 0
-518 141 493 0
518 141 -493 0
518 -141 493 0
-519 260 487 0
-519 -260 -487 0
519 -260 487 0
519 260 -487 0
-520 -387 -103 0
-520 387 103 0
520 387 -103 0
520 -387 103 0
-521 62 0
-521 386 0
521 -62 -386 0
-522 -408 0
-522 -212 0
522 408 212 0
-523 -453 -142 0
-523 453 142 0
523 453 -142 0
523 -453 142 0
-524 373 -376 0
-524 -373 376 0
524 -373 -376 0
524 373 376 0
-525 -132 -364 0
-525 132 364 0
525 132 -364 0
525 -132 364 0
-526 -32 -31 0
-526 32 31 0
526 32 -31 0
526 -32 31 0
-527 -257 202 0
-527 257 -202 0
527 257 202 0
527 -257 -202 0
-528 -478 -461 0
-528 478 461 0
528 478 -461 0
528 -478 461 0
-529 488 207 0
-529 -488 -207 0
529 -488 207 0
529 488 -207 0
-530 -440 0
-530 484 0
530 440 -484 0
-531 21 0
-531 -503 0
531 -21 503 0
-532 413 -271 0
-532 -413 271 0
532 -413 -271 0
532 413 271 0
-533 -394 450 0
-533 394 -450 0
533 394 450 0
533 -394 -450 0
-534 -298 471 0
-534 298 -471 0
534 298 471 0
534 -298 -471 0
-535 74 -39 0
-535 -74 39 0
535 -74 -39 0
535 74 39 0
-536 -190 0
-536 -335 0
536 190 335 0
-537 -316 -260 0
-537 316 260 0
537 316 -260 0
537 -316 260 0
-538 -124 387 0
-538 124 -387 0
538 124 387 0
538 -124 -387 0
-539 -268 -255 0
-539 268 255 0
539 268 -255 0
539 -268 255 0
-540 481 -39 0
-540 -481 39 0
540 -481 -39 0
540 481 39 0
-541 -104 388 0
-541 104 -388 0
541 104 388 0
541 -104 -388 0
-542 361 -112 0
-542 -361 112 0
542 -361 -112 0
542 361 112 0
-543 385 -512 0
-543 -385 512 0
543 -385 -512 0
543 385 512 0
-544 147 0
-544 -378 0
544 -147 378 0
-545 -417 127 0
-545 417 -127 0
545 417 127 0
545 -417 -127 0
-546 -181 431 0
-546 181 -431 0
546 181 431 0
546 -181 -431 0
-547 -144 0
-547 -108 0
547 144 108 0
-548 -215 -188 0
-548 215 188 0
548 215 -188 0
548 -215 188 0
-549 487 286 0
-549 -487 -286 0
549 -487 286 0
549 487 -286 0
-550 353 0
-550 140 0
550 -353 -140 0
-551 -115 58 0
-551 115 -58 0
551 115 58 0
551 -115 -58 0
-552 -20 141 0
-552 20 -141 0
552 20 141 0
552 -20 -141 0
-553 -67 0
-553 -399 0
553 67 399 0
-554 -141 -254 0
-554 141 254 0
554 141 -254 0
554 -141 254 0
-555 -276 0
-555 148 0
555 276 -148 0
-556 263 0
-556 339 0
556 -263 -339 0
-557 42 -367 0
-557 -42 367 0
557 -42 -367 0
557 42 367 0
-558 -359 388 0
-558 359 -388 0
558 359 388 0
558 -359 -388 0
-559 -465 -387 0
-559 465 387 0
559 465 -387 0
559 -465 387 0
-560 136 -391 0
-560 -136 391 0
560 -136 -391 0
560 136 391 0
-561 286 534 0
-561 -286 -534 0
561 -286 534 0
561 286 -534 0
-562 547 475 0
-562 -547 -475 0
562 -547 475 0
562 547 -475 0
-563 -27 204 0
-563 27 -204 0
563 27 204 0
563 -27 -204 0
-564 459 -370 0
-564 -459 370 0
564 -459 -370 0
564 459 370 0
-565 298 0
-565 -179 0
565 -298 179 0
-566 456 0
-566 -557 0
566 -456 557 0
-567 -367 -327 0
-567 367 327 0
567 367 -327 0
567 -367 327 0
-568 193 0
-568 -278 0
568 -193 278 0
-569 -250 -455 0
-569 250 455 0
569 250 -455 0
569 -250 455 0
-570 121 1 0
-570 -121 -1 0
570 -121 1 0
570 121 -1 0
-571 -284 452 0
-571 284 -452 0
571 284 452 0
571 -284 -452 0
-572 453 -252 0
-572 -453 252 0
572 -453 -252 0
572 453 252 0
-573 -229 -188 0
-573 229 188 0
573 229 -188 0
573 -229 188 0
-574 248 176 0
-574 -248 -176 0
574 -248 176 0
574 248 -176 0
-575 -123 -222 0
-575 123 222 0
575 123 -222 0
575 -123 222 0
-576 254 328 0
-576 -254 -328 0
576 -254 328 0
576 254 -328 0
-577 462 0
-577 -303 0
577 -462 303 0
-578 260 25 0
-578 -260 -25 0
578 -260 25 0
578 260 -25 0
-579 420 0
-579 324 0
579 -420 -324 0
-580 -522 235 0
-580 522 -235 0
580 522 235 0
580 -522 -235 0
-581 -195 0
-581 164 0
581 195 -164 0
-582 182 -383 0
-582 -182 383 0
582 -182 -383 0
582 182 383 0
-583 85 0
-583 145 0
583 -85 -145 0
-584 472 0
-584 574 0
584 -472 -574 0
-585 -454 -169 0
-585 454 169 0
585 454 -169 0
585 -454 169 0
-586 372 -403 0
-586 -372 403 0
586 -372 -403 0
586 372 403 0
-587 264 180 0
-587 -264 -180 0
587 -264 180 0
587 264 -180 0
-588 210 -273 0
-588 -210 273 0
588 -210 -273 0
588 210 273 0
-589 334 -536 0
-589 -334 536 0
589 -334 -536 0
589 334 536 0
-590 -81 0
-590 -407 0
590 81 407 0
-591 -441 -293 0
-591 441 293 0
591 441 -293 0
591 -441 293 0
-592 115 -556 0
-592 -115 556 0
592 -115 -556 0
592 115 556 0
-593 436 184 0
-593 -436 -184 0
593 -436 184 0
593 436 -184 0
-594 -235 512 0
-594 235 -512 0
594 235 512 0
594 -235 -512 0
-595 -247 -367 0
-595 247 367 0
595 247 -367 0
595 -247 367 0
-596 -9 -251 0
-596 9 251 0
596 9 -251 0
596 -9 251 0
-597 189 0
-597 122 0
597 -189 -122 0
-598 558 0
-598 151 0
598 -558 -151 0
-599 164 0
-599 -516 0
599 -164 516 0
-600 295 0
-600 -410 0
600 -295 410 0
-601 178 593 0
-601 -178 -593 0
601 -178 593 0
601 178 -593 0
-602 74 385 0
-602 -74 -385 0
602 -74 385 0
602 74 -385 0
-603 534 0
-603 357 0
603 -534 -357 0
-604 136 0
-604 513 0
604 -136 -513 0
-605 40 0
-605 210 0
605 -40 -210 0
-606 -205 -340 0
-606 205 340 0
606 205 -340 0
606 -205 340 0
-607 -450 527 0
-607 450 -527 0
607 450 527 0
607 -450 -527 0
-608 276 0
-608 537 0
608 -276 -537 0
-609 -475 -311 0
-609 475 311 0
609 475 -311 0
609 -475 311 0
-610 -430 0
-610 464 0
610 430 -464 0
-611 21 -181 0
-611 -21 181 0
611 -21 -181 0
611 21 181 0
-612 178 140 0
-612 -178 -140 0
612 -178 140 0
612 178 -140 0
-613 166 0
-613 8 0
613 -166 -8 0
-614 -38 0
-614 -456 0
614 38 456 0
-615 -7 567 0
-615 7 -567 0
615 7 567 0
615 -7 -567 0
-616 18 -507 0
-616 -18 507 0
616 -18 -507 0
616 18 507 0
-617 40 465 0
-617 -40 -465 0
617 -40 465 0
617 40 -465 0
-618 261 -434 0
-618 -261 434 0
618 -261 -434 0
618 261 434 0
-619 370 212 0
-619 -370 -212 0
619 -370 212 0
619 370 -212 0
-620 194 274 0
-620 -194 -274 0
620 -194 274 0
620 194 -274 0
-621 -510 -294 0
-621 510 294 0
621 510 -294 0
621 -510 294 0
-622 298 306 0
-622 -298 -306 0
622 -298 306 0
622 298 -306 0
-623 15 -376 0
-623 -15 376 0
623 -15 -376 0
623 15 376 0
-624 -416 0
-624 -503 0
624 416 503 0
-625 -416 20 0
-625 416 -20 0
625 416 20 0
625 -416 -20 0
-626 74 -307 0
-626 -74 307 0
626 -74 -307 0
626 74 307 0
-627 -90 -236 0
-627 90 236 0
627 90 -236 0
627 -90 236 0
-628 336 314 0
-628 -336 -314 0
628 -336 314 0
628 336 -314 0
-629 338 442 0
-629 -338 -442 0
629 -338 442 0
629 338 -442 0
-630 560 330 0
-630 -560 -330 0
630 -560 330 0
630 560 -330 0
-631 239 0
-631 -596 0
631 -239 596 0
-632 -294 0
-632 -167 0
632 294 167 0
-633 -37 -474 0
-633 37 474 0
633 37 -474 0
633 -37 474 0
-634 -487 0
-634 -81 0
634 487 81 0
-635 311 236 0
-635 -311 -236 0
635 -311 236 0
635 311 -236 0
-636 -551 0
-636 -78 0
636 551 78 0
-637 -338 -107 0
-637 338 107 0
637 338 -107 0
637 -338 107 0
-638 -158 0
-638 -370 0
638 158 370 0
-639 392 -249 0
-639 -392 249 0
639 -392 -249 0
639 392 249 0
-640 268 0
-640 -248 0
640 -268 248 0
-641 433 566 0
-641 -433 -566 0
641 -433 566 0
641 433 -566 0
-642 126 -51 0
-642 -126 51 0
642 -126 -51 0
642 126 51 0
-643 57 0
-643 331 0
643 -57 -331 0
-644 -119 -77 0
-644 119 77 0
644 119 -77 0
644 -119 77 0
-645 362 -343 0
-645 -362 343 0
645 -362 -343 0
645 362 343 0
-646 34 562 0
-646 -34 -562 0
646 -34 562 0
646 34 -562 0
-647 150 478 0
-647 -150 -478 0
647 -150 478 0
647 150 -478 0
-648 468 -216 0
-648 -468 216 0
648 -468 -216 0
648 468 216 0
-649 -240 0
-649 -327 0
649 240 327 0
-650 444 524 0
-650 -444 -524 0
650 -444 524 0
650 444 -524 0
-651 47 0
-651 74 0
651 -47 -74 0
-652 292 332 0
-652 -292 -332 0
652 -292 332 0
652 292 -332 0
-653 -69 -328 0
-653 69 328 0
653 69 -328 0
653 -69 328 0
-654 -84 -575 0
-654 84 575 0
654 84 -575 0
654 -84 575 0
-655 -66 0
-655 -281 0
655 66 281 0
-656 -412 91 0
-656 412 -91 0
656 412 91 0
656 -412 -91 0
-657 -218 342 0
-657 218 -342 0
657 218 342 0
657 -218 -342 0
-658 -600 0
-658 -569 0
658 600 569 0
-659 -609 -447 0
-659 609 447 0
659 609 -447 0
659 -609 447 0
-660 -172 0
-660 483 0
660 172 -483 0
-661 -283 0
-661 -240 0
661 283 240 0
-662 420 0
-662 77 0
662 -420 -77 0
-663 397 0
-663 -273 0
663 -397 273 0
-664 414 0
-664 -73 0
664 -414 73 0
-665 646 620 0
-665 -646 -620 0
665 -646 620 0
665 646 -620 0
-666 55 291 0
-666 -55 -291 0
666 -55 291 0
666 55 -291 0
-667 -178 -462 0
-667 178 462 0
667 178 -462 0
667 -178 462 0
-668 548 -393 0
-668 -548 393 0
668 -548 -393 0
668 548 393 0
-669 585 401 0
-669 -585 -401 0
669 -585 401 0
669 585 -401 0
-670 83 -339 0
-670 -83 339 0
670 -83 -339 0
670 83 339 0
-671 -373 -343 0
-671 373 343 0
671 373 -343 0
671 -373 343 0
-672 -446 0
-672 -37 0
672 446 37 0
-673 -375 103 0
-673 375 -103 0
673 375 103 0
673 -375 -103 0
-674 29 338 0
-674 -29 -338 0
674 -29 338 0
674 29 -338 0
-675 -185 0
-675 633 0
675 185 -633 0
-676 -635 0
-676 572 0
676 635 -572 0
-677 568 347 0
-677 -568 -347 0
677 -568 347 0
677 568 -347 0
-678 -199 -533 0
-678 199 533 0
678 199 -533 0
678 -199 533 0
-679 218 -350 0
-679 -218 350 0
679 -218 -350 0
679 218 350 0
-680 649 302 0
-680 -649 -302 0
680 -649 302 0
680 649 -302 0
-681 162 -575 0
-681 -162 575 0
681 -162 -575 0
681 162 575 0
-682 543 278 0
-682 -543 -278 0
682 -543 278 0
682 543 -278 0
-683 335 0
-683 -339 0
683 -335 339 0
-684 -606 0
-684 -536 0
684 606 536 0
-685 -402 -229 0
-685 402 229 0
685 402 -229 0
685 -402 229 0
-686 302 0
-686 529 0
686 -302 -529 0
-687 36 120 0
-687 -36 -120 0
687 -36 120 0
687 36 -120 0
-688 177 -283 0
-688 -177 283 0
688 -177 -283 0
688 177 283 0
-689 491 0
-689 -545 0
689 -491 545 0
-690 257 -199 0
-690 -257 199 0
690 -257 -199 0
690 257 199 0
-691 -25 -22 0
-691 25 22 0
691 25 -22 0
691 -25 22 0
-692 -508 400 0
-692 508 -400 0
692 508 400 0
692 -508 -400 0
-693 65 164 0
-693 -65 -164 0
693 -65 164 0
693 65 -164 0
-694 652 -475 0
-694 -652 475 0
694 -652 -475 0
694 652 475 0
-695 -153 -483 0
-695 153 483 0
695 153 -483 0
695 -153 483 0
-696 651 0
-696 332 0
696 -651 -332 0
-697 -329 -523 0
-697 329 523 0
697 329 -523 0
697 -329 523 0
-698 635 0
-698 372 0
698 -635 -372 0
-699 -192 14 0
-699 192 -14 0
699 192 14 0
699 -192 -14 0
-700 -219 -231 0
-700 219 231 0
700 219 -231 0
700 -219 231 0
-701 -488 0
-701 -78 0
701 488 78 0
-702 349 615 0
-702 -349 -615 0
702 -349 615 0
702 349 -615 0
-703 -472 66 0
-703 472 -66 0
703 472 66 0
703 -472 -66 0
-704 -91 -273 0
-704 91 273 0
704 91 -273 0
704 -91 273 0
-705 13 -101 0
-705 -13 101 0
705 -13 -101 0
705 13 101 0
-706 165 -554 0
-706 -165 554 0
706 -165 -554 0
706 165 554 0
-707 -691 673 0
-707 691 -673 0
707 691 673 0
707 -691 -673 0
-708 -411 -311 0
-708 411 311 0
708 411 -311 0
708 -411 311 0
-709 595 23 0
-709 -595 -23 0
709 -595 23 0
709 595 -23 0
-710 205 -317 0
-710 -205 317 0
710 -205 -317 0
710 205 317 0
-711 -476 0
-711 704 0
711 476 -704 0
-712 303 130 0
-712 -303 -130 0
712 -303 130 0
712 303 -130 0
-713 417 0
-713 -469 0
713 -417 469 0
-714 -520 0
-714 289 0
714 520 -289 0
-715 358 616 0
-715 -358 -616 0
715 -358 616 0
715 358 -616 0
-716 10 -311 0
-716 -10 311 0
716 -10 -311 0
716 10 311 0
-717 -425 0
-717 -117 0
717 425 117 0
-718 11 -615 0
-718 -11 615 0
718 -11 -615 0
718 11 615 0
-719 -101 -284 0
-719 101 284 0
719 101 -284 0
719 -101 284 0
-720 472 -511 0
-720 -472 511 0
720 -472 -511 0
720 472 511 0
-721 277 600 0
-721 -277 -600 0
721 -277 600 0
721 277 -600 0
-722 625 0
-722 518 0
722 -625 -518 0
-723 347 -32 0
-723 -347 32 0
723 -347 -32 0
723 347 32 0
-724 -126 712 0
-724 126 -712 0
724 126 712 0
724 -126 -712 0
-725 639 -229 0
-725 -639 229 0
725 -639 -229 0
725 639 229 0
-726 -268 426 0
-726 268 -426 0
726 268 426 0
726 -268 -426 0
-727 135 -455 0
-727 -135 455 0
727 -135 -455 0
727 135 455 0
-728 -365 0
-728 246 0
728 365 -246 0
-729 481 433 0
-729 -481 -433 0
729 -481 433 0
729 481 -433 0
-730 436 0
-730 62 0
730 -436 -62 0
-731 337 315 0
-731 -337 -315 0
731 -337 315 0
731 337 -315 0
-732 -674 102 0
-732 674 -102 0
732 674 102 0
732 -674 -102 0
-733 -45 -568 0
-733 45 568 0
733 45 -568 0
733 -45 568 0
-734 -457 -93 0
-734 457 93 0
734 457 -93 0
734 -457 93 0
-735 443 93 0
-735 -443 -93 0
735 -443 93 0
735 443 -93 0
-736 727 -680 0
-736 -727 680 0
736 -727 -680 0
736 727 680 0
-737 -668 -363 0
-737 668 363 0
737 668 -363 0
737 -668 363 0
-738 -38 -614 0
-738 38 614 0
738 38 -614 0
738 -38 614 0
-739 -642 0
-739 -305 0
739 642 305 0
-740 -400 481 0
-740 400 -481 0
740 400 481 0
740 -400 -481 0
-741 -405 -697 0
-741 405 697 0
741 405 -697 0
741 -405 697 0
-742 -637 -207 0
-742 637 207 0
742 637 -207 0
742 -637 207 0
-743 494 691 0
-743 -494 -691 0
743 -494 691 0
743 494 -691 0
-744 56 -199 0
-744 -56 199 0
744 -56 -199 0
744 56 199 0
-745 -89 0
-745 -435 0
745 89 435 0
-746 -133 -145 0
-746 133 145 0
746 133 -145 0
746 -133 145 0
-747 493 483 0
-747 -493 -483 0
747 -493 483 0
747 493 -483 0
-748 -677 0
-748 382 0
748 677 -382 0
-749 185 0
-749 590 0
749 -185 -590 0
-750 6 202 0
-750 -6 -202 0
750 -6 202 0
750 6 -202 0
-751 565 -314 0
-751 -565 314 0
751 -565 -314 0
751 565 314 0
-752 -616 0
-752 -197 0
752 616 197 0
-753 692 -467 0
-753 -692 467 0
753 -692 -467 0
753 692 467 0
-754 -532 193 0
-754 532 -193 0
754 532 193 0
754 -532 -193 0
-755 -347 -666 0
-755 347 666 0
755 347 -666 0
755 -347 666 0
-756 -474 651 0
-756 474 -651 0
756 474 651 0
756 -474 -651 0
-757 323 -415 0
-757 -323 415 0
757 -323 -415 0
757 323 415 0
-758 -627 -430 0
-758 627 430 0
758 627 -430 0
758 -627 430 0
-759 703 -549 0
-759 -703 549 0
759 -703 -549 0
759 703 549 0
-760 239 0
-760 -323 0
760 -239 323 0
-761 -343 263 0
-761 343 -263 0
761 343 263 0
761 -343 -263 0
-762 -370 -630 0
-762 370 630 0
762 370 -630 0
762 -370 630 0
-763 -633 -429 0
-763 633 429 0
763 633 -429 0
763 -633 429 0
-764 -47 -190 0
-764 47 190 0
764 47 -190 0
764 -47 190 0
-765 -451 -390 0
-765 451 390 0
765 451 -390 0
765 -451 390 0
-766 651 -379 0
-766 -651 379 0
766 -651 -379 0
766 651 379 0
-767 -681 -671 0
-767 681 671 0
767 681 -671 0
767 -681 671 0
-768 302 755 0
-768 -302 -755 0
768 -302 755 0
768 302 -755 0
-769 355 210 0
-769 -355 -210 0
769 -355 210 0
769 355 -210 0
-770 286 0
-770 429 0
770 -286 -429 0
-771 -329 -470 0
-771 329 470 0
771 329 -470 0
771 -329 470 0
-772 -156 739 0
-772 156 -739 0
772 156 739 0
772 -156 -739 0
-773 129 592 0
-773 -129 -592 0
773 -129 592 0
773 129 -592 0
-774 626 -611 0
-774 -626 611 0
774 -626 -611 0
774 626 611 0
-775 5 -758 0
-775 -5 758 0
775 -5 -758 0
775 5 758 0
-776 -634 0
-776 -759 0
776 634 759 0
-777 -641 -495 0
-777 641 495 0
777 641 -495 0
777 -641 495 0
-778 -729 -510 0
-778 729 510 0
778 729 -510 0
778 -729 510 0
-779 732 0
-779 -775 0
779 -732 775 0
-780 167 -209 0
-780 -167 209 0
780 -167 -209 0
780 167 209 0
-781 -177 -66 0
-781 177 66 0
781 177 -66 0
781 -177 66 0
-782 66 198 0
-782 -66 -198 0
782 -66 198 0
782 66 -198 0
-783 60 290 0
-783 -60 -290 0
783 -60 290 0
783 60 -290 0
-784 -71 193 0
-784 71 -193 0
784 71 193 0
784 -71 -193 0
-785 43 0
-785 -553 0
785 -43 553 0
-786 180 0
-786 -538 0
786 -180 538 0
-787 -372 0
-787 44 0
787 372 -44 0
-788 -692 -558 0
-788 692 558 0
788 692 -558 0
788 -692 558 0
-789 242 563 0
-789 -242 -563 0
789 -242 563 0
789 242 -563 0
-790 388 360 0
-790 -388 -360 0
790 -388 360 0
790 388 -360 0
-791 -111 -285 0
-791 111 285 0
791 111 -285 0
791 -111 285 0
-792 -160 298 0
-792 160 -298 0
792 160 298 0
792 -160 -298 0
-793 484 -315 0
-793 -484 315 0
793 -484 -315 0
793 484 315 0
-794 -414 276 0
-794 414 -276 0
794 414 276 0
794 -414 -276 0
-795 656 207 0
-795 -656 -207 0
795 -656 207 0
795 656 -207 0
-796 546 713 0
-796 -546 -713 0
796 -546 713 0
796 546 -713 0
-797 691 36 0
-797 -691 -36 0
797 -691 36 0
797 691 -36 0
-798 194 -757 0
-798 -194 757 0
798 -194 -757 0
798 194 757 0
-799 122 -53 0
-799 -122 53 0
799 -122 -53 0
799 122 53 0
-800 9 -619 0
-800 -9 619 0
800 -9 -619 0
800 9 619 0
-801 220 -800 0
-801 -220 800 0
801 -220 -800 0
801 220 800 0
-802 -639 0
-802 -21 0
802 639 21 0
-803 505 396 0
-803 -505 -396 0
803 -505 396 0
803 505 -396 0
-804 -733 683 0
-804 733 -683 0
804 733 683 0
804 -733 -683 0
-805 -89 -6 0
-805 89 6 0
805 89 -6 0
805 -89 6 0
-806 670 315 0
-806 -670 -315 0
806 -670 315 0
806 670 -315 0
-807 260 -128 0
-807 -260 128 0
807 -260 -128 0
807 260 128 0
-808 603 -13 0
-808 -603 13 0
808 -603 -13 0
808 603 13 0
-809 648 222 0
-809 -648 -222 0
809 -648 222 0
809 648 -222 0
-810 -298 -61 0
-810 298 61 0
810 298 -61 0
810 -298 61 0
-811 607 -53 0
-811 -607 53 0
811 -607 -53 0
811 607 53 0
-812 797 0
-812 595 0
812 -797 -595 0
-813 -63 -538 0
-813 63 538 0
813 63 -538 0
813 -63 538 0
-814 -80 792 0
-814 80 -792 0
814 80 792 0
814 -80 -792 0
-815 -687 388 0
-815 687 -388 0
815 687 388 0
815 -687 -388 0
-816 -243 0
-816 -148 0
816 243 148 0
-817 29 -550 0
-817 -29 550 0
817 -29 -550 0
817 29 550 0
-818 -287 -637 0
-818 287 637 0
818 287 -637 0
818 -287 637 0
-819 -708 -118 0
-819 708 118 0
819 708 -118 0
819 -708 118 0
-820 -678 -641 0
-820 678 641 0
820 678 -641 0
820 -678 641 0
-821 -289 -534 0
-821 289 534 0
821 289 -534 0
821 -289 534 0
-822 -73 575 0
-822 73 -575 0
822 73 575 0
822 -73 -575 0
-823 -187 -139 0
-823 187 139 0
823 187 -139 0
823 -187 139 0
-824 -281 749 0
-824 281 -749 0
824 281 749 0
824 -281 -749 0
-825 364 -273 0
-825 -364 273 0
825 -364 -273 0
825 364 273 0
-826 623 -729 0
-826 -623 729 0
826 -623 -729 0
826 623 729 0
-827 -397 0
-827 -500 0
827 397 500 0
-828 -81 0
-828 572 0
828 81 -572 0
-829 -255 -233 0
-829 255 233 0
829 255 -233 0
829 -255 233 0
-830 145 -436 0
-830 -145 436 0
830 -145 -436 0
830 145 436 0
-831 814 0
-831 -325 0
831 -814 325 0
-832 -768 0
-832 -353 0
832 768 353 0
-833 -360 84 0
-833 360 -84 0
833 360 84 0
833 -360 -84 0
-834 -164 -720 0
-834 164 720 0
834 164 -720 0
834 -164 720 0
-835 42 0
-835 792 0
835 -42 -792 0
-836 67 739 0
-836 -67 -739 0
836 -67 739 0
836 67 -739 0
-837 632 0
-837 -428 0
837 -632 428 0
-838 -123 170 0
-838 123 -170 0
838 123 170 0
838 -123 -170 0
-839 255 -83 0
-839 -255 83 0
839 -255 -83 0
839 255 83 0
-840 -770 607 0
-840 770 -607 0
840 770 607 0
840 -770 -607 0
-841 -699 651 0
-841 699 -651 0
841 699 651 0
841 -699 -651 0
-842 -688 0
-842 215 0
842 688 -215 0
-843 409 -504 0
-843 -409 504 0
843 -409 -504 0
843 409 504 0
-844 298 156 0
-844 -298 -156 0
844 -298 156 0
844 298 -156 0
-845 378 0
-845 -541 0
845 -378 541 0
-846 -299 141 0
-846 299 -141 0
846 299 141 0
846 -299 -141 0
-847 -547 322 0
-847 547 -322 0
847 547 322 0
847 -547 -322 0
-848 -133 -462 0
-848 133 462 0
848 133 -462 0
848 -133 462 0
-849 712 67 0
-849 -712 -67 0
849 -712 67 0
849 712 -67 0
-850 -430 33 0
-850 430 -33 0
850 430 33 0
850 -430 -33 0
-851 449 -497 0
-851 -449 497 0
851 -449 -497 0
851 449 497 0
-852 -9 -216 0
-852 9 216 0
852 9 -216 0
852 -9 216 0
-853 -362 -807 0
-853 362 807 0
853 362 -807 0
853 -362 807 0
-854 -50 -302 0
-854 50 302 0
854 50 -302 0
854 -50 302 0
-855 -500 251 0
-855 500 -251 0
855 500 251 0
855 -500 -251 0
-856 -621 -327 0
-856 621 327 0
856 621 -327 0
856 -621 327 0
-857 600 -159 0
-857 -600 159 0
857 -600 -159 0
857 600 159 0
-858 -754 -587 0
-858 754 587 0
858 754 -587 0
858 -754 587 0
-859 569 43 0
-859 -569 -43 0
859 -569 43 0
859 569 -43 0
-860 41 0
-860 400 0
860 -41 -400 0
-861 -290 665 0
-861 290 -665 0
861 290 665 0
861 -290 -665 0
-862 -821 568 0
-862 821 -568 0
862 821 568 0
862 -821 -568 0
-863 682 -249 0
-863 -682 249 0
863 -682 -249 0
863 682 249 0
-864 -305 0
-864 814 0
864 305 -814 0
-865 311 264 0
-865 -311 -264 0
865 -311 264 0
865 311 -264 0
-866 500 -260 0
-866 -500 260 0
866 -500 -260 0
866 500 260 0
-867 -524 -419 0
-867 524 419 0
867 524 -419 0
867 -524 419 0
-868 -382 -663 0
-868 382 663 0
868 382 -663 0
868 -382 663 0
-869 86 285 0
-869 -86 -285 0
869 -86 285 0
869 86 -285 0
-870 769 -385 0
-870 -769 385 0
870 -769 -385 0
870 769 385 0
-871 134 0
-871 464 0
871 -134 -464 0
-872 459 141 0
-872 -459 -141 0
872 -459 141 0
872 459 -141 0
-873 -834 0
-873 486 0
873 834 -486 0
-874 310 -759 0
-874 -310 759 0
874 -310 -759 0
874 310 759 0
-875 -561 35 0
-875 561 -35 0
875 561 35 0
875 -561 -35 0
-876 -187 0
-876 -36 0
876 187 36 0
-877 -590 0
-877 -636 0
877 590 636 0
-878 392 0
-878 733 0
878 -392 -733 0
-879 -600 70 0
-879 600 -70 0
879 600 70 0
879 -600 -70 0
-880 537 0
-880 97 0
880 -537 -97 0
-881 799 477 0
-881 -799 -477 0
881 -799 477 0
881 799 -477 0
-882 376 -536 0
-882 -376 536 0
882 -376 -536 0
882 376 536 0
-883 -458 -184 0
-883 458 184 0
883 458 -184 0
883 -458 184 0
-884 -440 727 0
-884 440 -727 0
884 440 727 0
884 -440 -727 0
-885 -417 486 0
-885 417 -486 0
885 417 486 0
885 -417 -486 0
-886 -781 450 0
-886 781 -450 0
886 781 450 0
886 -781 -450 0
-887 -716 -43 0
-887 716 43 0
887 716 -43 0
887 -716 43 0
-888 -62 -807 0
-888 62 807 0
888 62 -807 0
888 -62 807 0
-889 -791 -861 0
-889 791 861 0
889 791 -861 0
889 -791 861 0
-890 -161 -321 0
-890 161 321 0
890 161 -321 0
890 -161 321 0
-891 -269 -661 0
-891 269 661 0
891 269 -661 0
891 -269 661 0
-892 858 656 0
-892 -858 -656 0
892 -858 656 0
892 858 -656 0
-893 373 -13 0
-893 -373 13 0
893 -373 -13 0
893 373 13 0
-894 -30 0
-894 -546 0
894 30 546 0
-895 47 496 0
-895 -47 -496 0
895 -47 496 0
895 47 -496 0
-896 538 561 0
-896 -538 -561 0
896 -538 561 0
896 538 -561 0
-897 586 -241 0
-897 -586 241 0
897 -586 -241 0
897 586 241 0
-898 46 -452 0
-898 -46 452 0
898 -46 -452 0
898 46 452 0
-899 -570 0
-899 -83 0
899 570 83 0
-900 -835 -244 0
-900 835 244 0
900 835 -244 0
900 -835 244 0
-901 -123 -789 0
-901 123 789 0
901 123 -789 0
901 -123 789 0
-902 -479 -104 0
-902 479 104 0
902 479 -104 0
902 -479 104 0
-903 170 0
-903 627 0
903 -170 -627 0
-904 796 -869 0
-904 -796 869 0
904 -796 -869 0
904 796 869 0
-905 583 -486 0
-905 -583 486 0
905 -583 -486 0
905 583 486 0
-906 -231 0
-906 113 0
906 231 -113 0
-907 36 -55 0
-907 -36 55 0
907 -36 -55 0
907 36 55 0
-908 234 0
-908 865 0
908 -234 -865 0
-909 -902 -420 0
-909 902 420 0
909 902 -420 0
909 -902 420 0
-910 -274 5 0
-910 274 -5 0
910 274 5 0
910 -274 -5 0
-911 401 366 0
-911 -401 -366 0
911 -401 366 0
911 401 -366 0
-912 -340 98 0
-912 340 -98 0
912 340 98 0
912 -340 -98 0
-913 423 0
-913 -628 0
913 -423 628 0
-914 -801 0
-914 -245 0
914 801 245 0
-915 891 -57 0
-915 -891 57 0
915 -891 -57 0
915 891 57 0
-916 257 850 0
-916 -257 -850 0
916 -257 850 0
916 257 -850 0
-917 -290 443 0
-917 290 -443 0
917 290 443 0
917 -290 -443 0
-918 203 0
-918 -626 0
918 -203 626 0
-919 71 -750 0
-919 -71 750 0
919 -71 -750 0
919 71 750 0
-920 255 0
-920 -524 0
920 -255 524 0
-921 -799 -855 0
-921 799 855 0
921 799 -855 0
921 -799 855 0
-922 417 -725 0
-922 -417 725 0
922 -417 -725 0
922 417 725 0
-923 136 36 0
-923 -136 -36 0
923 -136 36 0
923 136 -36 0
-924 -920 -707 0
-924 920 707 0
924 920 -707 0
924 -920 707 0
-925 -708 0
-925 -397 0
925 708 397 0
-926 79 423 0
-926 -79 -423 0
926 -79 423 0
926 79 -423 0
-927 458 0
-927 -723 0
927 -458 723 0
-928 -766 361 0
-928 766 -361 0
928 766 361 0
928 -766 -361 0
-929 -647 0
-929 -529 0
929 647 529 0
-930 -95 -592 0
-930 95 592 0
930 95 -592 0
930 -95 592 0
-931 595 0
-931 360 0
931 -595 -360 0
-932 583 0
-932 748 0
932 -583 -748 0
-933 -699 467 0
-933 699 -467 0
933 699 467 0
933 -699 -467 0
-934 176 -334 0
-934 -176 334 0
934 -176 -334 0
934 176 334 0
-935 908 -324 0
-935 -908 324 0
935 -908 -324 0
935 908 324 0
-936 692 -445 0
-936 -692 445 0
936 -692 -445 0
936 692 445 0
-937 920 103 0
-937 -920 -103 0
937 -920 103 0
937 920 -103 0
-938 -322 0
-938 420 0
938 322 -420 0
-939 736 -374 0
-939 -736 374 0
939 -736 -374 0
939 736 374 0
-940 397 410 0
-940 -397 -410 0
940 -397 410 0
940 397 -410 0
-941 907 -85 0
-941 -907 85 0
941 -907 -85 0
941 907 85 0
-942 -864 746 0
-942 864 -746 0
942 864 746 0
942 -864 -746 0
-943 928 -409 0
-943 -928 409 0
943 -928 -409 0
943 928 409 0
-944 37 0
-944 596 0
944 -37 -596 0
-945 372 134 0
-945 -372 -134 0
945 -372 134 0
945 372 -134 0
-946 -288 546 0
-946 288 -546 0
946 288 546 0
946 -288 -546 0
-947 -796 -53 0
-947 796 53 0
947 796 -53 0
947 -796 53 0
-948 315 -88 0
-948 -315 88 0
948 -315 -88 0
948 315 88 0
-949 155 0
-949 -582 0
949 -155 582 0
-950 407 327 0
-950 -407 -327 0
950 -407 327 0
950 407 -327 0
-951 -161 554 0
-951 161 -554 0
951 161 554 0
951 -161 -554 0
-952 693 0
-952 863 0
952 -693 -863 0
-953 211 -439 0
-953 -211 439 0
953 -211 -439 0
953 211 439 0
-954 466 132 0
-954 -466 -132 0
954 -466 132 0
954 466 -132 0
-955 -108 -809 0
-955 108 809 0
955 108 -809 0
955 -108 809 0
-956 -795 0
-956 935 0
956 795 -935 0
-957 169 -59 0
-957 -169 59 0
957 -169 -59 0
957 169 59 0
-958 166 -589 0
-958 -166 589 0
958 -166 -589 0
958 166 589 0
-959 569 -236 0
-959 -569 236 0
959 -569 -236 0
959 569 236 0
-960 -683 -16 0
-960 683 16 0
960 683 -16 0
960 -683 16 0
-961 -791 376 0
-961 791 -376 0
961 791 376 0
961 -791 -376 0
-962 -261 182 0
-962 261 -182 0
962 261 182 0
962 -261 -182 0
-963 -782 677 0
-963 782 -677 0
963 782 677 0
963 -782 -677 0
-964 540 -327 0
-964 -540 327 0
964 -540 -327 0
964 540 327 0
-965 812 483 0
-965 -812 -483 0
965 -812 483 0
965 812 -483 0
-966 -218 825 0
-966 218 -825 0
966 218 825 0
966 -218 -825 0
-967 517 345 0
-967 -517 -345 0
967 -517 345 0
967 517 -345 0
-968 -426 -428 0
-968 426 428 0
968 426 -428 0
968 -426 428 0
-969 266 0
-969 -475 0
969 -266 475 0
-970 -161 555 0
-970 161 -555 0
970 161 555 0
970 -161 -555 0
-971 274 0
-971 -548 0
971 -274 548 0
-972 700 598 0
-972 -700 -598 0
972 -700 598 0
972 700 -598 0
-973 840 606 0
-973 -840 -606 0
973 -840 606 0
973 840 -606 0
-974 154 0
-974 558 0
974 -154 -558 0
-975 -492 0
-975 -708 0
975 492 708 0
-976 -597 -725 0
-976 597 725 0
976 597 -725 0
976 -597 725 0
-977 345 0
-977 -448 0
977 -345 448 0
-978 -203 0
-978 20 0
978 203 -20 0
-979 -726 0
-979 315 0
979 726 -315 0
-980 -1 7 0
-980 1 -7 0
980 1 7 0
980 -1 -7 0
-981 -136 -670 0
-981 136 670 0
981 136 -670 0
981 -136 670 0
-982 287 0
-982 35 0
982 -287 -35 0
-983 286 138 0
-983 -286 -138 0
983 -286 138 0
983 286 -138 0
-984 119 -658 0
-984 -119 658 0
984 -119 -658 0
984 119 658 0
-985 -116 875 0
-985 116 -875 0
985 116 875 0
985 -116 -875 0
-986 894 -332 0
-986 -894 332 0
986 -894 -332 0
986 894 332 0
-987 -716 0
-987 658 0
987 716 -658 0
-988 740 60 0
-988 -740 -60 0
988 -740 60 0
988 740 -60 0
-989 -572 789 0
-989 572 -789 0
989 572 789 0
989 -572 -789 0
-990 492 -332 0
-990 -492 332 0
990 -492 -332 0
990 492 332 0
-991 189 0
-991 790 0
991 -189 -790 0
-992 855 804 0
-992 -855 -804 0
992 -855 804 0
992 855 -804 0
-993 -77 -658 0
-993 77 658 0
993 77 -658 0
993 -77 658 0
-994 -352 -863 0
-994 352 863 0
994 352 -863 0
994 -352 863 0
-995 -83 0
-995 -671 0
995 83 671 0
-996 418 -338 0
-996 -418 338 0
996 -418 -338 0
996 418 338 0
-997 402 814 0
-997 -402 -814 0
997 -402 814 0
997 402 -814 0
-998 -917 661 0
-998 917 -661 0
998 917 661 0
998 -917 -661 0
-999 -906 0
-999 -944 0
999 906 944 0
-1000 -917 730 0
-1000 917 -730 0
1000 917 730 0
1000 -917 -730 0
-1001 -235 85 0
-1001 235 -85 0
1001 235 85 0
1001 -235 -85 0
-1002 784 167 0
-1002 -784 -167 0
1002 -784 167 0
1002 784 -167 0
-1003 -697 905 0
-1003 697 -905 0
1003 697 905 0
1003 -697 -905 0
-1004 25 0
-1004 487 0
1004 -25 -487 0
-1005 806 0
-1005 840 0
1005 -806 -840 0
-1006 720 0
-1006 -557 0
1006 -720 557 0
-1007 -977 117 0
-1007 977 -117 0
1007 977 117 0
1007 -977 -117 0
-1008 583 419 0
-1008 -583 -419 0
1008 -583 419 0
1008 583 -419 0
-1009 851 497 0
-1009 -851 -497 0
1009 -851 497 0
1009 851 -497 0
-1010 -943 0
-1010 -818 0
1010 943 818 0
-1011 -472 -65 0
-1011 472 65 0
1011 472 -65 0
1011 -472 65 0
-1012 -207 0
-1012 -1011 0
1012 207 1011 0
-1013 644 273 0
-1013 -644 -273 0
1013 -644 273 0
1013 644 -273 0
-1014 -259 -636 0
-1014 259 636 0
1014 259 -636 0
1014 -259 636 0
-1015 149 0
-1015 584 0
1015 -149 -584 0
-1016 -565 -618 0
-1016 565 618 0
1016 565 -618 0
1016 -565 618 0
-1017 983 0
-1017 -71 0
1017 -983 71 0
-1018 -734 0
-1018 -251 0
1018 734 251 0
-1019 -752 0
-1019 -519 0
1019 752 519 0
-1020 -743 0
-1020 -926 0
1020 743 926 0
-1021 -489 -974 0
-1021 489 974 0
1021 489 -974 0
1021 -489 974 0
-1022 -915 205 0
-1022 915 -205 0
1022 915 205 0
1022 -915 -205 0
-1023 -407 -853 0
-1023 407 853 0
1023 407 -853 0
1023 -407 853 0
-1024 998 0
-1024 91 0
1024 -998 -91 0
-1025 659 -769 0
-1025 -659 769 0
1025 -659 -769 0
1025 659 769 0
-1026 -606 -975 0
-1026 606 975 0
1026 606 -975 0
1026 -606 975 0
-1027 598 -538 0
-1027 -598 538 0
1027 -598 -538 0
1027 598 538 0
-1028 -575 -829 0
-1028 575 829 0
1028 575 -829 0
1028 -575 829 0
-1029 325 -834 0
-1029 -325 834 0
1029 -325 -834 0
1029 325 834 0
-1030 584 -327 0
-1030 -584 327 0
1030 -584 -327 0
1030 584 327 0
-1031 -785 0
-1031 696 0
1031 785 -696 0
-1032 342 -980 0
-1032 -342 980 0
1032 -342 -980 0
1032 342 980 0
-1033 3 40 0
-1033 -3 -40 0
1033 -3 40 0
1033 3 -40 0
-1034 -668 950 0
-1034 668 -950 0
1034 668 950 0
1034 -668 -950 0
-1035 -297 -766 0
-1035 297 766 0
1035 297 -766 0
1035 -297 766 0
-1036 1035 0
-1036 375 0
1036 -1035 -375 0
-1037 -912 -975 0
-1037 912 975 0
1037 912 -975 0
1037 -912 975 0
-1038 -543 0
-1038 -997 0
1038 543 997 0
-1039 -130 -97 0
-1039 130 97 0
1039 130 -97 0
1039 -130 97 0
-1040 -579 -406 0
-1040 579 406 0
1040 579 -406 0
1040 -579 406 0
-1041 728 0
-1041 -542 0
1041 -728 542 0
-1042 44 0
-1042 -1002 0
1042 -44 1002 0
-1043 -282 -969 0
-1043 282 969 0
1043 282 -969 0
1043 -282 969 0
-1044 -940 -39 0
-1044 940 39 0
1044 940 -39 0
1044 -940 39 0
-1045 -1021 89 0
-1045 1021 -89 0
1045 1021 89 0
1045 -1021 -89 0
-1046 -1009 0
-1046 963 0
1046 1009 -963 0
-1047 99 -430 0
-1047 -99 430 0
1047 -99 -430 0
1047 99 430 0
-1048 90 197 0
-1048 -90 -197 0
1048 -90 197 0
1048 90 -197 0
-1049 596 0
-1049 517 0
1049 -596 -517 0
-1050 -914 8 0
-1050 914 -8 0
1050 914 8 0
1050 -914 -8 0
-1051 961 402 0
-1051 -961 -402 0
1051 -961 402 0
1051 961 -402 0
-1052 706 942 0
-1052 -706 -942 0
1052 -706 942 0
1052 706 -942 0
-1053 822 -394 0
-1053 -822 394 0
1053 -822 -394 0
1053 822 394 0
-1054 629 0
-1054 906 0
1054 -629 -906 0
-1055 -806 -949 0
-1055 806 949 0
1055 806 -949 0
1055 -806 949 0
-1056 -269 879 0
-1056 269 -879 0
1056 269 879 0
1056 -269 -879 0
-1057 -846 121 0
-1057 846 -121 0
1057 846 121 0
1057 -846 -121 0
-1058 -106 0
-1058 842 0
1058 106 -842 0
-1059 -107 -621 0
-1059 107 621 0
1059 107 -621 0
1059 -107 621 0
-1060 856 1023 0
-1060 -856 -1023 0
1060 -856 1023 0
1060 856 -1023 0
-1061 -403 0
-1061 709 0
1061 403 -709 0
-1062 -63 -736 0
-1062 63 736 0
1062 63 -736 0
1062 -63 736 0
-1063 -834 -274 0
-1063 834 274 0
1063 834 -274 0
1063 -834 274 0
-1064 -234 362 0
-1064 234 -362 0
1064 234 362 0
1064 -234 -362 0
-1065 102 577 0
-1065 -102 -577 0
1065 -102 577 0
1065 102 -577 0
-1066 607 0
-1066 -266 0
1066 -607 266 0
-1067 -905 0
-1067 419 0
1067 905 -419 0
-1068 -53 0
-1068 -480 0
1068 53 480 0
-1069 -7 0
-1069 -633 0
1069 7 633 0
-1070 563 -1004 0
-1070 -563 1004 0
1070 -563 -1004 0
1070 563 1004 0
-1071 -388 1049 0
-1071 388 -1049 0
1071 388 1049 0
1071 -388 -1049 0
-1072 930 -991 0
-1072 -930 991 0
1072 -930 -991 0
1072 930 991 0
-1073 295 927 0
-1073 -295 -927 0
1073 -295 927 0
1073 295 -927 0
-1074 -593 -856 0
-1074 593 856 0
1074 593 -856 0
1074 -593 856 0
-1075 378 -961 0
-1075 -378 961 0
1075 -378 -961 0
1075 378 961 0
-1076 -781 883 0
-1076 781 -883 0
1076 781 883 0
1076 -781 -883 0
-1077 -663 -993 0
-1077 663 993 0
1077 663 -993 0
1077 -663 993 0
-1078 310 -615 0
-1078 -310 615 0
1078 -310 -615 0
1078 310 615 0
-1079 307 -544 0
-1079 -307 544 0
1079 -307 -544 0
1079 307 544 0
-1080 -240 0
-1080 -652 0
1080 240 652 0
-1081 -263 742 0
-1081 263 -742 0
1081 263 742 0
1081 -263 -742 0
-1082 -197 602 0
-1082 197 -602 0
1082 197 602 0
1082 -197 -602 0
-1083 -477 0
-1083 884 0
1083 477 -884 0
-1084 -871 281 0
-1084 871 -281 0
1084 871 281 0
1084 -871 -281 0
-1085 -763 0
-1085 -351 0
1085 763 351 0
-1086 -922 142 0
-1086 922 -142 0
1086 922 142 0
1086 -922 -142 0
-1087 316 1001 0
-1087 -316 -1001 0
1087 -316 1001 0
1087 316 -1001 0
-1088 -946 -157 0
-1088 946 157 0
1088 946 -157 0
1088 -946 157 0
-1089 -65 706 0
-1089 65 -706 0
1089 65 706 0
1089 -65 -706 0
-1090 1060 0
-1090 562 0
1090 -1060 -562 0
-1091 -151 0
-1091 93 0
1091 151 -93 0
-1092 747 0
-1092 193 0
1092 -747 -193 0
-1093 336 -756 0
-1093 -336 756 0
1093 -336 -756 0
1093 336 756 0
-1094 -17 -947 0
-1094 17 947 0
1094 17 -947 0
1094 -17 947 0
-1095 742 -411 0
-1095 -742 411 0
1095 -742 -411 0
1095 742 411 0
-1096 1075 0
-1096 670 0
1096 -1075 -670 0
-1097 650 1090 0
-1097 -650 -1090 0
1097 -650 1090 0
1097 650 -1090 0
-1098 943 311 0
-1098 -943 -311 0
1098 -943 311 0
1098 943 -311 0
-1099 -632 0
-1099 -489 0
1099 632 489 0
-1100 5 0
-1100 70 0
1100 -5 -70 0
-1101 201 -154 0
-1101 -201 154 0
1101 -201 -154 0
1101 201 154 0
-1102 -845 -929 0
-1102 845 929 0
1102 845 -929 0
1102 -845 929 0
-1103 421 -1049 0
-1103 -421 1049 0
1103 -421 -1049 0
1103 421 1049 0
-1104 -852 -938 0
-1104 852 938 0
1104 852 -938 0
1104 -852 938 0
-1105 -130 0
-1105 -744 0
1105 130 744 0
-1106 -615 342 0
-1106 615 -342 0
1106 615 342 0
1106 -615 -342 0
-1107 732 0
-1107 -800 0
1107 -732 800 0
-1108 535 868 0
-1108 -535 -868 0
1108 -535 868 0
1108 535 -868 0
-1109 -164 0
-1109 702 0
1109 164 -702 0
-1110 230 0
-1110 -549 0
1110 -230 549 0
-1111 95 -246 0
-1111 -95 246 0
1111 -95 -246 0
1111 95 246 0
-1112 -483 0
-1112 916 0
1112 483 -916 0
-1113 -362 948 0
-1113 362 -948 0
1113 362 948 0
1113 -362 -948 0
-1114 -673 0
-1114 115 0
1114 673 -115 0
-1115 434 -78 0
-1115 -434 78 0
1115 -434 -78 0
1115 434 78 0
-1116 -1014 0
-1116 -739 0
1116 1014 739 0
-1117 45 848 0
-1117 -45 -848 0
1117 -45 848 0
1117 45 -848 0
-1118 643 0
-1118 -488 0
1118 -643 488 0
-1119 -204 0
-1119 127 0
1119 204 -127 0
-1120 -1084 195 0
-1120 1084 -195 0
1120 1084 195 0
1120 -1084 -195 0
-1121 494 0
-1121 -1116 0
1121 -494 1116 0
-1122 821 0
-1122 -492 0
1122 -821 492 0
-1123 668 -853 0
-1123 -668 853 0
1123 -668 -853 0
1123 668 853 0
-1124 -736 0
-1124 790 0
1124 736 -790 0
-1125 81 0
-1125 835 0
1125 -81 -835 0
-1126 1094 24 0
-1126 -1094 -24 0
1126 -1094 24 0
1126 1094 -24 0
-1127 761 0
-1127 491 0
1127 -761 -491 0
-1128 118 959 0
-1128 -118 -959 0
1128 -118 959 0
1128 118 -959 0
-1129 856 -77 0
-1129 -856 77 0
1129 -856 -77 0
1129 856 77 0
-1130 1006 0
-1130 968 0
1130 -1006 -968 0
-1131 24 -668 0
-1131 -24 668 0
1131 -24 -668 0
1131 24 668 0
-1132 -570 105 0
-1132 570 -105 0
1132 570 105 0
1132 -570 -105 0
-1133 -164 -835 0
-1133 164 835 0
1133 164 -835 0
1133 -164 835 0
-1134 374 778 0
-1134 -374 -778 0
1134 -374 778 0
1134 374 -778 0
-1135 890 -884 0
-1135 -890 884 0
1135 -890 -884 0
1135 890 884 0
-1136 620 0
-1136 -844 0
1136 -620 844 0
-1137 971 0
-1137 856 0
1137 -971 -856 0
-1138 821 375 0
-1138 -821 -375 0
1138 -821 375 0
1138 821 -375 0
-1139 -55 1105 0
-1139 55 -1105 0
1139 55 1105 0
1139 -55 -1105 0
-1140 495 0
-1140 -442 0
1140 -495 442 0
-1141 -151 -214 0
-1141 151 214 0
1141 151 -214 0
1141 -151 214 0
-1142 158 447 0
-1142 -158 -447 0
1142 -158 447 0
1142 158 -447 0
-1143 613 0
-1143 -218 0
1143 -613 218 0
-1144 -7 670 0
-1144 7 -670 0
1144 7 670 0
1144 -7 -670 0
-1145 285 1010 0
-1145 -285 -1010 0
1145 -285 1010 0
1145 285 -1010 0
-1146 -201 0
-1146 -378 0
1146 201 378 0
-1147 405 394 0
-1147 -405 -394 0
1147 -405 394 0
1147 405 -394 0
-1148 692 0
-1148 -218 0
1148 -692 218 0
-1149 -685 -460 0
-1149 685 460 0
1149 685 -460 0
1149 -685 460 0
-1150 371 379 0
-1150 -371 -379 0
1150 -371 379 0
1150 371 -379 0
-1151 -883 0
-1151 653 0
1151 883 -653 0
-1152 776 0
-1152 768 0
1152 -776 -768 0
-1153 736 224 0
-1153 -736 -224 0
1153 -736 224 0
1153 736 -224 0
-1154 -944 0
-1154 546 0
1154 944 -546 0
-1155 866 -460 0
-1155 -866 460 0
1155 -866 -460 0
1155 866 460 0
-1156 -1131 0
-1156 -68 0
1156 1131 68 0
-1157 394 0
-1157 -1066 0
1157 -394 1066 0
-1158 642 0
-1158 -923 0
1158 -642 923 0
-1159 523 606 0
-1159 -523 -606 0
1159 -523 606 0
1159 523 -606 0
-1160 -817 339 0
-1160 817 -339 0
1160 817 339 0
1160 -817 -339 0
-1161 93 -896 0
-1161 -93 896 0
1161 -93 -896 0
1161 93 896 0
-1162 -704 -1035 0
-1162 704 1035 0
1162 704 -1035 0
1162 -704 1035 0
-1163 -483 0
-1163 -841 0
1163 483 841 0
-1164 967 1046 0
-1164 -967 -1046 0
1164 -967 1046 0
1164 967 -1046 0
-1165 -1069 863 0
-1165 1069 -863 0
1165 1069 863 0
1165 -1069 -863 0
-1166 225 0
-1166 -791 0
1166 -225 791 0
-1167 -266 0
-1167 -1033 0
1167 266 1033 0
-1168 531 -17 0
-1168 -531 17 0
1168 -531 -17 0
1168 531 17 0
-1169 -142 33 0
-1169 142 -33 0
1169 142 33 0
1169 -142 -33 0
-1170 -960 0
-1170 -71 0
1170 960 71 0
-1171 -881 -879 0
-1171 881 879 0
1171 881 -879 0
1171 -881 879 0
-1172 -981 0
-1172 -220 0
1172 981 220 0
-1173 -22 347 0
-1173 22 -347 0
1173 22 347 0
1173 -22 -347 0
-1174 372 0
-1174 -1135 0
1174 -372 1135 0
-1175 931 13 0
-1175 -931 -13 0
1175 -931 13 0
1175 931 -13 0
-1176 -614 0
-1176 -611 0
1176 614 611 0
-1177 982 0
-1177 428 0
1177 -982 -428 0
-1178 -555 -300 0
-1178 555 300 0
1178 555 -300 0
1178 -555 300 0
-1179 -338 -1128 0
-1179 338 1128 0
1179 338 -1128 0
1179 -338 1128 0
-1180 -576 336 0
-1180 576 -336 0
1180 576 336 0
1180 -576 -336 0
-1181 -565 0
-1181 -423 0
1181 565 423 0
-1182 862 -1106 0
-1182 -862 1106 0
1182 -862 -1106 0
1182 862 1106 0
-1183 -77 530 0
-1183 77 -530 0
1183 77 530 0
1183 -77 -530 0
-1184 617 615 0
-1184 -617 -615 0
1184 -617 615 0
1184 617 -615 0
-1185 -184 950 0
-1185 184 -950 0
1185 184 950 0
1185 -184 -950 0
-1186 786 0
-1186 744 0
1186 -786 -744 0
-1187 910 0
-1187 -376 0
1187 -910 376 0
-1188 -1037 755 0
-1188 1037 -755 0
1188 1037 755 0
1188 -1037 -755 0
-1189 1074 504 0
-1189 -1074 -504 0
1189 -1074 504 0
1189 1074 -504 0
-1190 165 186 0
-1190 -165 -186 0
1190 -165 186 0
1190 165 -186 0
-1191 1058 0
-1191 762 0
1191 -1058 -762 0
-1192 203 -1082 0
-1192 -203 1082 0
1192 -203 -1082 0
1192 203 1082 0
-1193 -21 472 0
-1193 21 -472 0
1193 21 472 0
1193 -21 -472 0
-1194 878 1087 0
-1194 -878 -1087 0
1194 -878 1087 0
1194 878 -1087 0
-1195 -743 -189 0
-1195 743 189 0
1195 743 -189 0
1195 -743 189 0
-1196 816 -68 0
-1196 -816 68 0
1196 -816 -68 0
1196 816 68 0
-1197 -322 925 0
-1197 322 -925 0
1197 322 925 0
1197 -322 -925 0
-1198 114 0
-1198 1022 0
1198 -114 -1022 0
-1199 -1173 0
-1199 -368 0
1199 1173 368 0
-1200 -395 718 0
-1200 395 -718 0
1200 395 718 0
1200 -395 -718 0
-1201 565 0
-1201 36 0
1201 -565 -36 0
-1202 -769 558 0
-1202 769 -558 0
1202 769 558 0
1202 -769 -558 0
-1203 -422 -449 0
-1203 422 449 0
1203 422 -449 0
1203 -422 449 0
-1204 656 0
-1204 157 0
1204 -656 -157 0
-1205 -930 0
-1205 -1080 0
1205 930 1080 0
-1206 77 949 0
-1206 -77 -949 0
1206 -77 949 0
1206 77 -949 0
-1207 837 833 0
-1207 -837 -833 0
1207 -837 833 0
1207 837 -833 0
-1208 -427 -409 0
-1208 427 409 0
1208 427 -409 0
1208 -427 409 0
-1209 -255 0
-1209 -525 0
1209 255 525 0
-1210 -332 0
-1210 394 0
1210 332 -394 0
-1211 -1174 4 0
-1211 1174 -4 0
1211 1174 4 0
1211 -1174 -4 0
-1212 -549 -487 0
-1212 549 487 0
1212 549 -487 0
1212 -549 487 0
-1213 -1201 0
-1213 373 0
1213 1201 -373 0
-1214 1199 465 0
-1214 -1199 -465 0
1214 -1199 465 0
1214 1199 -465 0
-1215 754 -1036 0
-1215 -754 1036 0
1215 -754 -1036 0
1215 754 1036 0
-1216 440 0
-1216 217 0
1216 -440 -217 0
-1217 -79 0
-1217 786 0
1217 79 -786 0
-1218 321 -262 0
-1218 -321 262 0
1218 -321 -262 0
1218 321 262 0
-1219 -356 0
-1219 1122 0
1219 356 -1122 0
-1220 286 -779 0
-1220 -286 779 0
1220 -286 -779 0
1220 286 779 0
-1221 900 812 0
-1221 -900 -812 0
1221 -900 812 0
1221 900 -812 0
-1222 943 0
-1222 274 0
1222 -943 -274 0
-1223 403 0
-1223 -250 0
1223 -403 250 0
-1224 608 -287 0
-1224 -608 287 0
1224 -608 -287 0
1224 608 287 0
-1225 1144 0
-1225 -283 0
1225 -1144 283 0
-1226 -715 0
-1226 -356 0
1226 715 356 0
-1227 290 -1145 0
-1227 -290 1145 0
1227 -290 -1145 0
1227 290 1145 0
-1228 784 0
-1228 -993 0
1228 -784 993 0
-1229 84 869 0
-1229 -84 -869 0
1229 -84 869 0
1229 84 -869 0
-1230 -967 -1142 0
-1230 967 1142 0
1230 967 -1142 0
1230 -967 1142 0
-1231 -927 -967 0
-1231 927 967 0
1231 927 -967 0
1231 -927 967 0
-1232 -976 0
-1232 -930 0
1232 976 930 0
-1233 806 -919 0
-1233 -806 919 0
1233 -806 -919 0
1233 806 919 0
-1234 551 0
-1234 -178 0
1234 -551 178 0
-1235 -627 132 0
-1235 627 -132 0
1235 627 132 0
1235 -627 -132 0
-1236 254 0
-1236 -743 0
1236 -254 743 0
-1237 -278 472 0
-1237 278 -472 0
1237 278 472 0
1237 -278 -472 0
-1238 -1131 78 0
-1238 1131 -78 0
1238 1131 78 0
1238 -1131 -78 0
-1239 23 0
-1239 -1234 0
1239 -23 1234 0
-1240 56 0
-1240 415 0
1240 -56 -415 0
-1241 809 0
-1241 -1061 0
1241 -809 1061 0
-1242 -639 0
-1242 -925 0
1242 639 925 0
-1243 -821 0
-1243 -180 0
1243 821 180 0
-1244 -658 853 0
-1244 658 -853 0
1244 658 853 0
1244 -658 -853 0
-1245 176 0
-1245 -470 0
1245 -176 470 0
-1246 -212 -147 0
-1246 212 147 0
1246 212 -147 0
1246 -212 147 0
-1247 -1217 1087 0
-1247 1217 -1087 0
1247 1217 1087 0
1247 -1217 -1087 0
-1248 840 0
-1248 192 0
1248 -840 -192 0
-1249 215 -729 0
-1249 -215 729 0
1249 -215 -729 0
1249 215 729 0
-1250 279 0
-1250 89 0
1250 -279 -89 0
-1251 -227 494 0
-1251 227 -494 0
1251 227 494 0
1251 -227 -494 0
-1252 -1232 0
-1252 197 0
1252 1232 -197 0
-1253 -672 68 0
-1253 672 -68 0
1253 672 68 0
1253 -672 -68 0
-1254 1127 -890 0
-1254 -1127 890 0
1254 -1127 -890 0
1254 1127 890 0
-1255 869 804 0
-1255 -869 -804 0
1255 -869 804 0
1255 869 -804 0
-1256 -465 908 0
-1256 465 -908 0
1256 465 908 0
1256 -465 -908 0
-1257 -263 790 0
-1257 263 -790 0
1257 263 790 0
1257 -263 -790 0
-1258 872 368 0
-1258 -872 -368 0
1258 -872 368 0
1258 872 -368 0
-1259 -9 -664 0
-1259 9 664 0
1259 9 -664 0
1259 -9 664 0
-1260 -366 0
-1260 -604 0
1260 366 604 0
-1261 -1 0
-1261 121 0
1261 1 -121 0
-1262 -545 -972 0
-1262 545 972 0
1262 545 -972 0
1262 -545 972 0
-1263 -358 0
-1263 -1178 0
1263 358 1178 0
-1264 -22 791 0
-1264 22 -791 0
1264 22 791 0
1264 -22 -791 0
-1265 -13 -247 0
-1265 13 247 0
1265 13 -247 0
1265 -13 247 0
-1266 -1080 1004 0
-1266 1080 -1004 0
1266 1080 1004 0
1266 -1080 -1004 0
-1267 563 0
-1267 -1222 0
1267 -563 1222 0
-1268 767 747 0
-1268 -767 -747 0
1268 -767 747 0
1268 767 -747 0
-1269 878 705 0
-1269 -878 -705 0
1269 -878 705 0
1269 878 -705 0
-1270 -583 0
-1270 16 0
1270 583 -16 0
-1271 -588 0
-1271 -485 0
1271 588 485 0
-1272 658 589 0
-1272 -658 -589 0
1272 -658 589 0
1272 658 -589 0
-1273 957 -24 0
-1273 -957 24 0
1273 -957 -24 0
1273 957 24 0
-1274 60 -821 0
-1274 -60 821 0
1274 -60 -821 0
1274 60 821 0
-1275 -692 -707 0
-1275 692 707 0
1275 692 -707 0
1275 -692 707 0
-1276 -919 0
-1276 -593 0
1276 919 593 0
-1277 1013 -1157 0
-1277 -1013 1157 0
1277 -1013 -1157 0
1277 1013 1157 0
-1278 -186 -680 0
-1278 186 680 0
1278 186 -680 0
1278 -186 680 0
-1279 -175 -890 0
-1279 175 890 0
1279 175 -890 0
1279 -175 890 0
-1280 473 -1270 0
-1280 -473 1270 0
1280 -473 -1270 0
1280 473 1270 0
-1281 1103 -270 0
-1281 -1103 270 0
1281 -1103 -270 0
1281 1103 270 0
-1282 51 1154 0
-1282 -51 -1154 0
1282 -51 1154 0
1282 51 -1154 0
-1283 411 -1122 0
-1283 -411 1122 0
1283 -411 -1122 0
1283 411 1122 0
-1284 -361 675 0
-1284 361 -675 0
1284 361 675 0
1284 -361 -675 0
-1285 918 -243 0
-1285 -918 243 0
1285 -918 -243 0
1285 918 243 0
-1286 1181 0
-1286 683 0
1286 -1181 -683 0
-1287 486 0
-1287 -717 0
1287 -486 717 0
-1288 -606 -1150 0
-1288 606 1150 0
1288 606 -1150 0
1288 -606 1150 0
-1289 -277 0
-1289 -34 0
1289 277 34 0
-1290 722 0
-1290 785 0
1290 -722 -785 0
-1291 -623 -363 0
-1291 623 363 0
1291 623 -363 0
1291 -623 363 0
-1292 -1026 937 0
-1292 1026 -937 0
1292 1026 937 0
1292 -1026 -937 0
-1293 561 -41 0
-1293 -561 41 0
1293 -561 -41 0
1293 561 41 0
-1294 586 0
-1294 -581 0
1294 -586 581 0
-1295 993 417 0
-1295 -993 -417 0
1295 -993 417 0
1295 993 -417 0
-1296 742 503 0
-1296 -742 -503 0
1296 -742 503 0
1296 742 -503 0
-1297 905 0
-1297 -673 0
1297 -905 673 0
-1298 276 -1296 0
-1298 -276 1296 0
1298 -276 -1296 0
1298 276 1296 0
-1299 -346 782 0
-1299 346 -782 0
1299 346 782 0
1299 -346 -782 0
-1300 217 -883 0
-1300 -217 883 0
1300 -217 -883 0
1300 217 883 0
-1301 -509 0
-1301 -190 0
1301 509 190 0
-1302 -681 0
-1302 -42 0
1302 681 42 0
-1303 394 0
-1303 90 0
1303 -394 -90 0
-1304 -904 0
-1304 -779 0
1304 904 779 0
-1305 578 1047 0
-1305 -578 -1047 0
1305 -578 1047 0
1305 578 -1047 0
-1306 828 404 0
-1306 -828 -404 0
1306 -828 404 0
1306 828 -404 0
-1307 -260 861 0
-1307 260 -861 0
1307 260 861 0
1307 -260 -861 0
-1308 1020 447 0
-1308 -1020 -447 0
1308 -1020 447 0
1308 1020 -447 0
-1309 -1149 706 0
-1309 1149 -706 0
1309 1149 706 0
1309 -1149 -706 0
-1310 -993 -33 0
-1310 993 33 0
1310 993 -33 0
1310 -993 33 0
-1311 -163 0
-1311 831 0
1311 163 -831 0
-1312 522 408 0
-1312 -522 -408 0
1312 -522 408 0
1312 522 -408 0
-1313 -602 0
-1313 300 0
1313 602 -300 0
-1314 -594 0
-1314 51 0
1314 594 -51 0
-1315 -520 0
-1315 362 0
1315 520 -362 0
-1316 841 0
-1316 -838 0
1316 -841 838 0
-1317 -119 -1005 0
-1317 119 1005 0
1317 119 -1005 0
1317 -119 1005 0
-1318 -34 -606 0
-1318 34 606 0
1318 34 -606 0
1318 -34 606 0
-1319 36 -1272 0
-1319 -36 1272 0
1319 -36 -1272 0
1319 36 1272 0
-1320 1305 0
-1320 -309 0
1320 -1305 309 0
-1321 -1004 647 0
-1321 1004 -647 0
1321 1004 647 0
1321 -1004 -647 0
-1322 -140 -1085 0
-1322 140 1085 0
1322 140 -1085 0
1322 -140 1085 0
-1323 463 103 0
-1323 -463 -103 0
1323 -463 103 0
1323 463 -103 0
-1324 -1275 0
-1324 -875 0
1324 1275 875 0
-1325 -104 0
-1325 211 0
1325 104 -211 0
-1326 -688 0
-1326 768 0
1326 688 -768 0
-1327 -601 540 0
-1327 601 -540 0
1327 601 540 0
1327 -601 -540 0
-1328 -549 -472 0
-1328 549 472 0
1328 549 -472 0
1328 -549 472 0
-1329 -449 1062 0
-1329 449 -1062 0
1329 449 1062 0
1329 -449 -1062 0
-1330 -434 513 0
-1330 434 -513 0
1330 434 513 0
1330 -434 -513 0
-1331 -908 -1129 0
-1331 908 1129 0
1331 908 -1129 0
1331 -908 1129 0
-1332 -145 -834 0
-1332 145 834 0
1332 145 -834 0
1332 -145 834 0
-1333 -1181 -713 0
-1333 1181 713 0
1333 1181 -713 0
1333 -1181 713 0
-1334 -377 -1241 0
-1334 377 1241 0
1334 377 -1241 0
1334 -377 1241 0
-1335 592 1093 0
-1335 -592 -1093 0
1335 -592 1093 0
1335 592 -1093 0
-1336 -644 1207 0
-1336 644 -1207 0
1336 644 1207 0
1336 -644 -1207 0
-1337 774 0
-1337 -212 0
1337 -774 212 0
-1338 -1055 0
-1338 675 0
1338 1055 -675 0
-1339 -675 -135 0
-1339 675 135 0
1339 675 -135 0
1339 -675 135 0
-1340 1161 447 0
-1340 -1161 -447 0
1340 -1161 447 0
1340 1161 -447 0
-1341 -119 0
-1341 522 0
1341 119 -522 0
-1342 -1291 -127 0
-1342 1291 127 0
1342 1291 -127 0
1342 -1291 127 0
-1343 -639 -998 0
-1343 639 998 0
1343 639 -998 0
1343 -639 998 0
-1344 615 0
-1344 -926 0
1344 -615 926 0
-1345 192 590 0
-1345 -192 -590 0
1345 -192 590 0
1345 192 -590 0
-1346 -1063 0
-1346 -1219 0
1346 1063 1219 0
-1347 -350 -349 0
-1347 350 349 0
1347 350 -349 0
1347 -350 349 0
-1348 -1284 0
-1348 -833 0
1348 1284 833 0
-1349 1184 1141 0
-1349 -1184 -1141 0
1349 -1184 1141 0
1349 1184 -1141 0
-1350 12 735 0
-1350 -12 -735 0
1350 -12 735 0
1350 12 -735 0
-1351 21 139 0
-1351 -21 -139 0
1351 -21 139 0
1351 21 -139 0
-1352 332 -28 0
-1352 -332 28 0
1352 -332 -28 0
1352 332 28 0
-1353 -219 -834 0
-1353 219 834 0
1353 219 -834 0
1353 -219 834 0
-1354 982 875 0
-1354 -982 -875 0
1354 -982 875 0
1354 982 -875 0
-1355 -1223 1253 0
-1355 1223 -1253 0
1355 1223 1253 0
1355 -1223 -1253 0
-1356 121 707 0
-1356 -121 -707 0
1356 -121 707 0
1356 121 -707 0
-1357 -140 107 0
-1357 140 -107 0
1357 140 107 0
1357 -140 -107 0
-1358 -405 1261 0
-1358 405 -1261 0
1358 405 1261 0
1358 -405 -1261 0
-1359 482 0
-1359 -193 0
1359 -482 193 0
-1360 708 603 0
-1360 -708 -603 0
1360 -708 603 0
1360 708 -603 0
-1361 594 -319 0
-1361 -594 319 0
1361 -594 -319 0
1361 594 319 0
-1362 1219 0
-1362 -975 0
1362 -1219 975 0
-1363 -188 0
-1363 -783 0
1363 188 783 0
-1364 264 -950 0
-1364 -264 950 0
1364 -264 -950 0
1364 264 950 0
-1365 -247 267 0
-1365 247 -267 0
1365 247 267 0
1365 -247 -267 0
-1366 -562 0
-1366 536 0
1366 562 -536 0
-1367 922 1085 0
-1367 -922 -1085 0
1367 -922 1085 0
1367 922 -1085 0
-1368 -702 0
-1368 473 0
1368 702 -473 0
-1369 -800 -491 0
-1369 800 491 0
1369 800 -491 0
1369 -800 491 0
-1370 -767 146 0
-1370 767 -146 0
1370 767 146 0
1370 -767 -146 0
-1371 -545 0
-1371 -729 0
1371 545 729 0
-1372 -686 0
-1372 -145 0
1372 686 145 0
-1373 -1152 -623 0
-1373 1152 623 0
1373 1152 -623 0
1373 -1152 623 0
-1374 -233 -249 0
-1374 233 249 0
1374 233 -249 0
1374 -233 249 0
-1375 -191 381 0
-1375 191 -381 0
1375 191 381 0
1375 -191 -381 0
-1376 -912 0
-1376 -1344 0
1376 912 1344 0
-1377 -1028 0
-1377 1119 0
1377 1028 -1119 0
-1378 279 -1124 0
-1378 -279 1124 0
1378 -279 -1124 0
1378 279 1124 0
-1379 -80 -21 0
-1379 80 21 0
1379 80 -21 0
1379 -80 21 0
-1380 -208 -1109 0
-1380 208 1109 0
1380 208 -1109 0
1380 -208 1109 0
-1381 -233 949 0
-1381 233 -949 0
1381 233 949 0
1381 -233 -949 0
-1382 202 0
-1382 305 0
1382 -202 -305 0
-1383 -399 -668 0
-1383 399 668 0
1383 399 -668 0
1383 -399 668 0
-1384 785 -605 0
-1384 -785 605 0
1384 -785 -605 0
1384 785 605 0
-1385 1078 -8 0
-1385 -1078 8 0
1385 -1078 -8 0
1385 1078 8 0
-1386 1127 698 0
-1386 -1127 -698 0
1386 -1127 698 0
1386 1127 -698 0
-1387 7 48 0
-1387 -7 -48 0
1387 -7 48 0
1387 7 -48 0
-1388 784 0
-1388 -384 0
1388 -784 384 0
-1389 829 -838 0
-1389 -829 838 0
1389 -829 -838 0
1389 829 838 0
-1390 1349 -568 0
-1390 -1349 568 0
1390 -1349 -568 0
1390 1349 568 0
-1391 1184 -415 0
-1391 -1184 415 0
1391 -1184 -415 0
1391 1184 415 0
-1392 1390 0
-1392 -612 0
1392 -1390 612 0
-1393 1359 -887 0
-1393 -1359 887 0
1393 -1359 -887 0
1393 1359 887 0
-1394 -582 0
-1394 218 0
1394 582 -218 0
-1395 374 730 0
-1395 -374 -730 0
1395 -374 730 0
1395 374 -730 0
-1396 -905 0
-1396 -202 0
1396 905 202 0
-1397 1343 -1097 0
-1397 -1343 1097 0
1397 -1343 -1097 0
1397 1343 1097 0
-1398 1351 -391 0
-1398 -1351 391 0
1398 -1351 -391 0
1398 1351 391 0
-1399 -575 -1373 0
-1399 575 1373 0
1399 575 -1373 0
1399 -575 1373 0
-1400 -624 563 0
-1400 624 -563 0
1400 624 563 0
1400 -624 -563 0
-1401 207 213 0
-1401 -207 -213 0
1401 -207 213 0
1401 207 -213 0
-1402 461 0
-1402 1375 0
1402 -461 -1375 0
-1403 -359 142 0
-1403 359 -142 0
1403 359 142 0
1403 -359 -142 0
-1404 -988 766 0
-1404 988 -766 0
1404 988 766 0
1404 -988 -766 0
-1405 735 0
-1405 910 0
1405 -735 -910 0
-1406 -647 -93 0
-1406 647 93 0
1406 647 -93 0
1406 -647 93 0
-1407 1379 0
-1407 231 0
1407 -1379 -231 0
-1408 109 1084 0
-1408 -109 -1084 0
1408 -109 1084 0
1408 109 -1084 0
-1409 -30 -221 0
-1409 30 221 0
1409 30 -221 0
1409 -30 221 0
-1410 848 -689 0
-1410 -848 689 0
1410 -848 -689 0
1410 848 689 0
-1411 -988 0
-1411 -941 0
1411 988 941 0
-1412 -750 -888 0
-1412 750 888 0
1412 750 -888 0
1412 -750 888 0
-1413 44 800 0
-1413 -44 -800 0
1413 -44 800 0
1413 44 -800 0
-1414 749 464 0
-1414 -749 -464 0
1414 -749 464 0
1414 749 -464 0
-1415 -1148 169 0
-1415 1148 -169 0
1415 1148 169 0
1415 -1148 -169 0
-1416 694 0
-1416 -1315 0
1416 -694 1315 0
-1417 -795 0
-1417 245 0
1417 795 -245 0
-1418 -865 -1165 0
-1418 865 1165 0
1418 865 -1165 0
1418 -865 1165 0
-1419 1152 0
-1419 966 0
1419 -1152 -966 0
-1420 -144 0
-1420 549 0
1420 144 -549 0
-1421 -136 1258 0
-1421 136 -1258 0
1421 136 1258 0
1421 -136 -1258 0
-1422 1012 -303 0
-1422 -1012 303 0
1422 -1012 -303 0
1422 1012 303 0
-1423 1201 1179 0
-1423 -1201 -1179 0
1423 -1201 1179 0
1423 1201 -1179 0
-1424 -41 624 0
-1424 41 -624 0
1424 41 624 0
1424 -41 -624 0
-1425 528 -1108 0
-1425 -528 1108 0
1425 -528 -1108 0
1425 528 1108 0
-1426 132 0
-1426 996 0
1426 -132 -996 0
-1427 394 0
-1427 -1295 0
1427 -394 1295 0
-1428 915 -7 0
-1428 -915 7 0
1428 -915 -7 0
1428 915 7 0
-1429 -1424 -1373 0
-1429 1424 1373 0
1429 1424 -1373 0
1429 -1424 1373 0
-1430 537 1152 0
-1430 -537 -1152 0
1430 -537 1152 0
1430 537 -1152 0
-1431 -1373 0
-1431 970 0
1431 1373 -970 0
-1432 440 615 0
-1432 -440 -615 0
1432 -440 615 0
1432 440 -615 0
-1433 -570 130 0
-1433 570 -130 0
1433 570 130 0
1433 -570 -130 0
-1434 -9 -171 0
-1434 9 171 0
1434 9 -171 0
1434 -9 171 0
-1435 -66 0
-1435 121 0
1435 66 -121 0
-1436 465 0
-1436 -1034 0
1436 -465 1034 0
-1437 718 0
-1437 -1401 0
1437 -718 1401 0
-1438 386 1197 0
-1438 -386 -1197 0
1438 -386 1197 0
1438 386 -1197 0
-1439 417 -374 0
-1439 -417 374 0
1439 -417 -374 0
1439 417 374 0
-1440 -847 948 0
-1440 847 -948 0
1440 847 948 0
1440 -847 -948 0
-1441 -1400 -1323 0
-1441 1400 1323 0
1441 1400 -1323 0
1441 -1400 1323 0
-1442 -461 -1439 0
-1442 461 1439 0
1442 461 -1439 0
1442 -461 1439 0
-1443 1340 -594 0
-1443 -1340 594 0
1443 -1340 -594 0
1443 1340 594 0
-1444 912 560 0
-1444 -912 -560 0
1444 -912 560 0
1444 912 -560 0
-1445 -172 1387 0
-1445 172 -1387 0
1445 172 1387 0
1445 -172 -1387 0
-1446 -1216 -805 0
-1446 1216 805 0
1446 1216 -805 0
1446 -1216 805 0
-1447 -833 -1010 0
-1447 833 1010 0
1447 833 -1010 0
1447 -833 1010 0
-1448 1088 196 0
-1448 -1088 -196 0
1448 -1088 196 0
1448 1088 -196 0
-1449 -1186 0
-1449 -857 0
1449 1186 857 0
-1450 -1186 -640 0
-1450 1186 640 0
1450 1186 -640 0
1450 -1186 640 0
-1451 1444 0
-1451 635 0
1451 -1444 -635 0
-1452 1071 0
-1452 529 0
1452 -1071 -529 0
-1453 -216 -1272 0
-1453 216 1272 0
1453 216 -1272 0
1453 -216 1272 0
-1454 -754 0
-1454 -366 0
1454 754 366 0
-1455 -57 -734 0
-1455 57 734 0
1455 57 -734 0
1455 -57 734 0
-1456 -958 463 0
-1456 958 -463 0
1456 958 463 0
1456 -958 -463 0
-1457 1047 1088 0
-1457 -1047 -1088 0
1457 -1047 1088 0
1457 1047 -1088 0
-1458 -265 0
-1458 1328 0
1458 265 -1328 0
-1459 440 -1090 0
-1459 -440 1090 0
1459 -440 -1090 0
1459 440 1090 0
-1460 206 0
-1460 802 0
1460 -206 -802 0
-1461 527 -275 0
-1461 -527 275 0
1461 -527 -275 0
1461 527 275 0
-1462 1135 809 0
-1462 -1135 -809 0
1462 -1135 809 0
1462 1135 -809 0
-1463 -1273 350 0
-1463 1273 -350 0
1463 1273 350 0
1463 -1273 -350 0
-1464 -570 0
-1464 -1435 0
1464 570 1435 0
-1465 1228 736 0
-1465 -1228 -736 0
1465 -1228 736 0
1465 1228 -736 0
-1466 -311 -41 0
-1466 311 41 0
1466 311 -41 0
1466 -311 41 0
-1467 -558 1124 0
-1467 558 -1124 0
1467 558 1124 0
1467 -558 -1124 0
-1468 985 -513 0
-1468 -985 513 0
1468 -985 -513 0
1468 985 513 0
-1469 1258 0
-1469 -1184 0
1469 -1258 1184 0
-1470 68 -1387 0
-1470 -68 1387 0
1470 -68 -1387 0
1470 68 1387 0
-1471 693 -1318 0
-1471 -693 1318 0
1471 -693 -1318 0
1471 693 1318 0
-1472 -537 0
-1472 -1317 0
1472 537 1317 0
-1473 1250 -692 0
-1473 -1250 692 0
1473 -1250 -692 0
1473 1250 692 0
-1474 1438 195 0
-1474 -1438 -195 0
1474 -1438 195 0
1474 1438 -195 0
-1475 1163 950 0
-1475 -1163 -950 0
1475 -1163 950 0
1475 1163 -950 0
-1476 1179 -27 0
-1476 -1179 27 0
1476 -1179 -27 0
1476 1179 27 0
-1477 -243 -1368 0
-1477 243 1368 0
1477 243 -1368 0
1477 -243 1368 0
-1478 175 0
-1478 -591 0
1478 -175 591 0
-1479 476 1283 0
-1479 -476 -1283 0
1479 -476 1283 0
1479 476 -1283 0
-1480 1332 -1449 0
-1480 -1332 1449 0
1480 -1332 -1449 0
1480 1332 1449 0
-1481 -1194 0
-1481 -981 0
1481 1194 981 0
-1482 -246 -705 0
-1482 246 705 0
1482 246 -705 0
1482 -246 705 0
-1483 -1022 0
-1483 1471 0
1483 1022 -1471 0
-1484 -646 0
-1484 226 0
1484 646 -226 0
-1485 1240 -1358 0
-1485 -1240 1358 0
1485 -1240 -1358 0
1485 1240 1358 0
-1486 -80 917 0
-1486 80 -917 0
1486 80 917 0
1486 -80 -917 0
-1487 16 0
-1487 401 0
1487 -16 -401 0
-1488 -239 -998 0
-1488 239 998 0
1488 239 -998 0
1488 -239 998 0
-1489 -1299 -704 0
-1489 1299 704 0
1489 1299 -704 0
1489 -1299 704 0
-1490 -421 1462 0
-1490 421 -1462 0
1490 421 1462 0
1490 -421 -1462 0
-1491 232 0
-1491 1140 0
1491 -232 -1140 0
-1492 -1374 -406 0
-1492 1374 406 0
1492 1374 -406 0
1492 -1374 406 0
-1493 -1285 252 0
-1493 1285 -252 0
1493 1285 252 0
1493 -1285 -252 0
-1494 -93 -142 0
-1494 93 142 0
1494 93 -142 0
1494 -93 142 0
-1495 -1274 0
-1495 1173 0
1495 1274 -1173 0
-1496 -700 0
-1496 -168 0
1496 700 168 0
-1497 832 -148 0
-1497 -832 148 0
1497 -832 -148 0
1497 832 148 0
-1498 503 1285 0
-1498 -503 -1285 0
1498 -503 1285 0
1498 503 -1285 0
-1499 1238 -1193 0
-1499 -1238 1193 0
1499 -1238 -1193 0
1499 1238 1193 0
-1500 1361 -1146 0
-1500 -1361 1146 0
1500 -1361 -1146 0
1500 1361 1146 0
-1501 1449 0
-1501 1341 0
1501 -1449 -1341 0
-1502 -941 -641 0
-1502 941 641 0
1502 941 -641 0
1502 -941 641 0
-1503 588 293 0
-1503 -588 -293 0
1503 -588 293 0
1503 588 -293 0
-1504 991 -1412 0
-1504 -991 1412 0
1504 -991 -1412 0
1504 991 1412 0
-1505 638 0
-1505 -186 0
1505 -638 186 0
-1506 -1384 -130 0
-1506 1384 130 0
1506 1384 -130 0
1506 -1384 130 0
-1507 -343 -400 0
-1507 343 400 0
1507 343 -400 0
1507 -343 400 0
-1508 -1156 0
-1508 503 0
1508 1156 -503 0
-1509 1182 -149 0
-1509 -1182 149 0
1509 -1182 -149 0
1509 1182 149 0
-1510 370 -1415 0
-1510 -370 1415 0
1510 -370 -1415 0
1510 370 1415 0
-1511 -104 0
-1511 1286 0
1511 104 -1286 0
-1512 925 -1502 0
-1512 -925 1502 0
1512 -925 -1502 0
1512 925 1502 0
-1513 1183 519 0
-1513 -1183 -519 0
1513 -1183 519 0
1513 1183 -519 0
-1514 94 -756 0
-1514 -94 756 0
1514 -94 -756 0
1514 94 756 0
-1515 79 1371 0
-1515 -79 -1371 0
1515 -79 1371 0
1515 79 -1371 0
-1516 368 -1019 0
-1516 -368 1019 0
1516 -368 -1019 0
1516 368 1019 0
-1517 -1311 279 0
-1517 1311 -279 0
1517 1311 279 0
1517 -1311 -279 0
-1518 -1120 0
-1518 1448 0
1518 1120 -1448 0
-1519 835 1236 0
-1519 -835 -1236 0
1519 -835 1236 0
1519 835 -1236 0
-1520 -1489 -284 0
-1520 1489 284 0
1520 1489 -284 0
1520 -1489 284 0
-1521 1390 0
-1521 -910 0
1521 -1390 910 0
-1522 228 0
-1522 877 0
1522 -228 -877 0
-1523 395 -26 0
-1523 -395 26 0
1523 -395 -26 0
1523 395 26 0
-1524 -790 0
-1524 -492 0
1524 790 492 0
-1525 392 0
-1525 -320 0
1525 -392 320 0
-1526 72 0
-1526 509 0
1526 -72 -509 0
-1527 84 632 0
-1527 -84 -632 0
1527 -84 632 0
1527 84 -632 0
-1528 -1433 1248 0
-1528 1433 -1248 0
1528 1433 1248 0
1528 -1433 -1248 0
-1529 -32 470 0
-1529 32 -470 0
1529 32 470 0
1529 -32 -470 0
-1530 -820 0
-1530 1475 0
1530 820 -1475 0
-1531 -1359 437 0
-1531 1359 -437 0
1531 1359 437 0
1531 -1359 -437 0
-1532 -315 -428 0
-1532 315 428 0
1532 315 -428 0
1532 -315 428 0
-1533 -596 -411 0
-1533 596 411 0
1533 596 -411 0
1533 -596 411 0
-1534 -992 0
-1534 940 0
1534 992 -940 0
-1535 -816 -638 0
-1535 816 638 0
1535 816 -638 0
1535 -816 638 0
-1536 348 -331 0
-1536 -348 331 0
1536 -348 -331 0
1536 348 331 0
-1537 1432 725 0
-1537 -1432 -725 0
1537 -1432 725 0
1537 1432 -725 0
-1538 -294 0
-1538 741 0
1538 294 -741 0
-1539 -1045 232 0
-1539 1045 -232 0
1539 1045 232 0
1539 -1045 -232 0
-1540 -555 321 0
-1540 555 -321 0
1540 555 321 0
1540 -555 -321 0
-1541 1492 0
-1541 969 0
1541 -1492 -969 0
-1542 -1118 -708 0
-1542 1118 708 0
1542 1118 -708 0
1542 -1118 708 0
-1543 -975 1123 0
-1543 975 -1123 0
1543 975 1123 0
1543 -975 -1123 0
-1544 1542 400 0
-1544 -1542 -400 0
1544 -1542 400 0
1544 1542 -400 0
-1545 248 -671 0
-1545 -248 671 0
1545 -248 -671 0
1545 248 671 0
-1546 -890 10 0
-1546 890 -10 0
1546 890 10 0
1546 -890 -10 0
-1547 -162 0
-1547 -1138 0
1547 162 1138 0
-1548 -1220 0
-1548 -388 0
1548 1220 388 0
-1549 -948 152 0
-1549 948 -152 0
1549 948 152 0
1549 -948 -152 0
-1550 1475 1008 0
-1550 -1475 -1008 0
1550 -1475 1008 0
1550 1475 -1008 0
-1551 1442 490 0
-1551 -1442 -490 0
1551 -1442 490 0
1551 1442 -490 0
-1552 792 194 0
-1552 -792 -194 0
1552 -792 194 0
1552 792 -194 0
-1553 1464 0
-1553 -12 0
1553 -1464 12 0
-1554 -917 -1456 0
-1554 917 1456 0
1554 917 -1456 0
1554 -917 1456 0
-1555 250 280 0
-1555 -250 -280 0
1555 -250 280 0
1555 250 -280 0
-1556 -596 0
-1556 940 0
1556 596 -940 0
-1557 731 1097 0
-1557 -731 -1097 0
1557 -731 1097 0
1557 731 -1097 0
-1558 371 0
-1558 -315 0
1558 -371 315 0
-1559 1096 1151 0
-1559 -1096 -1151 0
1559 -1096 1151 0
1559 1096 -1151 0
-1560 395 939 0
-1560 -395 -939 0
1560 -395 939 0
1560 395 -939 0
-1561 60 -451 0
-1561 -60 451 0
1561 -60 -451 0
1561 60 451 0
-1562 -188 1286 0
-1562 188 -1286 0
1562 188 1286 0
1562 -188 -1286 0
-1499 0
-1500 0
-1501 0
-1502 0
1503 0
-1504 0
1505 0
-1506 0
-1507 0
1508 0
1509 0
-1510 0
-1511 0
1512 0
-1513 0
1514 0
1515 0
-1516 0
1517 0
-1518 0
-1519 0
1520 0
1521 0
-1522 0
-1523 0
-1524 0
-1525 0
-1526 0
-1527 0
-1528 0
-1529 0
-1530 0
1531 0
1532 0
1533 0
-1534 0
1535 0
-1536 0
-1537 0
-1538 0
1539 0
-1540 0
-1541 0
1542 0
1543 0
1544 0
1545 0
-1546 0
-1547 0
-1548 0
-1549 0
-1550 0
-1551 0
1552 0
-1553 0
1554 0
-1555 0
1556 0
-1557 0
-1558 0
-1559 0
-1560 0
-1561 0
1562 0
