c xor-heavy random circuit, inputs=96 gates=2500, last 96 signals pinned to a planted input assignment; input variables are 1..96
c generated by TurboCryptoSAT gen-benchmark - satisfiable by construction
p cnf 2590 9351
-97 -71 0
-97 82 0
97 71 -82 0
-98 57 -38 0
-98 -57 38 0
98 -57 -38 0
98 57 38 0
-99 -88 90 0
-99 88 -90 0
99 88 90 0
99 -88 -90 0
-100 18 44 0
-100 -18 -44 0
100 -18 44 0
100 18 -44 0
-101 -76 43 0
-101 76 -43 0
101 76 43 0
101 -76 -43 0
-102 -72 0
-102 -91 0
102 72 91 0
-103 95 -26 0
-103 -95 26 0
103 -95 -26 0
103 95 26 0
-104 -55 0
-104 65 0
104 55 -65 0
-105 -36 -40 0
-105 36 40 0
105 36 -40 0
105 -36 40 0
-106 71 62 0
-106 -71 -62 0
106 -71 62 0
106 71 -62 0
-107 -4 -100 0
-107 4 100 0
107 4 -100 0
107 -4 100 0
-108 -98 5 0
-108 98 -5 0
108 98 5 0
108 -98 -5 0
-109 31 0
-109 -65 0
109 -31 65 0
-110 -104 -74 0
-110 104 74 0
110 104 -74 0
110 -104 74 0
-111 9 64 0
-111 -9 -64 0
111 -9 64 0
111 9 -64 0
-112 66 0
-112 -4 0
112 -66 4 0
-113 45 0
-113 21 0
113 -45 -21 0
-114 -32 29 0
-114 32 -29 0
114 32 29 0
114 -32 -29 0
-115 -59 0
-115 89 0
115 59 -89 0
-116 -17 89 0
-116 17 -89 0
116 17 89 0
116 -17 -89 0
-117 85 -4 0
-117 -85 4 0
117 -85 -4 0
117 85 4 0
-118 95 43 0
-118 -95 -43 0
118 -95 43 0
118 95 -43 0
-119 -85 0
-119 -62 0
119 85 62 0
-120 -9 57 0
-120 9 -57 0
120 9 57 0
120 -9 -57 0
-121 -37 -65 0
-121 37 65 0
121 37 -65 0
121 -37 65 0
-122 6 0
-122 -58 0
122 -6 58 0
-123 46 111 0
-123 -46 -111 0
123 -46 111 0
123 46 -111 0
-124 -114 0
-124 76 0
124 114 -76 0
-125 49 97 0
-125 -49 -97 0
125 -49 97 0
125 49 -97 0
-126 -110 18 0
-126 110 -18 0
126 110 18 0
126 -110 -18 0
-127 99 113 0
-127 -99 -113 0
127 -99 113 0
127 99 -113 0
-128 46 -44 0
-128 -46 44 0
128 -46 -44 0
128 46 44 0
-129 86 0
-129 -14 0
129 -86 14 0
-130 124 80 0
-130 -124 -80 0
130 -124 80 0
130 124 -80 0
-131 -92 0
-131 -17 0
131 92 17 0
-132 -88 -100 0
-132 88 100 0
132 88 -100 0
132 -88 100 0
-133 -122 0
-133 46 0
133 122 -46 0
-134 132 37 0
-134 -132 -37 0
134 -132 37 0
134 132 -37 0
-135 -98 0
-135 73 0
135 98 -73 0
-136 -6 -13 0
-136 6 13 0
136 6 -13 0
136 -6 13 0
-137 -9 2 0
-137 9 -2 0
137 9 2 0
137 -9 -2 0
-138 135 0
-138 37 0
138 -135 -37 0
-139 70 112 0
-139 -70 -112 0
139 -70 112 0
139 70 -112 0
-140 66 0
-140 68 0
140 -66 -68 0
-141 -108 0
-141 -139 0
141 108 139 0
-142 20 -32 0
-142 -20 32 0
142 -20 -32 0
142 20 32 0
-143 -112 113 0
-143 112 -113 0
143 112 113 0
143 -112 -113 0
-144 68 0
-144 -103 0
144 -68 103 0
-145 93 31 0
-145 -93 -31 0
145 -93 31 0
145 93 -31 0
-146 -71 -135 0
-146 71 135 0
146 71 -135 0
146 -71 135 0
-147 77 95 0
-147 -77 -95 0
147 -77 95 0
147 77 -95 0
-148 -10 0
-148 -49 0
148 10 49 0
-149 -60 0
-149 63 0
149 60 -63 0
-150 23 0
-150 -119 0
150 -23 119 0
-151 -102 -98 0
-151 102 98 0
151 102 -98 0
151 -102 98 0
-152 -130 -46 0
-152 130 46 0
152 130 -46 0
152 -130 46 0
-153 -86 -98 0
-153 86 98 0
153 86 -98 0
153 -86 98 0
-154 -148 45 0
-154 148 -45 0
154 148 45 0
154 -148 -45 0
-155 -59 133 0
-155 59 -133 0
155 59 133 0
155 -59 -133 0
-156 153 0
-156 148 0
156 -153 -148 0
-157 -27 136 0
-157 27 -136 0
157 27 136 0
157 -27 -136 0
-158 113 -66 0
-158 -113 66 0
158 -113 -66 0
158 113 66 0
-159 -146 47 0
-159 146 -47 0
159 146 47 0
159 -146 -47 0
-160 94 -143 0
-160 -94 143 0
160 -94 -143 0
160 94 143 0
-161 110 0
-161 7 0
161 -110 -7 0
-162 141 61 0
-162 -141 -61 0
162 -141 61 0
162 141 -61 0
-163 -86 58 0
-163 86 -58 0
163 86 58 0
163 -86 -58 0
-164 37 0
-164 127 0
164 -37 -127 0
-165 -9 0
-165 -127 0
165 9 127 0
-166 -105 -8 0
-166 105 8 0
166 105 -8 0
166 -105 8 0
-167 23 0
-167 146 0
167 -23 -146 0
-168 -79 0
-168 19 0
168 79 -19 0
-169 5 39 0
-169 -5 -39 0
169 -5 39 0
169 5 -39 0
-170 -44 -84 0
-170 44 84 0
170 44 -84 0
170 -44 84 0
-171 103 92 0
-171 -103 -92 0
171 -103 92 0
171 103 -92 0
-172 169 0
-172 156 0
172 -169 -156 0
-173 -169 114 0
-173 169 -114 0
173 169 114 0
173 -169 -114 0
-174 -9 -97 0
-174 9 97 0
174 9 -97 0
174 -9 97 0
-175 -114 0
-175 111 0
175 114 -111 0
-176 70 -54 0
-176 -70 54 0
176 -70 -54 0
176 70 54 0
-177 36 -30 0
-177 -36 30 0
177 -36 -30 0
177 36 30 0
-178 -63 140 0
-178 63 -140 0
178 63 140 0
178 -63 -140 0
-179 -111 -112 0
-179 111 112 0
179 111 -112 0
179 -111 112 0
-180 -27 -3 0
-180 27 3 0
180 27 -3 0
180 -27 3 0
-181 -142 -131 0
-181 142 131 0
181 142 -131 0
181 -142 131 0
-182 21 81 0
-182 -21 -81 0
182 -21 81 0
182 21 -81 0
-183 51 20 0
-183 -51 -20 0
183 -51 20 0
183 51 -20 0
-184 -9 0
-184 -52 0
184 9 52 0
-185 -169 88 0
-185 169 -88 0
185 169 88 0
185 -169 -88 0
-186 -36 0
-186 -116 0
186 36 116 0
-187 59 160 0
-187 -59 -160 0
187 -59 160 0
187 59 -160 0
-188 -7 8 0
-188 7 -8 0
188 7 8 0
188 -7 -8 0
-189 136 0
-189 -183 0
189 -136 183 0
-190 114 90 0
-190 -114 -90 0
190 -114 90 0
190 114 -90 0
-191 -59 132 0
-191 59 -132 0
191 59 132 0
191 -59 -132 0
-192 -43 24 0
-192 43 -24 0
192 43 24 0
192 -43 -24 0
-193 24 -82 0
-193 -24 82 0
193 -24 -82 0
193 24 82 0
-194 80 179 0
-194 -80 -179 0
194 -80 179 0
194 80 -179 0
-195 172 -9 0
-195 -172 9 0
195 -172 -9 0
195 172 9 0
-196 109 0
-196 -163 0
196 -109 163 0
-197 53 110 0
-197 -53 -110 0
197 -53 110 0
197 53 -110 0
-198 -13 25 0
-198 13 -25 0
198 13 25 0
198 -13 -25 0
-199 103 -102 0
-199 -103 102 0
199 -103 -102 0
199 103 102 0
-200 90 163 0
-200 -90 -163 0
200 -90 163 0
200 90 -163 0
-201 -181 0
-201 -183 0
201 181 183 0
-202 -35 -10 0
-202 35 10 0
202 35 -10 0
202 -35 10 0
-203 -182 0
-203 -154 0
203 182 154 0
-204 -134 -67 0
-204 134 67 0
204 134 -67 0
204 -134 67 0
-205 135 0
-205 -11 0
205 -135 11 0
-206 -178 80 0
-206 178 -80 0
206 178 80 0
206 -178 -80 0
-207 -47 0
-207 12 0
207 47 -12 0
-208 -152 0
-208 -84 0
208 152 84 0
-209 123 0
-209 202 0
209 -123 -202 0
-210 -179 -193 0
-210 179 193 0
210 179 -193 0
210 -179 193 0
-211 -28 -33 0
-211 28 33 0
211 28 -33 0
211 -28 33 0
-212 -88 -113 0
-212 88 113 0
212 88 -113 0
212 -88 113 0
-213 194 -145 0
-213 -194 145 0
213 -194 -145 0
213 194 145 0
-214 44 0
-214 -62 0
214 -44 62 0
-215 91 174 0
-215 -91 -174 0
215 -91 174 0
215 91 -174 0
-216 -163 -139 0
-216 163 139 0
216 163 -139 0
216 -163 139 0
-217 48 -138 0
-217 -48 138 0
217 -48 -138 0
217 48 138 0
-218 128 0
-218 18 0
218 -128 -18 0
-219 195 187 0
-219 -195 -187 0
219 -195 187 0
219 195 -187 0
-220 -98 -188 0
-220 98 188 0
220 98 -188 0
220 -98 188 0
-221 133 0
-221 -196 0
221 -133 196 0
-222 -10 0
-222 -70 0
222 10 70 0
-223 136 0
-223 95 0
223 -136 -95 0
-224 -37 0
-224 -107 0
224 37 107 0
-225 -202 107 0
-225 202 -107 0
225 202 107 0
225 -202 -107 0
-226 22 0
-226 -107 0
226 -22 107 0
-227 -169 0
-227 -147 0
227 169 147 0
-228 -156 111 0
-228 156 -111 0
228 156 111 0
228 -156 -111 0
-229 -36 0
-229 -139 0
229 36 139 0
-230 152 0
-230 -153 0
230 -152 153 0
-231 117 222 0
-231 -117 -222 0
231 -117 222 0
231 117 -222 0
-232 94 72 0
-232 -94 -72 0
232 -94 72 0
232 94 -72 0
-233 -120 171 0
-233 120 -171 0
233 120 171 0
233 -120 -171 0
-234 51 -92 0
-234 -51 92 0
234 -51 -92 0
234 51 92 0
-235 180 0
-235 -99 0
235 -180 99 0
-236 20 0
-236 84 0
236 -20 -84 0
-237 -121 211 0
-237 121 -211 0
237 121 211 0
237 -121 -211 0
-238 80 -70 0
-238 -80 70 0
238 -80 -70 0
238 80 70 0
-239 208 0
-239 -147 0
239 -208 147 0
-240 -211 -36 0
-240 211 36 0
240 211 -36 0
240 -211 36 0
-241 -192 92 0
-241 192 -92 0
241 192 92 0
241 -192 -92 0
-242 -210 -218 0
-242 210 218 0
242 210 -218 0
242 -210 218 0
-243 86 34 0
-243 -86 -34 0
243 -86 34 0
243 86 -34 0
-244 -129 0
-244 219 0
244 129 -219 0
-245 43 0
-245 -74 0
245 -43 74 0
-246 -167 37 0
-246 167 -37 0
246 167 37 0
246 -167 -37 0
-247 184 32 0
-247 -184 -32 0
247 -184 32 0
247 184 -32 0
-248 102 -236 0
-248 -102 236 0
248 -102 -236 0
248 102 236 0
-249 77 0
-249 -164 0
249 -77 164 0
-250 7 -163 0
-250 -7 163 0
250 -7 -163 0
250 7 163 0
-251 96 189 0
-251 -96 -189 0
251 -96 189 0
251 96 -189 0
-252 -193 0
-252 103 0
252 193 -103 0
-253 33 127 0
-253 -33 -127 0
253 -33 127 0
253 33 -127 0
-254 134 -156 0
-254 -134 156 0
254 -134 -156 0
254 134 156 0
-255 -231 -204 0
-255 231 204 0
255 231 -204 0
255 -231 204 0
-256 -238 -26 0
-256 238 26 0
256 238 -26 0
256 -238 26 0
-257 -67 -111 0
-257 67 111 0
257 67 -111 0
257 -67 111 0
-258 -141 43 0
-258 141 -43 0
258 141 43 0
258 -141 -43 0
-259 123 0
-259 247 0
259 -123 -247 0
-260 134 238 0
-260 -134 -238 0
260 -134 238 0
260 134 -238 0
-261 20 -178 0
-261 -20 178 0
261 -20 -178 0
261 20 178 0
-262 -96 -72 0
-262 96 72 0
262 96 -72 0
262 -96 72 0
-263 -100 241 0
-263 100 -241 0
263 100 241 0
263 -100 -241 0
-264 -107 -128 0
-264 107 128 0
264 107 -128 0
264 -107 128 0
-265 -25 246 0
-265 25 -246 0
265 25 246 0
265 -25 -246 0
-266 9 78 0
-266 -9 -78 0
266 -9 78 0
266 9 -78 0
-267 31 0
-267 79 0
267 -31 -79 0
-268 11 -37 0
-268 -11 37 0
268 -11 -37 0
268 11 37 0
-269 -213 53 0
-269 213 -53 0
269 213 53 0
269 -213 -53 0
-270 53 0
-270 142 0
270 -53 -142 0
-271 -255 -181 0
-271 255 181 0
271 255 -181 0
271 -255 181 0
-272 145 24 0
-272 -145 -24 0
272 -145 24 0
272 145 -24 0
-273 177 90 0
-273 -177 -90 0
273 -177 90 0
273 177 -90 0
-274 -248 0
-274 -66 0
274 248 66 0
-275 8 -167 0
-275 -8 167 0
275 -8 -167 0
275 8 167 0
-276 257 -231 0
-276 -257 231 0
276 -257 -231 0
276 257 231 0
-277 -207 242 0
-277 207 -242 0
277 207 242 0
277 -207 -242 0
-278 -157 240 0
-278 157 -240 0
278 157 240 0
278 -157 -240 0
-279 15 188 0
-279 -15 -188 0
279 -15 188 0
279 15 -188 0
-280 135 230 0
-280 -135 -230 0
280 -135 230 0
280 135 -230 0
-281 -251 183 0
-281 251 -183 0
281 251 183 0
281 -251 -183 0
-282 210 -38 0
-282 -210 38 0
282 -210 -38 0
282 210 38 0
-283 -9 -119 0
-283 9 119 0
283 9 -119 0
283 -9 119 0
-284 108 -245 0
-284 -108 245 0
284 -108 -245 0
284 108 245 0
-285 -150 52 0
-285 150 -52 0
285 150 52 0
285 -150 -52 0
-286 214 116 0
-286 -214 -116 0
286 -214 116 0
286 214 -116 0
-287 250 0
-287 -77 0
287 -250 77 0
-288 -197 273 0
-288 197 -273 0
288 197 273 0
288 -197 -273 0
-289 284 0
-289 286 0
289 -284 -286 0
-290 -64 0
-290 -283 0
290 64 283 0
-291 -126 13 0
-291 126 -13 0
291 126 13 0
291 -126 -13 0
-292 208 0
-292 -232 0
292 -208 232 0
-293 -183 0
-293 -193 0
293 183 193 0
-294 130 277 0
-294 -130 -277 0
294 -130 277 0
294 130 -277 0
-295 -247 -59 0
-295 247 59 0
295 247 -59 0
295 -247 59 0
-296 -213 -148 0
-296 213 148 0
296 213 -148 0
296 -213 148 0
-297 143 0
-297 -69 0
297 -143 69 0
-298 -53 -71 0
-298 53 71 0
298 53 -71 0
298 -53 71 0
-299 47 -112 0
-299 -47 112 0
299 -47 -112 0
299 47 112 0
-300 18 -297 0
-300 -18 297 0
300 -18 -297 0
300 18 297 0
-301 253 -291 0
-301 -253 291 0
301 -253 -291 0
301 253 291 0
-302 -292 151 0
-302 292 -151 0
302 292 151 0
302 -292 -151 0
-303 196 0
-303 -208 0
303 -196 208 0
-304 104 0
-304 92 0
304 -104 -92 0
-305 -147 -159 0
-305 147 159 0
305 147 -159 0
305 -147 159 0
-306 66 0
-306 -12 0
306 -66 12 0
-307 57 -200 0
-307 -57 200 0
307 -57 -200 0
307 57 200 0
-308 150 31 0
-308 -150 -31 0
308 -150 31 0
308 150 -31 0
-309 267 -63 0
-309 -267 63 0
309 -267 -63 0
309 267 63 0
-310 -261 -128 0
-310 261 128 0
310 261 -128 0
310 -261 128 0
-311 89 -198 0
-311 -89 198 0
311 -89 -198 0
311 89 198 0
-312 -7 0
-312 -2 0
312 7 2 0
-313 -176 4 0
-313 176 -4 0
313 176 4 0
313 -176 -4 0
-314 -159 -266 0
-314 159 266 0
314 159 -266 0
314 -159 266 0
-315 11 0
-315 -81 0
315 -11 81 0
-316 -232 -64 0
-316 232 64 0
316 232 -64 0
316 -232 64 0
-317 -9 0
-317 158 0
317 9 -158 0
-318 199 73 0
-318 -199 -73 0
318 -199 73 0
318 199 -73 0
-319 77 42 0
-319 -77 -42 0
319 -77 42 0
319 77 -42 0
-320 113 35 0
-320 -113 -35 0
320 -113 35 0
320 113 -35 0
-321 -298 26 0
-321 298 -26 0
321 298 26 0
321 -298 -26 0
-322 220 264 0
-322 -220 -264 0
322 -220 264 0
322 220 -264 0
-323 -187 37 0
-323 187 -37 0
323 187 37 0
323 -187 -37 0
-324 186 255 0
-324 -186 -255 0
324 -186 255 0
324 186 -255 0
-325 200 0
-325 186 0
325 -200 -186 0
-326 -164 0
-326 -71 0
326 164 71 0
-327 -111 0
-327 -237 0
327 111 237 0
-328 -163 -227 0
-328 163 227 0
328 163 -227 0
328 -163 227 0
-329 -220 129 0
-329 220 -129 0
329 220 129 0
329 -220 -129 0
-330 -238 195 0
-330 238 -195 0
330 238 195 0
330 -238 -195 0
-331 -321 169 0
-331 321 -169 0
331 321 169 0
331 -321 -169 0
-332 -243 0
-332 -41 0
332 243 41 0
-333 80 -172 0
-333 -80 172 0
333 -80 -172 0
333 80 172 0
-334 211 102 0
-334 -211 -102 0
334 -211 102 0
334 211 -102 0
-335 329 0
-335 -64 0
335 -329 64 0
-336 -137 238 0
-336 137 -238 0
336 137 238 0
336 -137 -238 0
-337 65 -85 0
-337 -65 85 0
337 -65 -85 0
337 65 85 0
-338 100 0
-338 -60 0
338 -100 60 0
-339 -105 -250 0
-339 105 250 0
339 105 -250 0
339 -105 250 0
-340 -316 0
-340 -174 0
340 316 174 0
-341 25 0
-341 113 0
341 -25 -113 0
-342 -208 239 0
-342 208 -239 0
342 208 239 0
342 -208 -239 0
-343 55 0
-343 -42 0
343 -55 42 0
-344 -22 133 0
-344 22 -133 0
344 22 133 0
344 -22 -133 0
-345 -328 64 0
-345 328 -64 0
345 328 64 0
345 -328 -64 0
-346 188 -208 0
-346 -188 208 0
346 -188 -208 0
346 188 208 0
-347 26 -257 0
-347 -26 257 0
347 -26 -257 0
347 26 257 0
-348 -336 191 0
-348 336 -191 0
348 336 191 0
348 -336 -191 0
-349 83 -10 0
-349 -83 10 0
349 -83 -10 0
349 83 10 0
-350 90 -122 0
-350 -90 122 0
350 -90 -122 0
350 90 122 0
-351 -28 0
-351 -233 0
351 28 233 0
-352 -225 0
-352 227 0
352 225 -227 0
-353 87 112 0
-353 -87 -112 0
353 -87 112 0
353 87 -112 0
-354 -327 171 0
-354 327 -171 0
354 327 171 0
354 -327 -171 0
-355 -170 147 0
-355 170 -147 0
355 170 147 0
355 -170 -147 0
-356 44 0
-356 33 0
356 -44 -33 0
-357 230 0
-357 -120 0
357 -230 120 0
-358 -332 -323 0
-358 332 323 0
358 332 -323 0
358 -332 323 0
-359 82 -321 0
-359 -82 321 0
359 -82 -321 0
359 82 321 0
-360 130 0
-360 -220 0
360 -130 220 0
-361 260 0
-361 -214 0
361 -260 214 0
-362 -140 -170 0
-362 140 170 0
362 140 -170 0
362 -140 170 0
-363 -32 201 0
-363 32 -201 0
363 32 201 0
363 -32 -201 0
-364 -170 166 0
-364 170 -166 0
364 170 166 0
364 -170 -166 0
-365 69 64 0
-365 -69 -64 0
365 -69 64 0
365 69 -64 0
-366 -345 -344 0
-366 345 344 0
366 345 -344 0
366 -345 344 0
-367 293 314 0
-367 -293 -314 0
367 -293 314 0
367 293 -314 0
-368 -365 -301 0
-368 365 301 0
368 365 -301 0
368 -365 301 0
-369 358 13 0
-369 -358 -13 0
369 -358 13 0
369 358 -13 0
-370 -56 -366 0
-370 56 366 0
370 56 -366 0
370 -56 366 0
-371 336 -147 0
-371 -336 147 0
371 -336 -147 0
371 336 147 0
-372 -307 212 0
-372 307 -212 0
372 307 212 0
372 -307 -212 0
-373 -192 86 0
-373 192 -86 0
373 192 86 0
373 -192 -86 0
-374 130 -25 0
-374 -130 25 0
374 -130 -25 0
374 130 25 0
-375 -270 369 0
-375 270 -369 0
375 270 369 0
375 -270 -369 0
-376 -249 139 0
-376 249 -139 0
376 249 139 0
376 -249 -139 0
-377 -67 344 0
-377 67 -344 0
377 67 344 0
377 -67 -344 0
-378 -176 0
-378 -340 0
378 176 340 0
-379 -70 -103 0
-379 70 103 0
379 70 -103 0
379 -70 103 0
-380 218 109 0
-380 -218 -109 0
380 -218 109 0
380 218 -109 0
-381 29 262 0
-381 -29 -262 0
381 -29 262 0
381 29 -262 0
-382 -187 -50 0
-382 187 50 0
382 187 -50 0
382 -187 50 0
-383 -309 -353 0
-383 309 353 0
383 309 -353 0
383 -309 353 0
-384 239 59 0
-384 -239 -59 0
384 -239 59 0
384 239 -59 0
-385 -77 0
-385 326 0
385 77 -326 0
-386 -285 0
-386 220 0
386 285 -220 0
-387 291 -7 0
-387 -291 7 0
387 -291 -7 0
387 291 7 0
-388 -121 0
-388 -59 0
388 121 59 0
-389 240 -249 0
-389 -240 249 0
389 -240 -249 0
389 240 249 0
-390 296 -295 0
-390 -296 295 0
390 -296 -295 0
390 296 295 0
-391 295 156 0
-391 -295 -156 0
391 -295 156 0
391 295 -156 0
-392 -247 0
-392 -113 0
392 247 113 0
-393 203 49 0
-393 -203 -49 0
393 -203 49 0
393 203 -49 0
-394 -99 282 0
-394 99 -282 0
394 99 282 0
394 -99 -282 0
-395 316 -79 0
-395 -316 79 0
395 -316 -79 0
395 316 79 0
-396 -283 -101 0
-396 283 101 0
396 283 -101 0
396 -283 101 0
-397 381 0
-397 307 0
397 -381 -307 0
-398 -225 -72 0
-398 225 72 0
398 225 -72 0
398 -225 72 0
-399 149 268 0
-399 -149 -268 0
399 -149 268 0
399 149 -268 0
-400 -376 0
-400 -338 0
400 376 338 0
-401 277 -226 0
-401 -277 226 0
401 -277 -226 0
401 277 226 0
-402 -70 0
-402 350 0
402 70 -350 0
-403 -118 -355 0
-403 118 355 0
403 118 -355 0
403 -118 355 0
-404 117 -370 0
-404 -117 370 0
404 -117 -370 0
404 117 370 0
-405 -216 0
-405 29 0
405 216 -29 0
-406 100 383 0
-406 -100 -383 0
406 -100 383 0
406 100 -383 0
-407 -393 374 0
-407 393 -374 0
407 393 374 0
407 -393 -374 0
-408 285 399 0
-408 -285 -399 0
408 -285 399 0
408 285 -399 0
-409 310 174 0
-409 -310 -174 0
409 -310 174 0
409 310 -174 0
-410 -379 0
-410 -375 0
410 379 375 0
-411 -178 -50 0
-411 178 50 0
411 178 -50 0
411 -178 50 0
-412 -89 122 0
-412 89 -122 0
412 89 122 0
412 -89 -122 0
-413 -238 407 0
-413 238 -407 0
413 238 407 0
413 -238 -407 0
-414 -80 257 0
-414 80 -257 0
414 80 257 0
414 -80 -257 0
-415 75 390 0
-415 -75 -390 0
415 -75 390 0
415 75 -390 0
-416 376 -191 0
-416 -376 191 0
416 -376 -191 0
416 376 191 0
-417 -162 0
-417 -144 0
417 162 144 0
-418 220 0
-418 129 0
418 -220 -129 0
-419 37 326 0
-419 -37 -326 0
419 -37 326 0
419 37 -326 0
-420 273 409 0
-420 -273 -409 0
420 -273 409 0
420 273 -409 0
-421 162 0
-421 303 0
421 -162 -303 0
-422 -208 -360 0
-422 208 360 0
422 208 -360 0
422 -208 360 0
-423 419 359 0
-423 -419 -359 0
423 -419 359 0
423 419 -359 0
-424 -47 15 0
-424 47 -15 0
424 47 15 0
424 -47 -15 0
-425 -55 -373 0
-425 55 373 0
425 55 -373 0
425 -55 373 0
-426 -291 -74 0
-426 291 74 0
426 291 -74 0
426 -291 74 0
-427 94 0
-427 79 0
427 -94 -79 0
-428 -396 281 0
-428 396 -281 0
428 396 281 0
428 -396 -281 0
-429 -235 -107 0
-429 235 107 0
429 235 -107 0
429 -235 107 0
-430 277 -195 0
-430 -277 195 0
430 -277 -195 0
430 277 195 0
-431 96 354 0
-431 -96 -354 0
431 -96 354 0
431 96 -354 0
-432 -32 0
-432 -57 0
432 32 57 0
-433 -262 -49 0
-433 262 49 0
433 262 -49 0
433 -262 49 0
-434 425 0
-434 -29 0
434 -425 29 0
-435 155 -232 0
-435 -155 232 0
435 -155 -232 0
435 155 232 0
-436 -126 -282 0
-436 126 282 0
436 126 -282 0
436 -126 282 0
-437 381 49 0
-437 -381 -49 0
437 -381 49 0
437 381 -49 0
-438 209 0
-438 295 0
438 -209 -295 0
-439 -15 433 0
-439 15 -433 0
439 15 433 0
439 -15 -433 0
-440 415 0
-440 -161 0
440 -415 161 0
-441 267 -37 0
-441 -267 37 0
441 -267 -37 0
441 267 37 0
-442 -164 -27 0
-442 164 27 0
442 164 -27 0
442 -164 27 0
-443 207 -210 0
-443 -207 210 0
443 -207 -210 0
443 207 210 0
-444 441 20 0
-444 -441 -20 0
444 -441 20 0
444 441 -20 0
-445 163 -236 0
-445 -163 236 0
445 -163 -236 0
445 163 236 0
-446 -429 119 0
-446 429 -119 0
446 429 119 0
446 -429 -119 0
-447 263 0
-447 -24 0
447 -263 24 0
-448 238 -74 0
-448 -238 74 0
448 -238 -74 0
448 238 74 0
-449 -301 336 0
-449 301 -336 0
449 301 336 0
449 -301 -336 0
-450 184 446 0
-450 -184 -446 0
450 -184 446 0
450 184 -446 0
-451 -241 -75 0
-451 241 75 0
451 241 -75 0
451 -241 75 0
-452 -389 145 0
-452 389 -145 0
452 389 145 0
452 -389 -145 0
-453 -181 0
-453 353 0
453 181 -353 0
-454 390 -391 0
-454 -390 391 0
454 -390 -391 0
454 390 391 0
-455 -364 -202 0
-455 364 202 0
455 364 -202 0
455 -364 202 0
-456 269 338 0
-456 -269 -338 0
456 -269 338 0
456 269 -338 0
-457 130 442 0
-457 -130 -442 0
457 -130 442 0
457 130 -442 0
-458 -290 0
-458 -257 0
458 290 257 0
-459 452 -149 0
-459 -452 149 0
459 -452 -149 0
459 452 149 0
-460 -348 -353 0
-460 348 353 0
460 348 -353 0
460 -348 353 0
-461 -194 0
-461 400 0
461 194 -400 0
-462 183 0
-462 298 0
462 -183 -298 0
-463 407 -167 0
-463 -407 167 0
463 -407 -167 0
463 407 167 0
-464 147 -396 0
-464 -147 396 0
464 -147 -396 0
464 147 396 0
-465 -335 -92 0
-465 335 92 0
465 335 -92 0
465 -335 92 0
-466 356 -89 0
-466 -356 89 0
466 -356 -89 0
466 356 89 0
-467 405 411 0
-467 -405 -411 0
467 -405 411 0
467 405 -411 0
-468 135 326 0
-468 -135 -326 0
468 -135 326 0
468 135 -326 0
-469 133 -440 0
-469 -133 440 0
469 -133 -440 0
469 133 440 0
-470 16 0
-470 87 0
470 -16 -87 0
-471 -466 0
-471 302 0
471 466 -302 0
-472 -212 0
-472 -39 0
472 212 39 0
-473 -335 262 0
-473 335 -262 0
473 335 262 0
473 -335 -262 0
-474 -185 360 0
-474 185 -360 0
474 185 360 0
474 -185 -360 0
-475 418 18 0
-475 -418 -18 0
475 -418 18 0
475 418 -18 0
-476 -194 -308 0
-476 194 308 0
476 194 -308 0
476 -194 308 0
-477 -146 -282 0
-477 146 282 0
477 146 -282 0
477 -146 282 0
-478 -315 -225 0
-478 315 225 0
478 315 -225 0
478 -315 225 0
-479 420 274 0
-479 -420 -274 0
479 -420 274 0
479 420 -274 0
-480 220 -146 0
-480 -220 146 0
480 -220 -146 0
480 220 146 0
-481 -113 221 0
-481 113 -221 0
481 113 221 0
481 -113 -221 0
-482 410 -171 0
-482 -410 171 0
482 -410 -171 0
482 410 171 0
-483 -322 -435 0
-483 322 435 0
483 322 -435 0
483 -322 435 0
-484 130 456 0
-484 -130 -456 0
484 -130 456 0
484 130 -456 0
-485 -269 291 0
-485 269 -291 0
485 269 291 0
485 -269 -291 0
-486 150 -454 0
-486 -150 454 0
486 -150 -454 0
486 150 454 0
-487 -28 -448 0
-487 28 448 0
487 28 -448 0
487 -28 448 0
-488 332 -224 0
-488 -332 224 0
488 -332 -224 0
488 332 224 0
-489 -192 -472 0
-489 192 472 0
489 192 -472 0
489 -192 472 0
-490 98 119 0
-490 -98 -119 0
490 -98 119 0
490 98 -119 0
-491 -373 -313 0
-491 373 313 0
491 373 -313 0
491 -373 313 0
-492 -113 226 0
-492 113 -226 0
492 113 226 0
492 -113 -226 0
-493 -474 -172 0
-493 474 172 0
493 474 -172 0
493 -474 172 0
-494 109 0
-494 -478 0
494 -109 478 0
-495 -340 -84 0
-495 340 84 0
495 340 -84 0
495 -340 84 0
-496 403 160 0
-496 -403 -160 0
496 -403 160 0
496 403 -160 0
-497 -318 -195 0
-497 318 195 0
497 318 -195 0
497 -318 195 0
-498 -234 -204 0
-498 234 204 0
498 234 -204 0
498 -234 204 0
-499 -427 109 0
-499 427 -109 0
499 427 109 0
499 -427 -109 0
-500 461 0
-500 -253 0
500 -461 253 0
-501 -180 253 0
-501 180 -253 0
501 180 253 0
501 -180 -253 0
-502 216 25 0
-502 -216 -25 0
502 -216 25 0
502 216 -25 0
-503 -204 250 0
-503 204 -250 0
503 204 250 0
503 -204 -250 0
-504 -395 -211 0
-504 395 211 0
504 395 -211 0
504 -395 211 0
-505 -374 -28 0
-505 374 28 0
505 374 -28 0
505 -374 28 0
-506 19 271 0
-506 -19 -271 0
506 -19 271 0
506 19 -271 0
-507 -222 0
-507 -367 0
507 222 367 0
-508 -336 193 0
-508 336 -193 0
508 336 193 0
508 -336 -193 0
-509 -370 110 0
-509 370 -110 0
509 370 110 0
509 -370 -110 0
-510 -310 -111 0
-510 310 111 0
510 310 -111 0
510 -310 111 0
-511 417 -20 0
-511 -417 20 0
511 -417 -20 0
511 417 20 0
-512 145 0
-512 469 0
512 -145 -469 0
-513 -237 0
-513 77 0
513 237 -77 0
-514 -383 -332 0
-514 383 332 0
514 383 -332 0
514 -383 332 0
-515 163 0
-515 -340 0
515 -163 340 0
-516 -278 226 0
-516 278 -226 0
516 278 226 0
516 -278 -226 0
-517 120 0
-517 -478 0
517 -120 478 0
-518 154 156 0
-518 -154 -156 0
518 -154 156 0
518 154 -156 0
-519 -300 -125 0
-519 300 125 0
519 300 -125 0
519 -300 125 0
-520 -57 -61 0
-520 57 61 0
520 57 -61 0
520 -57 61 0
-521 282 -400 0
-521 -282 400 0
521 -282 -400 0
521 282 400 0
-522 -60 0
-522 -383 0
522 60 383 0
-523 -209 -98 0
-523 209 98 0
523 209 -98 0
523 -209 98 0
-524 239 -445 0
-524 -239 445 0
524 -239 -445 0
524 239 445 0
-525 -98 414 0
-525 98 -414 0
525 98 414 0
525 -98 -414 0
-526 290 121 0
-526 -290 -121 0
526 -290 121 0
526 290 -121 0
-527 255 -437 0
-527 -255 437 0
527 -255 -437 0
527 255 437 0
-528 40 0
-528 484 0
528 -40 -484 0
-529 306 205 0
-529 -306 -205 0
529 -306 205 0
529 306 -205 0
-530 -224 200 0
-530 224 -200 0
530 224 200 0
530 -224 -200 0
-531 157 -176 0
-531 -157 176 0
531 -157 -176 0
531 157 176 0
-532 -250 -482 0
-532 250 482 0
532 250 -482 0
532 -250 482 0
-533 268 0
-533 434 0
533 -268 -434 0
-534 449 -266 0
-534 -449 266 0
534 -449 -266 0
534 449 266 0
-535 341 -235 0
-535 -341 235 0
535 -341 -235 0
535 341 235 0
-536 187 0
-536 -518 0
536 -187 518 0
-537 -413 308 0
-537 413 -308 0
537 413 308 0
537 -413 -308 0
-538 -130 0
-538 -5 0
538 130 5 0
-539 212 -264 0
-539 -212 264 0
539 -212 -264 0
539 212 264 0
-540 -100 -476 0
-540 100 476 0
540 100 -476 0
540 -100 476 0
-541 152 67 0
-541 -152 -67 0
541 -152 67 0
541 152 -67 0
-542 506 0
-542 -271 0
542 -506 271 0
-543 126 -318 0
-543 -126 318 0
543 -126 -318 0
543 126 318 0
-544 -285 -127 0
-544 285 127 0
544 285 -127 0
544 -285 127 0
-545 -343 390 0
-545 343 -390 0
545 343 390 0
545 -343 -390 0
-546 -31 109 0
-546 31 -109 0
546 31 109 0
546 -31 -109 0
-547 462 -64 0
-547 -462 64 0
547 -462 -64 0
547 462 64 0
-548 108 0
-548 455 0
548 -108 -455 0
-549 -205 0
-549 382 0
549 205 -382 0
-550 172 -525 0
-550 -172 525 0
550 -172 -525 0
550 172 525 0
-551 -297 -84 0
-551 297 84 0
551 297 -84 0
551 -297 84 0
-552 12 0
-552 -468 0
552 -12 468 0
-553 -49 282 0
-553 49 -282 0
553 49 282 0
553 -49 -282 0
-554 -49 0
-554 -34 0
554 49 34 0
-555 63 -47 0
-555 -63 47 0
555 -63 -47 0
555 63 47 0
-556 -108 -152 0
-556 108 152 0
556 108 -152 0
556 -108 152 0
-557 26 0
-557 -231 0
557 -26 231 0
-558 22 -386 0
-558 -22 386 0
558 -22 -386 0
558 22 386 0
-559 -158 -536 0
-559 158 536 0
559 158 -536 0
559 -158 536 0
-560 345 -169 0
-560 -345 169 0
560 -345 -169 0
560 345 169 0
-561 375 232 0
-561 -375 -232 0
561 -375 232 0
561 375 -232 0
-562 -32 488 0
-562 32 -488 0
562 32 488 0
562 -32 -488 0
-563 -296 -140 0
-563 296 140 0
563 296 -140 0
563 -296 140 0
-564 -128 461 0
-564 128 -461 0
564 128 461 0
564 -128 -461 0
-565 457 -518 0
-565 -457 518 0
565 -457 -518 0
565 457 518 0
-566 329 456 0
-566 -329 -456 0
566 -329 456 0
566 329 -456 0
-567 317 0
-567 141 0
567 -317 -141 0
-568 -417 0
-568 -486 0
568 417 486 0
-569 -410 -42 0
-569 410 42 0
569 410 -42 0
569 -410 42 0
-570 -252 -149 0
-570 252 149 0
570 252 -149 0
570 -252 149 0
-571 -198 0
-571 -359 0
571 198 359 0
-572 -475 -366 0
-572 475 366 0
572 475 -366 0
572 -475 366 0
-573 -75 -91 0
-573 75 91 0
573 75 -91 0
573 -75 91 0
-574 4 466 0
-574 -4 -466 0
574 -4 466 0
574 4 -466 0
-575 250 -187 0
-575 -250 187 0
575 -250 -187 0
575 250 187 0
-576 -112 464 0
-576 112 -464 0
576 112 464 0
576 -112 -464 0
-577 -524 458 0
-577 524 -458 0
577 524 458 0
577 -524 -458 0
-578 488 290 0
-578 -488 -290 0
578 -488 290 0
578 488 -290 0
-579 -504 -322 0
-579 504 322 0
579 504 -322 0
579 -504 322 0
-580 -23 0
-580 59 0
580 23 -59 0
-581 428 0
-581 90 0
581 -428 -90 0
-582 278 0
-582 202 0
582 -278 -202 0
-583 -346 567 0
-583 346 -567 0
583 346 567 0
583 -346 -567 0
-584 47 4 0
-584 -47 -4 0
584 -47 4 0
584 47 -4 0
-585 2 0
-585 198 0
585 -2 -198 0
-586 95 265 0
-586 -95 -265 0
586 -95 265 0
586 95 -265 0
-587 -112 -396 0
-587 112 396 0
587 112 -396 0
587 -112 396 0
-588 -40 0
-588 -482 0
588 40 482 0
-589 -571 -71 0
-589 571 71 0
589 571 -71 0
589 -571 71 0
-590 -472 40 0
-590 472 -40 0
590 472 40 0
590 -472 -40 0
-591 -143 0
-591 -202 0
591 143 202 0
-592 -557 -409 0
-592 557 409 0
592 557 -409 0
592 -557 409 0
-593 -391 0
-593 -349 0
593 391 349 0
-594 -40 -539 0
-594 40 539 0
594 40 -539 0
594 -40 539 0
-595 -19 -220 0
-595 19 220 0
595 19 -220 0
595 -19 220 0
-596 -584 248 0
-596 584 -248 0
596 584 248 0
596 -584 -248 0
-597 -501 -371 0
-597 501 371 0
597 501 -371 0
597 -501 371 0
-598 65 -328 0
-598 -65 328 0
598 -65 -328 0
598 65 328 0
-599 -506 -366 0
-599 506 366 0
599 506 -366 0
599 -506 366 0
-600 6 -123 0
-600 -6 123 0
600 -6 -123 0
600 6 123 0
-601 -350 -498 0
-601 350 498 0
601 350 -498 0
601 -350 498 0
-602 -576 0
-602 -181 0
602 576 181 0
-603 -332 117 0
-603 332 -117 0
603 332 117 0
603 -332 -117 0
-604 118 -155 0
-604 -118 155 0
604 -118 -155 0
604 118 155 0
-605 -295 493 0
-605 295 -493 0
605 295 493 0
605 -295 -493 0
-606 586 0
-606 393 0
606 -586 -393 0
-607 -605 239 0
-607 605 -239 0
607 605 239 0
607 -605 -239 0
-608 588 0
-608 303 0
608 -588 -303 0
-609 -26 0
-609 -400 0
609 26 400 0
-610 362 400 0
-610 -362 -400 0
610 -362 400 0
610 362 -400 0
-611 -514 -177 0
-611 514 177 0
611 514 -177 0
611 -514 177 0
-612 457 -164 0
-612 -457 164 0
612 -457 -164 0
612 457 164 0
-613 297 443 0
-613 -297 -443 0
613 -297 443 0
613 297 -443 0
-614 -500 0
-614 -192 0
614 500 192 0
-615 607 0
-615 -542 0
615 -607 542 0
-616 -262 -372 0
-616 262 372 0
616 262 -372 0
616 -262 372 0
-617 -586 -115 0
-617 586 115 0
617 586 -115 0
617 -586 115 0
-618 -102 449 0
-618 102 -449 0
618 102 449 0
618 -102 -449 0
-619 -55 431 0
-619 55 -431 0
619 55 431 0
619 -55 -431 0
-620 -222 0
-620 -322 0
620 222 322 0
-621 88 0
-621 366 0
621 -88 -366 0
-622 -228 -455 0
-622 228 455 0
622 228 -455 0
622 -228 455 0
-623 -350 -339 0
-623 350 339 0
623 350 -339 0
623 -350 339 0
-624 -519 -88 0
-624 519 88 0
624 519 -88 0
624 -519 88 0
-625 -140 -565 0
-625 140 565 0
625 140 -565 0
625 -140 565 0
-626 479 -360 0
-626 -479 360 0
626 -479 -360 0
626 479 360 0
-627 -339 180 0
-627 339 -180 0
627 339 180 0
627 -339 -180 0
-628 -23 0
-628 2 0
628 23 -2 0
-629 -392 -628 0
-629 392 628 0
629 392 -628 0
629 -392 628 0
-630 509 22 0
-630 -509 -22 0
630 -509 22 0
630 509 -22 0
-631 355 -240 0
-631 -355 240 0
631 -355 -240 0
631 355 240 0
-632 345 -373 0
-632 -345 373 0
632 -345 -373 0
632 345 373 0
-633 430 -355 0
-633 -430 355 0
633 -430 -355 0
633 430 355 0
-634 364 329 0
-634 -364 -329 0
634 -364 329 0
634 364 -329 0
-635 -45 -248 0
-635 45 248 0
635 45 -248 0
635 -45 248 0
-636 140 0
-636 -129 0
636 -140 129 0
-637 -13 -377 0
-637 13 377 0
637 13 -377 0
637 -13 377 0
-638 -612 -630 0
-638 612 630 0
638 612 -630 0
638 -612 630 0
-639 -224 105 0
-639 224 -105 0
639 224 105 0
639 -224 -105 0
-640 -133 0
-640 569 0
640 133 -569 0
-641 -136 284 0
-641 136 -284 0
641 136 284 0
641 -136 -284 0
-642 -369 414 0
-642 369 -414 0
642 369 414 0
642 -369 -414 0
-643 22 -362 0
-643 -22 362 0
643 -22 -362 0
643 22 362 0
-644 612 210 0
-644 -612 -210 0
644 -612 210 0
644 612 -210 0
-645 -358 233 0
-645 358 -233 0
645 358 233 0
645 -358 -233 0
-646 306 265 0
-646 -306 -265 0
646 -306 265 0
646 306 -265 0
-647 350 0
-647 -554 0
647 -350 554 0
-648 -421 160 0
-648 421 -160 0
648 421 160 0
648 -421 -160 0
-649 580 0
-649 -90 0
649 -580 90 0
-650 391 43 0
-650 -391 -43 0
650 -391 43 0
650 391 -43 0
-651 -425 -102 0
-651 425 102 0
651 425 -102 0
651 -425 102 0
-652 -384 0
-652 489 0
652 384 -489 0
-653 -488 338 0
-653 488 -338 0
653 488 338 0
653 -488 -338 0
-654 155 0
-654 -111 0
654 -155 111 0
-655 432 0
-655 -323 0
655 -432 323 0
-656 -280 0
-656 620 0
656 280 -620 0
-657 67 -577 0
-657 -67 577 0
657 -67 -577 0
657 67 577 0
-658 -127 596 0
-658 127 -596 0
658 127 596 0
658 -127 -596 0
-659 -92 -480 0
-659 92 480 0
659 92 -480 0
659 -92 480 0
-660 594 0
-660 -616 0
660 -594 616 0
-661 593 -53 0
-661 -593 53 0
661 -593 -53 0
661 593 53 0
-662 79 -592 0
-662 -79 592 0
662 -79 -592 0
662 79 592 0
-663 139 0
-663 238 0
663 -139 -238 0
-664 632 0
-664 -418 0
664 -632 418 0
-665 -446 -308 0
-665 446 308 0
665 446 -308 0
665 -446 308 0
-666 -106 454 0
-666 106 -454 0
666 106 454 0
666 -106 -454 0
-667 -31 -522 0
-667 31 522 0
667 31 -522 0
667 -31 522 0
-668 93 221 0
-668 -93 -221 0
668 -93 221 0
668 93 -221 0
-669 238 507 0
-669 -238 -507 0
669 -238 507 0
669 238 -507 0
-670 178 261 0
-670 -178 -261 0
670 -178 261 0
670 178 -261 0
-671 131 -578 0
-671 -131 578 0
671 -131 -578 0
671 131 578 0
-672 660 -40 0
-672 -660 40 0
672 -660 -40 0
672 660 40 0
-673 650 -480 0
-673 -650 480 0
673 -650 -480 0
673 650 480 0
-674 255 -444 0
-674 -255 444 0
674 -255 -444 0
674 255 444 0
-675 -118 -420 0
-675 118 420 0
675 118 -420 0
675 -118 420 0
-676 656 -220 0
-676 -656 220 0
676 -656 -220 0
676 656 220 0
-677 181 0
-677 -581 0
677 -181 581 0
-678 -501 130 0
-678 501 -130 0
678 501 130 0
678 -501 -130 0
-679 -2 0
-679 -84 0
679 2 84 0
-680 342 -567 0
-680 -342 567 0
680 -342 -567 0
680 342 567 0
-681 487 0
-681 -584 0
681 -487 584 0
-682 571 525 0
-682 -571 -525 0
682 -571 525 0
682 571 -525 0
-683 458 -257 0
-683 -458 257 0
683 -458 -257 0
683 458 257 0
-684 -85 0
-684 426 0
684 85 -426 0
-685 -505 464 0
-685 505 -464 0
685 505 464 0
685 -505 -464 0
-686 -2 138 0
-686 2 -138 0
686 2 138 0
686 -2 -138 0
-687 90 -262 0
-687 -90 262 0
687 -90 -262 0
687 90 262 0
-688 651 592 0
-688 -651 -592 0
688 -651 592 0
688 651 -592 0
-689 634 59 0
-689 -634 -59 0
689 -634 59 0
689 634 -59 0
-690 38 -424 0
-690 -38 424 0
690 -38 -424 0
690 38 424 0
-691 242 -62 0
-691 -242 62 0
691 -242 -62 0
691 242 62 0
-692 100 18 0
-692 -100 -18 0
692 -100 18 0
692 100 -18 0
-693 538 0
-693 248 0
693 -538 -248 0
-694 330 164 0
-694 -330 -164 0
694 -330 164 0
694 330 -164 0
-695 -455 457 0
-695 455 -457 0
695 455 457 0
695 -455 -457 0
-696 -165 -40 0
-696 165 40 0
696 165 -40 0
696 -165 40 0
-697 535 -490 0
-697 -535 490 0
697 -535 -490 0
697 535 490 0
-698 -683 61 0
-698 683 -61 0
698 683 61 0
698 -683 -61 0
-699 670 0
-699 -511 0
699 -670 511 0
-700 -434 -256 0
-700 434 256 0
700 434 -256 0
700 -434 256 0
-701 640 0
-701 641 0
701 -640 -641 0
-702 28 -520 0
-702 -28 520 0
702 -28 -520 0
702 28 520 0
-703 630 195 0
-703 -630 -195 0
703 -630 195 0
703 630 -195 0
-704 -241 102 0
-704 241 -102 0
704 241 102 0
704 -241 -102 0
-705 -72 0
-705 553 0
705 72 -553 0
-706 412 0
-706 -609 0
706 -412 609 0
-707 253 619 0
-707 -253 -619 0
707 -253 619 0
707 253 -619 0
-708 -299 0
-708 -413 0
708 299 413 0
-709 -262 98 0
-709 262 -98 0
709 262 98 0
709 -262 -98 0
-710 135 0
-710 -328 0
710 -135 328 0
-711 430 0
-711 -369 0
711 -430 369 0
-712 -530 -297 0
-712 530 297 0
712 530 -297 0
712 -530 297 0
-713 -113 -642 0
-713 113 642 0
713 113 -642 0
713 -113 642 0
-714 60 -608 0
-714 -60 608 0
714 -60 -608 0
714 60 608 0
-715 528 394 0
-715 -528 -394 0
715 -528 394 0
715 528 -394 0
-716 -700 -359 0
-716 700 359 0
716 700 -359 0
716 -700 359 0
-717 -243 468 0
-717 243 -468 0
717 243 468 0
717 -243 -468 0
-718 223 610 0
-718 -223 -610 0
718 -223 610 0
718 223 -610 0
-719 282 -461 0
-719 -282 461 0
719 -282 -461 0
719 282 461 0
-720 577 0
-720 -64 0
720 -577 64 0
-721 -287 -358 0
-721 287 358 0
721 287 -358 0
721 -287 358 0
-722 101 0
-722 -707 0
722 -101 707 0
-723 184 0
-723 -284 0
723 -184 284 0
-724 -77 0
-724 -581 0
724 77 581 0
-725 -478 0
-725 98 0
725 478 -98 0
-726 47 0
-726 79 0
726 -47 -79 0
-727 -593 362 0
-727 593 -362 0
727 593 362 0
727 -593 -362 0
-728 600 563 0
-728 -600 -563 0
728 -600 563 0
728 600 -563 0
-729 -395 0
-729 -717 0
729 395 717 0
-730 146 0
-730 -244 0
730 -146 244 0
-731 -281 -710 0
-731 281 710 0
731 281 -710 0
731 -281 710 0
-732 -547 0
-732 -282 0
732 547 282 0
-733 -537 0
-733 -602 0
733 537 602 0
-734 187 -592 0
-734 -187 592 0
734 -187 -592 0
734 187 592 0
-735 -406 -29 0
-735 406 29 0
735 406 -29 0
735 -406 29 0
-736 390 497 0
-736 -390 -497 0
736 -390 497 0
736 390 -497 0
-737 235 -238 0
-737 -235 238 0
737 -235 -238 0
737 235 238 0
-738 -117 0
-738 -165 0
738 117 165 0
-739 -293 0
-739 651 0
739 293 -651 0
-740 -255 0
-740 34 0
740 255 -34 0
-741 -224 15 0
-741 224 -15 0
741 224 15 0
741 -224 -15 0
-742 135 64 0
-742 -135 -64 0
742 -135 64 0
742 135 -64 0
-743 -201 287 0
-743 201 -287 0
743 201 287 0
743 -201 -287 0
-744 141 0
-744 197 0
744 -141 -197 0
-745 -114 -563 0
-745 114 563 0
745 114 -563 0
745 -114 563 0
-746 209 -127 0
-746 -209 127 0
746 -209 -127 0
746 209 127 0
-747 571 -644 0
-747 -571 644 0
747 -571 -644 0
747 571 644 0
-748 -1 -154 0
-748 1 154 0
748 1 -154 0
748 -1 154 0
-749 -93 569 0
-749 93 -569 0
749 93 569 0
749 -93 -569 0
-750 50 0
-750 -656 0
750 -50 656 0
-751 565 -668 0
-751 -565 668 0
751 -565 -668 0
751 565 668 0
-752 -126 -719 0
-752 126 719 0
752 126 -719 0
752 -126 719 0
-753 342 194 0
-753 -342 -194 0
753 -342 194 0
753 342 -194 0
-754 -276 -44 0
-754 276 44 0
754 276 -44 0
754 -276 44 0
-755 -504 560 0
-755 504 -560 0
755 504 560 0
755 -504 -560 0
-756 -694 324 0
-756 694 -324 0
756 694 324 0
756 -694 -324 0
-757 389 304 0
-757 -389 -304 0
757 -389 304 0
757 389 -304 0
-758 165 717 0
-758 -165 -717 0
758 -165 717 0
758 165 -717 0
-759 310 0
-759 -337 0
759 -310 337 0
-760 165 -378 0
-760 -165 378 0
760 -165 -378 0
760 165 378 0
-761 379 63 0
-761 -379 -63 0
761 -379 63 0
761 379 -63 0
-762 -406 -415 0
-762 406 415 0
762 406 -415 0
762 -406 415 0
-763 587 123 0
-763 -587 -123 0
763 -587 123 0
763 587 -123 0
-764 407 -384 0
-764 -407 384 0
764 -407 -384 0
764 407 384 0
-765 -125 396 0
-765 125 -396 0
765 125 396 0
765 -125 -396 0
-766 -482 0
-766 -518 0
766 482 518 0
-767 -491 -699 0
-767 491 699 0
767 491 -699 0
767 -491 699 0
-768 725 -202 0
-768 -725 202 0
768 -725 -202 0
768 725 202 0
-769 682 0
-769 -630 0
769 -682 630 0
-770 -165 247 0
-770 165 -247 0
770 165 247 0
770 -165 -247 0
-771 411 0
-771 762 0
771 -411 -762 0
-772 -494 -113 0
-772 494 113 0
772 494 -113 0
772 -494 113 0
-773 679 450 0
-773 -679 -450 0
773 -679 450 0
773 679 -450 0
-774 420 0
-774 -607 0
774 -420 607 0
-775 416 -598 0
-775 -416 598 0
775 -416 -598 0
775 416 598 0
-776 714 229 0
-776 -714 -229 0
776 -714 229 0
776 714 -229 0
-777 -261 657 0
-777 261 -657 0
777 261 657 0
777 -261 -657 0
-778 -743 0
-778 574 0
778 743 -574 0
-779 397 -340 0
-779 -397 340 0
779 -397 -340 0
779 397 340 0
-780 -396 719 0
-780 396 -719 0
780 396 719 0
780 -396 -719 0
-781 294 0
-781 539 0
781 -294 -539 0
-782 136 0
-782 567 0
782 -136 -567 0
-783 556 -402 0
-783 -556 402 0
783 -556 -402 0
783 556 402 0
-784 -281 -266 0
-784 281 266 0
784 281 -266 0
784 -281 266 0
-785 -344 390 0
-785 344 -390 0
785 344 390 0
785 -344 -390 0
-786 -422 -467 0
-786 422 467 0
786 422 -467 0
786 -422 467 0
-787 -730 -256 0
-787 730 256 0
787 730 -256 0
787 -730 256 0
-788 -79 -153 0
-788 79 153 0
788 79 -153 0
788 -79 153 0
-789 -407 -693 0
-789 407 693 0
789 407 -693 0
789 -407 693 0
-790 -491 -732 0
-790 491 732 0
790 491 -732 0
790 -491 732 0
-791 254 575 0
-791 -254 -575 0
791 -254 575 0
791 254 -575 0
-792 -407 160 0
-792 407 -160 0
792 407 160 0
792 -407 -160 0
-793 -546 0
-793 -635 0
793 546 635 0
-794 777 -144 0
-794 -777 144 0
794 -777 -144 0
794 777 144 0
-795 165 151 0
-795 -165 -151 0
795 -165 151 0
795 165 -151 0
-796 -342 -136 0
-796 342 136 0
796 342 -136 0
796 -342 136 0
-797 -379 -455 0
-797 379 455 0
797 379 -455 0
797 -379 455 0
-798 -777 262 0
-798 777 -262 0
798 777 262 0
798 -777 -262 0
-799 676 0
-799 220 0
799 -676 -220 0
-800 748 -495 0
-800 -748 495 0
800 -748 -495 0
800 748 495 0
-801 -686 126 0
-801 686 -126 0
801 686 126 0
801 -686 -126 0
-802 -793 -414 0
-802 793 414 0
802 793 -414 0
802 -793 414 0
-803 -266 -309 0
-803 266 309 0
803 266 -309 0
803 -266 309 0
-804 167 -580 0
-804 -167 580 0
804 -167 -580 0
804 167 580 0
-805 500 0
-805 320 0
805 -500 -320 0
-806 622 0
-806 778 0
806 -622 -778 0
-807 -3 -353 0
-807 3 353 0
807 3 -353 0
807 -3 353 0
-808 8 0
-808 136 0
808 -8 -136 0
-809 576 343 0
-809 -576 -343 0
809 -576 343 0
809 576 -343 0
-810 564 0
-810 401 0
810 -564 -401 0
-811 189 456 0
-811 -189 -456 0
811 -189 456 0
811 189 -456 0
-812 84 0
-812 -620 0
812 -84 620 0
-813 -581 0
-813 -311 0
813 581 311 0
-814 158 0
-814 -173 0
814 -158 173 0
-815 563 0
-815 244 0
815 -563 -244 0
-816 662 420 0
-816 -662 -420 0
816 -662 420 0
816 662 -420 0
-817 376 0
-817 -79 0
817 -376 79 0
-818 278 292 0
-818 -278 -292 0
818 -278 292 0
818 278 -292 0
-819 -286 680 0
-819 286 -680 0
819 286 680 0
819 -286 -680 0
-820 506 -456 0
-820 -506 456 0
820 -506 -456 0
820 506 456 0
-821 -659 -205 0
-821 659 205 0
821 659 -205 0
821 -659 205 0
-822 520 0
-822 -599 0
822 -520 599 0
-823 -663 -500 0
-823 663 500 0
823 663 -500 0
823 -663 500 0
-824 -700 0
-824 382 0
824 700 -382 0
-825 812 0
-825 237 0
825 -812 -237 0
-826 358 0
-826 802 0
826 -358 -802 0
-827 80 -317 0
-827 -80 317 0
827 -80 -317 0
827 80 317 0
-828 527 392 0
-828 -527 -392 0
828 -527 392 0
828 527 -392 0
-829 -225 0
-829 -56 0
829 225 56 0
-830 -28 0
-830 31 0
830 28 -31 0
-831 -473 -246 0
-831 473 246 0
831 473 -246 0
831 -473 246 0
-832 -20 -339 0
-832 20 339 0
832 20 -339 0
832 -20 339 0
-833 -25 583 0
-833 25 -583 0
833 25 583 0
833 -25 -583 0
-834 320 107 0
-834 -320 -107 0
834 -320 107 0
834 320 -107 0
-835 -546 488 0
-835 546 -488 0
835 546 488 0
835 -546 -488 0
-836 -759 38 0
-836 759 -38 0
836 759 38 0
836 -759 -38 0
-837 -70 -395 0
-837 70 395 0
837 70 -395 0
837 -70 395 0
-838 114 254 0
-838 -114 -254 0
838 -114 254 0
838 114 -254 0
-839 -109 0
-839 -717 0
839 109 717 0
-840 -438 0
-840 -702 0
840 438 702 0
-841 -292 -636 0
-841 292 636 0
841 292 -636 0
841 -292 636 0
-842 -335 0
-842 188 0
842 335 -188 0
-843 541 0
-843 350 0
843 -541 -350 0
-844 401 -793 0
-844 -401 793 0
844 -401 -793 0
844 401 793 0
-845 525 0
-845 -401 0
845 -525 401 0
-846 647 204 0
-846 -647 -204 0
846 -647 204 0
846 647 -204 0
-847 473 778 0
-847 -473 -778 0
847 -473 778 0
847 473 -778 0
-848 -522 -826 0
-848 522 826 0
848 522 -826 0
848 -522 826 0
-849 -105 -437 0
-849 105 437 0
849 105 -437 0
849 -105 437 0
-850 565 0
-850 -180 0
850 -565 180 0
-851 -471 -412 0
-851 471 412 0
851 471 -412 0
851 -471 412 0
-852 -105 0
-852 -69 0
852 105 69 0
-853 -309 -71 0
-853 309 71 0
853 309 -71 0
853 -309 71 0
-854 538 -536 0
-854 -538 536 0
854 -538 -536 0
854 538 536 0
-855 -88 0
-855 -701 0
855 88 701 0
-856 -65 737 0
-856 65 -737 0
856 65 737 0
856 -65 -737 0
-857 276 591 0
-857 -276 -591 0
857 -276 591 0
857 276 -591 0
-858 204 26 0
-858 -204 -26 0
858 -204 26 0
858 204 -26 0
-859 789 -274 0
-859 -789 274 0
859 -789 -274 0
859 789 274 0
-860 -761 216 0
-860 761 -216 0
860 761 216 0
860 -761 -216 0
-861 349 -792 0
-861 -349 792 0
861 -349 -792 0
861 349 792 0
-862 -519 0
-862 70 0
862 519 -70 0
-863 581 -64 0
-863 -581 64 0
863 -581 -64 0
863 581 64 0
-864 -191 0
-864 354 0
864 191 -354 0
-865 523 -23 0
-865 -523 23 0
865 -523 -23 0
865 523 23 0
-866 257 150 0
-866 -257 -150 0
866 -257 150 0
866 257 -150 0
-867 242 -672 0
-867 -242 672 0
867 -242 -672 0
867 242 672 0
-868 742 0
-868 -63 0
868 -742 63 0
-869 -91 325 0
-869 91 -325 0
869 91 325 0
869 -91 -325 0
-870 -126 0
-870 347 0
870 126 -347 0
-871 -616 136 0
-871 616 -136 0
871 616 136 0
871 -616 -136 0
-872 833 458 0
-872 -833 -458 0
872 -833 458 0
872 833 -458 0
-873 -261 167 0
-873 261 -167 0
873 261 167 0
873 -261 -167 0
-874 -214 273 0
-874 214 -273 0
874 214 273 0
874 -214 -273 0
-875 -522 158 0
-875 522 -158 0
875 522 158 0
875 -522 -158 0
-876 70 213 0
-876 -70 -213 0
876 -70 213 0
876 70 -213 0
-877 806 532 0
-877 -806 -532 0
877 -806 532 0
877 806 -532 0
-878 664 185 0
-878 -664 -185 0
878 -664 185 0
878 664 -185 0
-879 -368 -376 0
-879 368 376 0
879 368 -376 0
879 -368 376 0
-880 -650 211 0
-880 650 -211 0
880 650 211 0
880 -650 -211 0
-881 305 -391 0
-881 -305 391 0
881 -305 -391 0
881 305 391 0
-882 258 0
-882 275 0
882 -258 -275 0
-883 -158 -784 0
-883 158 784 0
883 158 -784 0
883 -158 784 0
-884 -288 -74 0
-884 288 74 0
884 288 -74 0
884 -288 74 0
-885 487 -138 0
-885 -487 138 0
885 -487 -138 0
885 487 138 0
-886 -498 -296 0
-886 498 296 0
886 498 -296 0
886 -498 296 0
-887 275 -858 0
-887 -275 858 0
887 -275 -858 0
887 275 858 0
-888 -677 0
-888 -409 0
888 677 409 0
-889 883 -824 0
-889 -883 824 0
889 -883 -824 0
889 883 824 0
-890 90 23 0
-890 -90 -23 0
890 -90 23 0
890 90 -23 0
-891 -539 301 0
-891 539 -301 0
891 539 301 0
891 -539 -301 0
-892 -6 404 0
-892 6 -404 0
892 6 404 0
892 -6 -404 0
-893 586 527 0
-893 -586 -527 0
893 -586 527 0
893 586 -527 0
-894 577 0
-894 -821 0
894 -577 821 0
-895 418 585 0
-895 -418 -585 0
895 -418 585 0
895 418 -585 0
-896 -464 -220 0
-896 464 220 0
896 464 -220 0
896 -464 220 0
-897 -403 -310 0
-897 403 310 0
897 403 -310 0
897 -403 310 0
-898 258 861 0
-898 -258 -861 0
898 -258 861 0
898 258 -861 0
-899 812 0
-899 764 0
899 -812 -764 0
-900 -310 -609 0
-900 310 609 0
900 310 -609 0
900 -310 609 0
-901 241 625 0
-901 -241 -625 0
901 -241 625 0
901 241 -625 0
-902 766 217 0
-902 -766 -217 0
902 -766 217 0
902 766 -217 0
-903 -733 0
-903 -822 0
903 733 822 0
-904 872 0
-904 -555 0
904 -872 555 0
-905 719 0
-905 501 0
905 -719 -501 0
-906 -127 -359 0
-906 127 359 0
906 127 -359 0
906 -127 359 0
-907 140 -616 0
-907 -140 616 0
907 -140 -616 0
907 140 616 0
-908 91 0
-908 721 0
908 -91 -721 0
-909 -685 233 0
-909 685 -233 0
909 685 233 0
909 -685 -233 0
-910 -829 0
-910 435 0
910 829 -435 0
-911 198 -233 0
-911 -198 233 0
911 -198 -233 0
911 198 233 0
-912 -498 645 0
-912 498 -645 0
912 498 645 0
912 -498 -645 0
-913 726 64 0
-913 -726 -64 0
913 -726 64 0
913 726 -64 0
-914 451 0
-914 178 0
914 -451 -178 0
-915 -325 -794 0
-915 325 794 0
915 325 -794 0
915 -325 794 0
-916 552 310 0
-916 -552 -310 0
916 -552 310 0
916 552 -310 0
-917 -419 687 0
-917 419 -687 0
917 419 687 0
917 -419 -687 0
-918 -464 -2 0
-918 464 2 0
918 464 -2 0
918 -464 2 0
-919 -253 -298 0
-919 253 298 0
919 253 -298 0
919 -253 298 0
-920 -184 0
-920 -800 0
920 184 800 0
-921 558 0
-921 -427 0
921 -558 427 0
-922 802 -40 0
-922 -802 40 0
922 -802 -40 0
922 802 40 0
-923 80 644 0
-923 -80 -644 0
923 -80 644 0
923 80 -644 0
-924 -119 234 0
-924 119 -234 0
924 119 234 0
924 -119 -234 0
-925 658 0
-925 -319 0
925 -658 319 0
-926 247 57 0
-926 -247 -57 0
926 -247 57 0
926 247 -57 0
-927 33 665 0
-927 -33 -665 0
927 -33 665 0
927 33 -665 0
-928 -96 0
-928 -915 0
928 96 915 0
-929 617 -212 0
-929 -617 212 0
929 -617 -212 0
929 617 212 0
-930 -490 796 0
-930 490 -796 0
930 490 796 0
930 -490 -796 0
-931 912 -701 0
-931 -912 701 0
931 -912 -701 0
931 912 701 0
-932 -223 572 0
-932 223 -572 0
932 223 572 0
932 -223 -572 0
-933 -22 232 0
-933 22 -232 0
933 22 232 0
933 -22 -232 0
-934 370 0
-934 -319 0
934 -370 319 0
-935 642 -418 0
-935 -642 418 0
935 -642 -418 0
935 642 418 0
-936 -494 0
-936 -215 0
936 494 215 0
-937 -548 0
-937 -862 0
937 548 862 0
-938 794 436 0
-938 -794 -436 0
938 -794 436 0
938 794 -436 0
-939 -628 891 0
-939 628 -891 0
939 628 891 0
939 -628 -891 0
-940 -603 -935 0
-940 603 935 0
940 603 -935 0
940 -603 935 0
-941 283 905 0
-941 -283 -905 0
941 -283 905 0
941 283 -905 0
-942 447 -730 0
-942 -447 730 0
942 -447 -730 0
942 447 730 0
-943 933 414 0
-943 -933 -414 0
943 -933 414 0
943 933 -414 0
-944 -732 -515 0
-944 732 515 0
944 732 -515 0
944 -732 515 0
-945 50 598 0
-945 -50 -598 0
945 -50 598 0
945 50 -598 0
-946 -893 0
-946 -577 0
946 893 577 0
-947 -311 0
-947 -591 0
947 311 591 0
-948 393 -938 0
-948 -393 938 0
948 -393 -938 0
948 393 938 0
-949 -468 101 0
-949 468 -101 0
949 468 101 0
949 -468 -101 0
-950 -430 -222 0
-950 430 222 0
950 430 -222 0
950 -430 222 0
-951 -831 0
-951 -204 0
951 831 204 0
-952 894 0
-952 862 0
952 -894 -862 0
-953 341 -830 0
-953 -341 830 0
953 -341 -830 0
953 341 830 0
-954 -687 -105 0
-954 687 105 0
954 687 -105 0
954 -687 105 0
-955 743 121 0
-955 -743 -121 0
955 -743 121 0
955 743 -121 0
-956 611 856 0
-956 -611 -856 0
956 -611 856 0
956 611 -856 0
-957 705 -347 0
-957 -705 347 0
957 -705 -347 0
957 705 347 0
-958 342 361 0
-958 -342 -361 0
958 -342 361 0
958 342 -361 0
-959 -203 0
-959 -943 0
959 203 943 0
-960 811 700 0
-960 -811 -700 0
960 -811 700 0
960 811 -700 0
-961 927 908 0
-961 -927 -908 0
961 -927 908 0
961 927 -908 0
-962 -27 0
-962 106 0
962 27 -106 0
-963 416 -173 0
-963 -416 173 0
963 -416 -173 0
963 416 173 0
-964 4 -880 0
-964 -4 880 0
964 -4 -880 0
964 4 880 0
-965 -558 -21 0
-965 558 21 0
965 558 -21 0
965 -558 21 0
-966 -403 -43 0
-966 403 43 0
966 403 -43 0
966 -403 43 0
-967 -782 0
-967 954 0
967 782 -954 0
-968 -712 868 0
-968 712 -868 0
968 712 868 0
968 -712 -868 0
-969 865 659 0
-969 -865 -659 0
969 -865 659 0
969 865 -659 0
-970 687 777 0
-970 -687 -777 0
970 -687 777 0
970 687 -777 0
-971 39 -654 0
-971 -39 654 0
971 -39 -654 0
971 39 654 0
-972 662 447 0
-972 -662 -447 0
972 -662 447 0
972 662 -447 0
-973 790 -562 0
-973 -790 562 0
973 -790 -562 0
973 790 562 0
-974 677 900 0
-974 -677 -900 0
974 -677 900 0
974 677 -900 0
-975 888 0
-975 412 0
975 -888 -412 0
-976 752 -831 0
-976 -752 831 0
976 -752 -831 0
976 752 831 0
-977 511 141 0
-977 -511 -141 0
977 -511 141 0
977 511 -141 0
-978 304 819 0
-978 -304 -819 0
978 -304 819 0
978 304 -819 0
-979 -417 -721 0
-979 417 721 0
979 417 -721 0
979 -417 721 0
-980 -477 657 0
-980 477 -657 0
980 477 657 0
980 -477 -657 0
-981 -949 0
-981 912 0
981 949 -912 0
-982 473 -176 0
-982 -473 176 0
982 -473 -176 0
982 473 176 0
-983 -816 715 0
-983 816 -715 0
983 816 715 0
983 -816 -715 0
-984 148 0
-984 575 0
984 -148 -575 0
-985 -617 -173 0
-985 617 173 0
985 617 -173 0
985 -617 173 0
-986 -350 724 0
-986 350 -724 0
986 350 724 0
986 -350 -724 0
-987 182 0
-987 622 0
987 -182 -622 0
-988 -738 315 0
-988 738 -315 0
988 738 315 0
988 -738 -315 0
-989 541 336 0
-989 -541 -336 0
989 -541 336 0
989 541 -336 0
-990 -747 958 0
-990 747 -958 0
990 747 958 0
990 -747 -958 0
-991 325 -179 0
-991 -325 179 0
991 -325 -179 0
991 325 179 0
-992 -393 -586 0
-992 393 586 0
992 393 -586 0
992 -393 586 0
-993 439 877 0
-993 -439 -877 0
993 -439 877 0
993 439 -877 0
-994 -614 102 0
-994 614 -102 0
994 614 102 0
994 -614 -102 0
-995 656 428 0
-995 -656 -428 0
995 -656 428 0
995 656 -428 0
-996 -240 -863 0
-996 240 863 0
996 240 -863 0
996 -240 863 0
-997 -853 -637 0
-997 853 637 0
997 853 -637 0
997 -853 637 0
-998 200 645 0
-998 -200 -645 0
998 -200 645 0
998 200 -645 0
-999 -533 -246 0
-999 533 246 0
999 533 -246 0
999 -533 246 0
-1000 -510 0
-1000 887 0
1000 510 -887 0
-1001 636 784 0
-1001 -636 -784 0
1001 -636 784 0
1001 636 -784 0
-1002 -16 0
-1002 433 0
1002 16 -433 0
-1003 132 -256 0
-1003 -132 256 0
1003 -132 -256 0
1003 132 256 0
-1004 830 -817 0
-1004 -830 817 0
1004 -830 -817 0
1004 830 817 0
-1005 375 0
-1005 261 0
1005 -375 -261 0
-1006 404 816 0
-1006 -404 -816 0
1006 -404 816 0
1006 404 -816 0
-1007 -516 -656 0
-1007 516 656 0
1007 516 -656 0
1007 -516 656 0
-1008 -741 0
-1008 -536 0
1008 741 536 0
-1009 -618 -236 0
-1009 618 236 0
1009 618 -236 0
1009 -618 236 0
-1010 602 896 0
-1010 -602 -896 0
1010 -602 896 0
1010 602 -896 0
-1011 -697 -420 0
-1011 697 420 0
1011 697 -420 0
1011 -697 420 0
-1012 395 0
-1012 -240 0
1012 -395 240 0
-1013 360 0
-1013 692 0
1013 -360 -692 0
-1014 -185 66 0
-1014 185 -66 0
1014 185 66 0
1014 -185 -66 0
-1015 968 -547 0
-1015 -968 547 0
1015 -968 -547 0
1015 968 547 0
-1016 861 0
-1016 46 0
1016 -861 -46 0
-1017 -947 0
-1017 882 0
1017 947 -882 0
-1018 -814 20 0
-1018 814 -20 0
1018 814 20 0
1018 -814 -20 0
-1019 -610 -236 0
-1019 610 236 0
1019 610 -236 0
1019 -610 236 0
-1020 398 -154 0
-1020 -398 154 0
1020 -398 -154 0
1020 398 154 0
-1021 -327 0
-1021 -731 0
1021 327 731 0
-1022 -637 475 0
-1022 637 -475 0
1022 637 475 0
1022 -637 -475 0
-1023 -166 508 0
-1023 166 -508 0
1023 166 508 0
1023 -166 -508 0
-1024 993 0
-1024 -974 0
1024 -993 974 0
-1025 -32 -371 0
-1025 32 371 0
1025 32 -371 0
1025 -32 371 0
-1026 342 236 0
-1026 -342 -236 0
1026 -342 236 0
1026 342 -236 0
-1027 -12 160 0
-1027 12 -160 0
1027 12 160 0
1027 -12 -160 0
-1028 -45 373 0
-1028 45 -373 0
1028 45 373 0
1028 -45 -373 0
-1029 -477 0
-1029 -1009 0
1029 477 1009 0
-1030 -864 -887 0
-1030 864 887 0
1030 864 -887 0
1030 -864 887 0
-1031 537 783 0
-1031 -537 -783 0
1031 -537 783 0
1031 537 -783 0
-1032 156 -144 0
-1032 -156 144 0
1032 -156 -144 0
1032 156 144 0
-1033 -646 -172 0
-1033 646 172 0
1033 646 -172 0
1033 -646 172 0
-1034 -309 220 0
-1034 309 -220 0
1034 309 220 0
1034 -309 -220 0
-1035 -590 250 0
-1035 590 -250 0
1035 590 250 0
1035 -590 -250 0
-1036 350 -977 0
-1036 -350 977 0
1036 -350 -977 0
1036 350 977 0
-1037 670 -627 0
-1037 -670 627 0
1037 -670 -627 0
1037 670 627 0
-1038 653 -29 0
-1038 -653 29 0
1038 -653 -29 0
1038 653 29 0
-1039 -657 -777 0
-1039 657 777 0
1039 657 -777 0
1039 -657 777 0
-1040 516 -939 0
-1040 -516 939 0
1040 -516 -939 0
1040 516 939 0
-1041 567 -157 0
-1041 -567 157 0
1041 -567 -157 0
1041 567 157 0
-1042 664 -185 0
-1042 -664 185 0
1042 -664 -185 0
1042 664 185 0
-1043 -516 15 0
-1043 516 -15 0
1043 516 15 0
1043 -516 -15 0
-1044 221 -762 0
-1044 -221 762 0
1044 -221 -762 0
1044 221 762 0
-1045 -708 115 0
-1045 708 -115 0
1045 708 115 0
1045 -708 -115 0
-1046 86 796 0
-1046 -86 -796 0
1046 -86 796 0
1046 86 -796 0
-1047 333 12 0
-1047 -333 -12 0
1047 -333 12 0
1047 333 -12 0
-1048 -182 972 0
-1048 182 -972 0
1048 182 972 0
1048 -182 -972 0
-1049 1046 -476 0
-1049 -1046 476 0
1049 -1046 -476 0
1049 1046 476 0
-1050 698 0
-1050 966 0
1050 -698 -966 0
-1051 811 -856 0
-1051 -811 856 0
1051 -811 -856 0
1051 811 856 0
-1052 -424 621 0
-1052 424 -621 0
1052 424 621 0
1052 -424 -621 0
-1053 246 337 0
-1053 -246 -337 0
1053 -246 337 0
1053 246 -337 0
-1054 -393 -588 0
-1054 393 588 0
1054 393 -588 0
1054 -393 588 0
-1055 811 215 0
-1055 -811 -215 0
1055 -811 215 0
1055 811 -215 0
-1056 323 0
-1056 -912 0
1056 -323 912 0
-1057 -927 643 0
-1057 927 -643 0
1057 927 643 0
1057 -927 -643 0
-1058 -356 369 0
-1058 356 -369 0
1058 356 369 0
1058 -356 -369 0
-1059 -862 0
-1059 -389 0
1059 862 389 0
-1060 -46 941 0
-1060 46 -941 0
1060 46 941 0
1060 -46 -941 0
-1061 -684 801 0
-1061 684 -801 0
1061 684 801 0
1061 -684 -801 0
-1062 114 0
-1062 852 0
1062 -114 -852 0
-1063 -904 -940 0
-1063 904 940 0
1063 904 -940 0
1063 -904 940 0
-1064 -96 186 0
-1064 96 -186 0
1064 96 186 0
1064 -96 -186 0
-1065 1063 -49 0
-1065 -1063 49 0
1065 -1063 -49 0
1065 1063 49 0
-1066 698 770 0
-1066 -698 -770 0
1066 -698 770 0
1066 698 -770 0
-1067 -980 0
-1067 -1005 0
1067 980 1005 0
-1068 -745 599 0
-1068 745 -599 0
1068 745 599 0
1068 -745 -599 0
-1069 -397 775 0
-1069 397 -775 0
1069 397 775 0
1069 -397 -775 0
-1070 -36 -663 0
-1070 36 663 0
1070 36 -663 0
1070 -36 663 0
-1071 249 -256 0
-1071 -249 256 0
1071 -249 -256 0
1071 249 256 0
-1072 -780 -275 0
-1072 780 275 0
1072 780 -275 0
1072 -780 275 0
-1073 609 -792 0
-1073 -609 792 0
1073 -609 -792 0
1073 609 792 0
-1074 -86 0
-1074 932 0
1074 86 -932 0
-1075 -928 -853 0
-1075 928 853 0
1075 928 -853 0
1075 -928 853 0
-1076 1053 0
-1076 1044 0
1076 -1053 -1044 0
-1077 1035 -590 0
-1077 -1035 590 0
1077 -1035 -590 0
1077 1035 590 0
-1078 -69 0
-1078 455 0
1078 69 -455 0
-1079 689 0
-1079 -826 0
1079 -689 826 0
-1080 -415 -51 0
-1080 415 51 0
1080 415 -51 0
1080 -415 51 0
-1081 -1002 0
-1081 -662 0
1081 1002 662 0
-1082 101 1013 0
-1082 -101 -1013 0
1082 -101 1013 0
1082 101 -1013 0
-1083 -478 0
-1083 480 0
1083 478 -480 0
-1084 1028 -831 0
-1084 -1028 831 0
1084 -1028 -831 0
1084 1028 831 0
-1085 -733 750 0
-1085 733 -750 0
1085 733 750 0
1085 -733 -750 0
-1086 -153 -296 0
-1086 153 296 0
1086 153 -296 0
1086 -153 296 0
-1087 946 0
-1087 1075 0
1087 -946 -1075 0
-1088 262 904 0
-1088 -262 -904 0
1088 -262 904 0
1088 262 -904 0
-1089 -77 -1081 0
-1089 77 1081 0
1089 77 -1081 0
1089 -77 1081 0
-1090 -853 -1067 0
-1090 853 1067 0
1090 853 -1067 0
1090 -853 1067 0
-1091 -245 0
-1091 536 0
1091 245 -536 0
-1092 561 -1 0
-1092 -561 1 0
1092 -561 -1 0
1092 561 1 0
-1093 654 0
-1093 -515 0
1093 -654 515 0
-1094 95 -803 0
-1094 -95 803 0
1094 -95 -803 0
1094 95 803 0
-1095 -30 -97 0
-1095 30 97 0
1095 30 -97 0
1095 -30 97 0
-1096 137 0
-1096 -109 0
1096 -137 109 0
-1097 427 -428 0
-1097 -427 428 0
1097 -427 -428 0
1097 427 428 0
-1098 183 0
-1098 -739 0
1098 -183 739 0
-1099 224 233 0
-1099 -224 -233 0
1099 -224 233 0
1099 224 -233 0
-1100 896 584 0
-1100 -896 -584 0
1100 -896 584 0
1100 896 -584 0
-1101 587 0
-1101 -534 0
1101 -587 534 0
-1102 755 818 0
-1102 -755 -818 0
1102 -755 818 0
1102 755 -818 0
-1103 -463 -168 0
-1103 463 168 0
1103 463 -168 0
1103 -463 168 0
-1104 651 548 0
-1104 -651 -548 0
1104 -651 548 0
1104 651 -548 0
-1105 -186 0
-1105 -1087 0
1105 186 1087 0
-1106 -500 -571 0
-1106 500 571 0
1106 500 -571 0
1106 -500 571 0
-1107 -961 0
-1107 -135 0
1107 961 135 0
-1108 556 -1059 0
-1108 -556 1059 0
1108 -556 -1059 0
1108 556 1059 0
-1109 602 0
-1109 459 0
1109 -602 -459 0
-1110 -711 -326 0
-1110 711 326 0
1110 711 -326 0
1110 -711 326 0
-1111 742 -430 0
-1111 -742 430 0
1111 -742 -430 0
1111 742 430 0
-1112 970 586 0
-1112 -970 -586 0
1112 -970 586 0
1112 970 -586 0
-1113 -207 -648 0
-1113 207 648 0
1113 207 -648 0
1113 -207 648 0
-1114 956 484 0
-1114 -956 -484 0
1114 -956 484 0
1114 956 -484 0
-1115 73 982 0
-1115 -73 -982 0
1115 -73 982 0
1115 73 -982 0
-1116 868 482 0
-1116 -868 -482 0
1116 -868 482 0
1116 868 -482 0
-1117 700 -1056 0
-1117 -700 1056 0
1117 -700 -1056 0
1117 700 1056 0
-1118 -718 391 0
-1118 718 -391 0
1118 718 391 0
1118 -718 -391 0
-1119 -465 -183 0
-1119 465 183 0
1119 465 -183 0
1119 -465 183 0
-1120 -889 -482 0
-1120 889 482 0
1120 889 -482 0
1120 -889 482 0
-1121 -896 76 0
-1121 896 -76 0
1121 896 76 0
1121 -896 -76 0
-1122 -210 194 0
-1122 210 -194 0
1122 210 194 0
1122 -210 -194 0
-1123 -691 0
-1123 1086 0
1123 691 -1086 0
-1124 -353 670 0
-1124 353 -670 0
1124 353 670 0
1124 -353 -670 0
-1125 -410 0
-1125 135 0
1125 410 -135 0
-1126 -551 0
-1126 -304 0
1126 551 304 0
-1127 775 0
-1127 -626 0
1127 -775 626 0
-1128 303 -510 0
-1128 -303 510 0
1128 -303 -510 0
1128 303 510 0
-1129 107 -616 0
-1129 -107 616 0
1129 -107 -616 0
1129 107 616 0
-1130 378 -243 0
-1130 -378 243 0
1130 -378 -243 0
1130 378 243 0
-1131 458 -853 0
-1131 -458 853 0
1131 -458 -853 0
1131 458 853 0
-1132 915 449 0
-1132 -915 -449 0
1132 -915 449 0
1132 915 -449 0
-1133 -790 0
-1133 -166 0
1133 790 166 0
-1134 33 0
-1134 166 0
1134 -33 -166 0
-1135 -1012 -955 0
-1135 1012 955 0
1135 1012 -955 0
1135 -1012 955 0
-1136 -51 948 0
-1136 51 -948 0
1136 51 948 0
1136 -51 -948 0
-1137 -92 0
-1137 194 0
1137 92 -194 0
-1138 148 460 0
-1138 -148 -460 0
1138 -148 460 0
1138 148 -460 0
-1139 -359 60 0
-1139 359 -60 0
1139 359 60 0
1139 -359 -60 0
-1140 890 442 0
-1140 -890 -442 0
1140 -890 442 0
1140 890 -442 0
-1141 -159 -1011 0
-1141 159 1011 0
1141 159 -1011 0
1141 -159 1011 0
-1142 -496 189 0
-1142 496 -189 0
1142 496 189 0
1142 -496 -189 0
-1143 -480 40 0
-1143 480 -40 0
1143 480 40 0
1143 -480 -40 0
-1144 -922 0
-1144 -219 0
1144 922 219 0
-1145 61 0
-1145 355 0
1145 -61 -355 0
-1146 -409 974 0
-1146 409 -974 0
1146 409 974 0
1146 -409 -974 0
-1147 1041 115 0
-1147 -1041 -115 0
1147 -1041 115 0
1147 1041 -115 0
-1148 471 0
-1148 163 0
1148 -471 -163 0
-1149 -1038 0
-1149 -856 0
1149 1038 856 0
-1150 343 -27 0
-1150 -343 27 0
1150 -343 -27 0
1150 343 27 0
-1151 274 -884 0
-1151 -274 884 0
1151 -274 -884 0
1151 274 884 0
-1152 -238 -565 0
-1152 238 565 0
1152 238 -565 0
1152 -238 565 0
-1153 755 0
-1153 1126 0
1153 -755 -1126 0
-1154 -479 847 0
-1154 479 -847 0
1154 479 847 0
1154 -479 -847 0
-1155 -94 0
-1155 39 0
1155 94 -39 0
-1156 -913 361 0
-1156 913 -361 0
1156 913 361 0
1156 -913 -361 0
-1157 -694 1 0
-1157 694 -1 0
1157 694 1 0
1157 -694 -1 0
-1158 -1098 -892 0
-1158 1098 892 0
1158 1098 -892 0
1158 -1098 892 0
-1159 690 0
-1159 -216 0
1159 -690 216 0
-1160 -368 0
-1160 -642 0
1160 368 642 0
-1161 -644 -1133 0
-1161 644 1133 0
1161 644 -1133 0
1161 -644 1133 0
-1162 -96 764 0
-1162 96 -764 0
1162 96 764 0
1162 -96 -764 0
-1163 -466 280 0
-1163 466 -280 0
1163 466 280 0
1163 -466 -280 0
-1164 -341 0
-1164 -1047 0
1164 341 1047 0
-1165 -404 -187 0
-1165 404 187 0
1165 404 -187 0
1165 -404 187 0
-1166 -290 -785 0
-1166 290 785 0
1166 290 -785 0
1166 -290 785 0
-1167 -920 -958 0
-1167 920 958 0
1167 920 -958 0
1167 -920 958 0
-1168 463 220 0
-1168 -463 -220 0
1168 -463 220 0
1168 463 -220 0
-1169 988 395 0
-1169 -988 -395 0
1169 -988 395 0
1169 988 -395 0
-1170 148 388 0
-1170 -148 -388 0
1170 -148 388 0
1170 148 -388 0
-1171 25 -648 0
-1171 -25 648 0
1171 -25 -648 0
1171 25 648 0
-1172 -132 15 0
-1172 132 -15 0
1172 132 15 0
1172 -132 -15 0
-1173 -927 -47 0
-1173 927 47 0
1173 927 -47 0
1173 -927 47 0
-1174 669 751 0
-1174 -669 -751 0
1174 -669 751 0
1174 669 -751 0
-1175 526 -543 0
-1175 -526 543 0
1175 -526 -543 0
1175 526 543 0
-1176 49 0
-1176 891 0
1176 -49 -891 0
-1177 791 809 0
-1177 -791 -809 0
1177 -791 809 0
1177 791 -809 0
-1178 -675 -452 0
-1178 675 452 0
1178 675 -452 0
1178 -675 452 0
-1179 -682 1042 0
-1179 682 -1042 0
1179 682 1042 0
1179 -682 -1042 0
-1180 346 1174 0
-1180 -346 -1174 0
1180 -346 1174 0
1180 346 -1174 0
-1181 319 0
-1181 -965 0
1181 -319 965 0
-1182 690 929 0
-1182 -690 -929 0
1182 -690 929 0
1182 690 -929 0
-1183 -948 258 0
-1183 948 -258 0
1183 948 258 0
1183 -948 -258 0
-1184 803 -981 0
-1184 -803 981 0
1184 -803 -981 0
1184 803 981 0
-1185 534 -8 0
-1185 -534 8 0
1185 -534 -8 0
1185 534 8 0
-1186 754 0
-1186 82 0
1186 -754 -82 0
-1187 104 -1026 0
-1187 -104 1026 0
1187 -104 -1026 0
1187 104 1026 0
-1188 -440 0
-1188 804 0
1188 440 -804 0
-1189 -139 840 0
-1189 139 -840 0
1189 139 840 0
1189 -139 -840 0
-1190 42 489 0
-1190 -42 -489 0
1190 -42 489 0
1190 42 -489 0
-1191 796 -617 0
-1191 -796 617 0
1191 -796 -617 0
1191 796 617 0
-1192 -142 1178 0
-1192 142 -1178 0
1192 142 1178 0
1192 -142 -1178 0
-1193 586 -1166 0
-1193 -586 1166 0
1193 -586 -1166 0
1193 586 1166 0
-1194 1181 537 0
-1194 -1181 -537 0
1194 -1181 537 0
1194 1181 -537 0
-1195 438 371 0
-1195 -438 -371 0
1195 -438 371 0
1195 438 -371 0
-1196 1036 0
-1196 1130 0
1196 -1036 -1130 0
-1197 -9 -1021 0
-1197 9 1021 0
1197 9 -1021 0
1197 -9 1021 0
-1198 294 865 0
-1198 -294 -865 0
1198 -294 865 0
1198 294 -865 0
-1199 168 0
-1199 156 0
1199 -168 -156 0
-1200 -374 -1066 0
-1200 374 1066 0
1200 374 -1066 0
1200 -374 1066 0
-1201 341 0
-1201 -1074 0
1201 -341 1074 0
-1202 469 904 0
-1202 -469 -904 0
1202 -469 904 0
1202 469 -904 0
-1203 440 -555 0
-1203 -440 555 0
1203 -440 -555 0
1203 440 555 0
-1204 1096 -704 0
-1204 -1096 704 0
1204 -1096 -704 0
1204 1096 704 0
-1205 -808 -766 0
-1205 808 766 0
1205 808 -766 0
1205 -808 766 0
-1206 27 0
-1206 -329 0
1206 -27 329 0
-1207 -809 188 0
-1207 809 -188 0
1207 809 188 0
1207 -809 -188 0
-1208 1110 0
-1208 317 0
1208 -1110 -317 0
-1209 1098 0
-1209 -1041 0
1209 -1098 1041 0
-1210 649 0
-1210 6 0
1210 -649 -6 0
-1211 1129 -777 0
-1211 -1129 777 0
1211 -1129 -777 0
1211 1129 777 0
-1212 641 0
-1212 -550 0
1212 -641 550 0
-1213 -265 0
-1213 161 0
1213 265 -161 0
-1214 -1107 1172 0
-1214 1107 -1172 0
1214 1107 1172 0
1214 -1107 -1172 0
-1215 -171 -1047 0
-1215 171 1047 0
1215 171 -1047 0
1215 -171 1047 0
-1216 -472 1011 0
-1216 472 -1011 0
1216 472 1011 0
1216 -472 -1011 0
-1217 88 762 0
-1217 -88 -762 0
1217 -88 762 0
1217 88 -762 0
-1218 1057 1081 0
-1218 -1057 -1081 0
1218 -1057 1081 0
1218 1057 -1081 0
-1219 518 -919 0
-1219 -518 919 0
1219 -518 -919 0
1219 518 919 0
-1220 1047 -396 0
-1220 -1047 396 0
1220 -1047 -396 0
1220 1047 396 0
-1221 29 -98 0
-1221 -29 98 0
1221 -29 -98 0
1221 29 98 0
-1222 -1089 -594 0
-1222 1089 594 0
1222 1089 -594 0
1222 -1089 594 0
-1223 45 165 0
-1223 -45 -165 0
1223 -45 165 0
1223 45 -165 0
-1224 989 1092 0
-1224 -989 -1092 0
1224 -989 1092 0
1224 989 -1092 0
-1225 -34 0
-1225 -669 0
1225 34 669 0
-1226 -846 -81 0
-1226 846 81 0
1226 846 -81 0
1226 -846 81 0
-1227 609 1002 0
-1227 -609 -1002 0
1227 -609 1002 0
1227 609 -1002 0
-1228 195 601 0
-1228 -195 -601 0
1228 -195 601 0
1228 195 -601 0
-1229 -801 -548 0
-1229 801 548 0
1229 801 -548 0
1229 -801 548 0
-1230 1201 -689 0
-1230 -1201 689 0
1230 -1201 -689 0
1230 1201 689 0
-1231 734 -1140 0
-1231 -734 1140 0
1231 -734 -1140 0
1231 734 1140 0
-1232 -832 -881 0
-1232 832 881 0
1232 832 -881 0
1232 -832 881 0
-1233 273 0
-1233 740 0
1233 -273 -740 0
-1234 -185 422 0
-1234 185 -422 0
1234 185 422 0
1234 -185 -422 0
-1235 -294 -1083 0
-1235 294 1083 0
1235 294 -1083 0
1235 -294 1083 0
-1236 -392 0
-1236 558 0
1236 392 -558 0
-1237 435 0
-1237 -108 0
1237 -435 108 0
-1238 -839 -1012 0
-1238 839 1012 0
1238 839 -1012 0
1238 -839 1012 0
-1239 -353 0
-1239 -548 0
1239 353 548 0
-1240 -362 -197 0
-1240 362 197 0
1240 362 -197 0
1240 -362 197 0
-1241 -818 6 0
-1241 818 -6 0
1241 818 6 0
1241 -818 -6 0
-1242 -676 549 0
-1242 676 -549 0
1242 676 549 0
1242 -676 -549 0
-1243 -526 1030 0
-1243 526 -1030 0
1243 526 1030 0
1243 -526 -1030 0
-1244 -1005 0
-1244 -524 0
1244 1005 524 0
-1245 -159 -193 0
-1245 159 193 0
1245 159 -193 0
1245 -159 193 0
-1246 -1185 1155 0
-1246 1185 -1155 0
1246 1185 1155 0
1246 -1185 -1155 0
-1247 97 -201 0
-1247 -97 201 0
1247 -97 -201 0
1247 97 201 0
-1248 256 288 0
-1248 -256 -288 0
1248 -256 288 0
1248 256 -288 0
-1249 820 -330 0
-1249 -820 330 0
1249 -820 -330 0
1249 820 330 0
-1250 -1158 -722 0
-1250 1158 722 0
1250 1158 -722 0
1250 -1158 722 0
-1251 -410 -474 0
-1251 410 474 0
1251 410 -474 0
1251 -410 474 0
-1252 527 0
-1252 -585 0
1252 -527 585 0
-1253 -954 0
-1253 -32 0
1253 954 32 0
-1254 -566 0
-1254 1048 0
1254 566 -1048 0
-1255 -691 90 0
-1255 691 -90 0
1255 691 90 0
1255 -691 -90 0
-1256 -232 -1204 0
-1256 232 1204 0
1256 232 -1204 0
1256 -232 1204 0
-1257 923 -505 0
-1257 -923 505 0
1257 -923 -505 0
1257 923 505 0
-1258 -663 753 0
-1258 663 -753 0
1258 663 753 0
1258 -663 -753 0
-1259 418 -969 0
-1259 -418 969 0
1259 -418 -969 0
1259 418 969 0
-1260 431 1172 0
-1260 -431 -1172 0
1260 -431 1172 0
1260 431 -1172 0
-1261 250 0
-1261 157 0
1261 -250 -157 0
-1262 551 767 0
-1262 -551 -767 0
1262 -551 767 0
1262 551 -767 0
-1263 -654 0
-1263 -233 0
1263 654 233 0
-1264 -1154 0
-1264 91 0
1264 1154 -91 0
-1265 -568 0
-1265 -439 0
1265 568 439 0
-1266 686 0
-1266 282 0
1266 -686 -282 0
-1267 501 1029 0
-1267 -501 -1029 0
1267 -501 1029 0
1267 501 -1029 0
-1268 -989 0
-1268 573 0
1268 989 -573 0
-1269 -1025 0
-1269 -297 0
1269 1025 297 0
-1270 -267 -1209 0
-1270 267 1209 0
1270 267 -1209 0
1270 -267 1209 0
-1271 -789 -1078 0
-1271 789 1078 0
1271 789 -1078 0
1271 -789 1078 0
-1272 103 792 0
-1272 -103 -792 0
1272 -103 792 0
1272 103 -792 0
-1273 -1160 1237 0
-1273 1160 -1237 0
1273 1160 1237 0
1273 -1160 -1237 0
-1274 -1088 -371 0
-1274 1088 371 0
1274 1088 -371 0
1274 -1088 371 0
-1275 11 970 0
-1275 -11 -970 0
1275 -11 970 0
1275 11 -970 0
-1276 -542 0
-1276 -804 0
1276 542 804 0
-1277 -787 0
-1277 746 0
1277 787 -746 0
-1278 1154 -1184 0
-1278 -1154 1184 0
1278 -1154 -1184 0
1278 1154 1184 0
-1279 -631 -909 0
-1279 631 909 0
1279 631 -909 0
1279 -631 909 0
-1280 109 -393 0
-1280 -109 393 0
1280 -109 -393 0
1280 109 393 0
-1281 981 -166 0
-1281 -981 166 0
1281 -981 -166 0
1281 981 166 0
-1282 -733 0
-1282 673 0
1282 733 -673 0
-1283 -1105 -421 0
-1283 1105 421 0
1283 1105 -421 0
1283 -1105 421 0
-1284 -420 423 0
-1284 420 -423 0
1284 420 423 0
1284 -420 -423 0
-1285 755 1036 0
-1285 -755 -1036 0
1285 -755 1036 0
1285 755 -1036 0
-1286 -1172 553 0
-1286 1172 -553 0
1286 1172 553 0
1286 -1172 -553 0
-1287 157 0
-1287 -1065 0
1287 -157 1065 0
-1288 386 789 0
-1288 -386 -789 0
1288 -386 789 0
1288 386 -789 0
-1289 607 746 0
-1289 -607 -746 0
1289 -607 746 0
1289 607 -746 0
-1290 -868 449 0
-1290 868 -449 0
1290 868 449 0
1290 -868 -449 0
-1291 -1146 0
-1291 312 0
1291 1146 -312 0
-1292 432 -972 0
-1292 -432 972 0
1292 -432 -972 0
1292 432 972 0
-1293 268 -301 0
-1293 -268 301 0
1293 -268 -301 0
1293 268 301 0
-1294 263 -354 0
-1294 -263 354 0
1294 -263 -354 0
1294 263 354 0
-1295 426 -663 0
-1295 -426 663 0
1295 -426 -663 0
1295 426 663 0
-1296 -846 0
-1296 62 0
1296 846 -62 0
-1297 -1133 1093 0
-1297 1133 -1093 0
1297 1133 1093 0
1297 -1133 -1093 0
-1298 -546 1129 0
-1298 546 -1129 0
1298 546 1129 0
1298 -546 -1129 0
-1299 -939 0
-1299 -622 0
1299 939 622 0
-1300 -812 -677 0
-1300 812 677 0
1300 812 -677 0
1300 -812 677 0
-1301 157 238 0
-1301 -157 -238 0
1301 -157 238 0
1301 157 -238 0
-1302 -602 0
-1302 -395 0
1302 602 395 0
-1303 661 384 0
-1303 -661 -384 0
1303 -661 384 0
1303 661 -384 0
-1304 956 -293 0
-1304 -956 293 0
1304 -956 -293 0
1304 956 293 0
-1305 -480 0
-1305 -336 0
1305 480 336 0
-1306 584 981 0
-1306 -584 -981 0
1306 -584 981 0
1306 584 -981 0
-1307 -1147 -823 0
-1307 1147 823 0
1307 1147 -823 0
1307 -1147 823 0
-1308 509 -888 0
-1308 -509 888 0
1308 -509 -888 0
1308 509 888 0
-1309 129 -763 0
-1309 -129 763 0
1309 -129 -763 0
1309 129 763 0
-1310 1055 -910 0
-1310 -1055 910 0
1310 -1055 -910 0
1310 1055 910 0
-1311 -625 596 0
-1311 625 -596 0
1311 625 596 0
1311 -625 -596 0
-1312 1140 -425 0
-1312 -1140 425 0
1312 -1140 -425 0
1312 1140 425 0
-1313 939 -127 0
-1313 -939 127 0
1313 -939 -127 0
1313 939 127 0
-1314 -962 891 0
-1314 962 -891 0
1314 962 891 0
1314 -962 -891 0
-1315 603 1208 0
-1315 -603 -1208 0
1315 -603 1208 0
1315 603 -1208 0
-1316 699 1129 0
-1316 -699 -1129 0
1316 -699 1129 0
1316 699 -1129 0
-1317 460 518 0
-1317 -460 -518 0
1317 -460 518 0
1317 460 -518 0
-1318 -73 -814 0
-1318 73 814 0
1318 73 -814 0
1318 -73 814 0
-1319 1158 0
-1319 -981 0
1319 -1158 981 0
-1320 525 -715 0
-1320 -525 715 0
1320 -525 -715 0
1320 525 715 0
-1321 963 874 0
-1321 -963 -874 0
1321 -963 874 0
1321 963 -874 0
-1322 -393 -848 0
-1322 393 848 0
1322 393 -848 0
1322 -393 848 0
-1323 -197 1105 0
-1323 197 -1105 0
1323 197 1105 0
1323 -197 -1105 0
-1324 831 -1269 0
-1324 -831 1269 0
1324 -831 -1269 0
1324 831 1269 0
-1325 -286 -987 0
-1325 286 987 0
1325 286 -987 0
1325 -286 987 0
-1326 756 0
-1326 72 0
1326 -756 -72 0
-1327 -1210 355 0
-1327 1210 -355 0
1327 1210 355 0
1327 -1210 -355 0
-1328 -403 0
-1328 -630 0
1328 403 630 0
-1329 1190 0
-1329 1050 0
1329 -1190 -1050 0
-1330 -1255 0
-1330 -1199 0
1330 1255 1199 0
-1331 -445 702 0
-1331 445 -702 0
1331 445 702 0
1331 -445 -702 0
-1332 1256 0
-1332 -584 0
1332 -1256 584 0
-1333 156 -1148 0
-1333 -156 1148 0
1333 -156 -1148 0
1333 156 1148 0
-1334 -1238 -1045 0
-1334 1238 1045 0
1334 1238 -1045 0
1334 -1238 1045 0
-1335 -228 -436 0
-1335 228 436 0
1335 228 -436 0
1335 -228 436 0
-1336 1164 -167 0
-1336 -1164 167 0
1336 -1164 -167 0
1336 1164 167 0
-1337 -488 0
-1337 883 0
1337 488 -883 0
-1338 119 -510 0
-1338 -119 510 0
1338 -119 -510 0
1338 119 510 0
-1339 952 -1302 0
-1339 -952 1302 0
1339 -952 -1302 0
1339 952 1302 0
-1340 156 447 0
-1340 -156 -447 0
1340 -156 447 0
1340 156 -447 0
-1341 371 0
-1341 57 0
1341 -371 -57 0
-1342 326 0
-1342 1016 0
1342 -326 -1016 0
-1343 -912 0
-1343 -899 0
1343 912 899 0
-1344 -940 1075 0
-1344 940 -1075 0
1344 940 1075 0
1344 -940 -1075 0
-1345 -641 923 0
-1345 641 -923 0
1345 641 923 0
1345 -641 -923 0
-1346 558 1269 0
-1346 -558 -1269 0
1346 -558 1269 0
1346 558 -1269 0
-1347 348 -1210 0
-1347 -348 1210 0
1347 -348 -1210 0
1347 348 1210 0
-1348 1073 934 0
-1348 -1073 -934 0
1348 -1073 934 0
1348 1073 -934 0
-1349 -993 0
-1349 397 0
1349 993 -397 0
-1350 491 0
-1350 -372 0
1350 -491 372 0
-1351 935 -765 0
-1351 -935 765 0
1351 -935 -765 0
1351 935 765 0
-1352 544 0
-1352 936 0
1352 -544 -936 0
-1353 937 184 0
-1353 -937 -184 0
1353 -937 184 0
1353 937 -184 0
-1354 -1078 1243 0
-1354 1078 -1243 0
1354 1078 1243 0
1354 -1078 -1243 0
-1355 723 0
-1355 -194 0
1355 -723 194 0
-1356 -826 -1260 0
-1356 826 1260 0
1356 826 -1260 0
1356 -826 1260 0
-1357 -781 -455 0
-1357 781 455 0
1357 781 -455 0
1357 -781 455 0
-1358 1027 0
-1358 -326 0
1358 -1027 326 0
-1359 -407 0
-1359 1203 0
1359 407 -1203 0
-1360 928 0
-1360 683 0
1360 -928 -683 0
-1361 307 -150 0
-1361 -307 150 0
1361 -307 -150 0
1361 307 150 0
-1362 -651 -590 0
-1362 651 590 0
1362 651 -590 0
1362 -651 590 0
-1363 -830 0
-1363 80 0
1363 830 -80 0
-1364 -247 629 0
-1364 247 -629 0
1364 247 629 0
1364 -247 -629 0
-1365 -620 311 0
-1365 620 -311 0
1365 620 311 0
1365 -620 -311 0
-1366 -914 296 0
-1366 914 -296 0
1366 914 296 0
1366 -914 -296 0
-1367 251 0
-1367 -694 0
1367 -251 694 0
-1368 -1126 -178 0
-1368 1126 178 0
1368 1126 -178 0
1368 -1126 178 0
-1369 820 0
-1369 512 0
1369 -820 -512 0
-1370 -630 0
-1370 889 0
1370 630 -889 0
-1371 139 -1 0
-1371 -139 1 0
1371 -139 -1 0
1371 139 1 0
-1372 647 -1107 0
-1372 -647 1107 0
1372 -647 -1107 0
1372 647 1107 0
-1373 -181 1082 0
-1373 181 -1082 0
1373 181 1082 0
1373 -181 -1082 0
-1374 890 470 0
-1374 -890 -470 0
1374 -890 470 0
1374 890 -470 0
-1375 -888 0
-1375 -1314 0
1375 888 1314 0
-1376 160 17 0
-1376 -160 -17 0
1376 -160 17 0
1376 160 -17 0
-1377 830 0
-1377 308 0
1377 -830 -308 0
-1378 1249 -56 0
-1378 -1249 56 0
1378 -1249 -56 0
1378 1249 56 0
-1379 677 -347 0
-1379 -677 347 0
1379 -677 -347 0
1379 677 347 0
-1380 -682 0
-1380 119 0
1380 682 -119 0
-1381 -72 496 0
-1381 72 -496 0
1381 72 496 0
1381 -72 -496 0
-1382 1369 108 0
-1382 -1369 -108 0
1382 -1369 108 0
1382 1369 -108 0
-1383 1136 -364 0
-1383 -1136 364 0
1383 -1136 -364 0
1383 1136 364 0
-1384 -214 1025 0
-1384 214 -1025 0
1384 214 1025 0
1384 -214 -1025 0
-1385 640 -588 0
-1385 -640 588 0
1385 -640 -588 0
1385 640 588 0
-1386 -1196 -167 0
-1386 1196 167 0
1386 1196 -167 0
1386 -1196 167 0
-1387 480 -938 0
-1387 -480 938 0
1387 -480 -938 0
1387 480 938 0
-1388 290 0
-1388 -925 0
1388 -290 925 0
-1389 -925 448 0
-1389 925 -448 0
1389 925 448 0
1389 -925 -448 0
-1390 -1302 547 0
-1390 1302 -547 0
1390 1302 547 0
1390 -1302 -547 0
-1391 379 0
-1391 1196 0
1391 -379 -1196 0
-1392 -347 -1292 0
-1392 347 1292 0
1392 347 -1292 0
1392 -347 1292 0
-1393 1104 429 0
-1393 -1104 -429 0
1393 -1104 429 0
1393 1104 -429 0
-1394 577 948 0
-1394 -577 -948 0
1394 -577 948 0
1394 577 -948 0
-1395 -1203 -938 0
-1395 1203 938 0
1395 1203 -938 0
1395 -1203 938 0
-1396 -986 -341 0
-1396 986 341 0
1396 986 -341 0
1396 -986 341 0
-1397 -254 0
-1397 586 0
1397 254 -586 0
-1398 100 -291 0
-1398 -100 291 0
1398 -100 -291 0
1398 100 291 0
-1399 1325 646 0
-1399 -1325 -646 0
1399 -1325 646 0
1399 1325 -646 0
-1400 -96 1395 0
-1400 96 -1395 0
1400 96 1395 0
1400 -96 -1395 0
-1401 -1020 -247 0
-1401 1020 247 0
1401 1020 -247 0
1401 -1020 247 0
-1402 571 469 0
-1402 -571 -469 0
1402 -571 469 0
1402 571 -469 0
-1403 1014 858 0
-1403 -1014 -858 0
1403 -1014 858 0
1403 1014 -858 0
-1404 655 0
-1404 -857 0
1404 -655 857 0
-1405 567 41 0
-1405 -567 -41 0
1405 -567 41 0
1405 567 -41 0
-1406 -661 474 0
-1406 661 -474 0
1406 661 474 0
1406 -661 -474 0
-1407 -763 -611 0
-1407 763 611 0
1407 763 -611 0
1407 -763 611 0
-1408 661 -395 0
-1408 -661 395 0
1408 -661 -395 0
1408 661 395 0
-1409 838 0
-1409 -1351 0
1409 -838 1351 0
-1410 1082 1157 0
-1410 -1082 -1157 0
1410 -1082 1157 0
1410 1082 -1157 0
-1411 711 856 0
-1411 -711 -856 0
1411 -711 856 0
1411 711 -856 0
-1412 319 -544 0
-1412 -319 544 0
1412 -319 -544 0
1412 319 544 0
-1413 -350 846 0
-1413 350 -846 0
1413 350 846 0
1413 -350 -846 0
-1414 1018 0
-1414 -56 0
1414 -1018 56 0
-1415 -370 769 0
-1415 370 -769 0
1415 370 769 0
1415 -370 -769 0
-1416 314 -128 0
-1416 -314 128 0
1416 -314 -128 0
1416 314 128 0
-1417 320 -396 0
-1417 -320 396 0
1417 -320 -396 0
1417 320 396 0
-1418 -1114 -362 0
-1418 1114 362 0
1418 1114 -362 0
1418 -1114 362 0
-1419 -114 -793 0
-1419 114 793 0
1419 114 -793 0
1419 -114 793 0
-1420 -1277 405 0
-1420 1277 -405 0
1420 1277 405 0
1420 -1277 -405 0
-1421 1157 648 0
-1421 -1157 -648 0
1421 -1157 648 0
1421 1157 -648 0
-1422 18 702 0
-1422 -18 -702 0
1422 -18 702 0
1422 18 -702 0
-1423 1386 0
-1423 1030 0
1423 -1386 -1030 0
-1424 -1388 922 0
-1424 1388 -922 0
1424 1388 922 0
1424 -1388 -922 0
-1425 -356 -378 0
-1425 356 378 0
1425 356 -378 0
1425 -356 378 0
-1426 1165 908 0
-1426 -1165 -908 0
1426 -1165 908 0
1426 1165 -908 0
-1427 -320 0
-1427 288 0
1427 320 -288 0
-1428 1024 90 0
-1428 -1024 -90 0
1428 -1024 90 0
1428 1024 -90 0
-1429 -59 0
-1429 1248 0
1429 59 -1248 0
-1430 -4 -753 0
-1430 4 753 0
1430 4 -753 0
1430 -4 753 0
-1431 -1306 1284 0
-1431 1306 -1284 0
1431 1306 1284 0
1431 -1306 -1284 0
-1432 849 1192 0
-1432 -849 -1192 0
1432 -849 1192 0
1432 849 -1192 0
-1433 843 1400 0
-1433 -843 -1400 0
1433 -843 1400 0
1433 843 -1400 0
-1434 706 1094 0
-1434 -706 -1094 0
1434 -706 1094 0
1434 706 -1094 0
-1435 -1151 -456 0
-1435 1151 456 0
1435 1151 -456 0
1435 -1151 456 0
-1436 -377 0
-1436 -1135 0
1436 377 1135 0
-1437 865 1055 0
-1437 -865 -1055 0
1437 -865 1055 0
1437 865 -1055 0
-1438 391 0
-1438 1046 0
1438 -391 -1046 0
-1439 756 -846 0
-1439 -756 846 0
1439 -756 -846 0
1439 756 846 0
-1440 512 -797 0
-1440 -512 797 0
1440 -512 -797 0
1440 512 797 0
-1441 913 -908 0
-1441 -913 908 0
1441 -913 -908 0
1441 913 908 0
-1442 56 -731 0
-1442 -56 731 0
1442 -56 -731 0
1442 56 731 0
-1443 705 -979 0
-1443 -705 979 0
1443 -705 -979 0
1443 705 979 0
-1444 -1184 209 0
-1444 1184 -209 0
1444 1184 209 0
1444 -1184 -209 0
-1445 119 0
-1445 -854 0
1445 -119 854 0
-1446 486 1284 0
-1446 -486 -1284 0
1446 -486 1284 0
1446 486 -1284 0
-1447 -1196 0
-1447 -906 0
1447 1196 906 0
-1448 -519 1239 0
-1448 519 -1239 0
1448 519 1239 0
1448 -519 -1239 0
-1449 -582 -1259 0
-1449 582 1259 0
1449 582 -1259 0
1449 -582 1259 0
-1450 -137 0
-1450 1238 0
1450 137 -1238 0
-1451 24 -1357 0
-1451 -24 1357 0
1451 -24 -1357 0
1451 24 1357 0
-1452 579 0
-1452 132 0
1452 -579 -132 0
-1453 875 1441 0
-1453 -875 -1441 0
1453 -875 1441 0
1453 875 -1441 0
-1454 1033 -343 0
-1454 -1033 343 0
1454 -1033 -343 0
1454 1033 343 0
-1455 -998 1280 0
-1455 998 -1280 0
1455 998 1280 0
1455 -998 -1280 0
-1456 -415 1247 0
-1456 415 -1247 0
1456 415 1247 0
1456 -415 -1247 0
-1457 -1164 0
-1457 730 0
1457 1164 -730 0
-1458 -987 0
-1458 -339 0
1458 987 339 0
-1459 686 -662 0
-1459 -686 662 0
1459 -686 -662 0
1459 686 662 0
-1460 63 1332 0
-1460 -63 -1332 0
1460 -63 1332 0
1460 63 -1332 0
-1461 1318 0
-1461 -827 0
1461 -1318 827 0
-1462 -281 0
-1462 594 0
1462 281 -594 0
-1463 -636 0
-1463 -69 0
1463 636 69 0
-1464 -1358 0
-1464 -361 0
1464 1358 361 0
-1465 766 -946 0
-1465 -766 946 0
1465 -766 -946 0
1465 766 946 0
-1466 417 0
-1466 1088 0
1466 -417 -1088 0
-1467 -295 519 0
-1467 295 -519 0
1467 295 519 0
1467 -295 -519 0
-1468 657 -461 0
-1468 -657 461 0
1468 -657 -461 0
1468 657 461 0
-1469 -726 134 0
-1469 726 -134 0
1469 726 134 0
1469 -726 -134 0
-1470 -886 0
-1470 549 0
1470 886 -549 0
-1471 1319 0
-1471 -321 0
1471 -1319 321 0
-1472 1010 493 0
-1472 -1010 -493 0
1472 -1010 493 0
1472 1010 -493 0
-1473 -262 607 0
-1473 262 -607 0
1473 262 607 0
1473 -262 -607 0
-1474 -1014 0
-1474 -72 0
1474 1014 72 0
-1475 538 1303 0
-1475 -538 -1303 0
1475 -538 1303 0
1475 538 -1303 0
-1476 -568 907 0
-1476 568 -907 0
1476 568 907 0
1476 -568 -907 0
-1477 872 0
-1477 -486 0
1477 -872 486 0
-1478 861 -62 0
-1478 -861 62 0
1478 -861 -62 0
1478 861 62 0
-1479 879 -532 0
-1479 -879 532 0
1479 -879 -532 0
1479 879 532 0
-1480 38 0
-1480 -905 0
1480 -38 905 0
-1481 -666 1028 0
-1481 666 -1028 0
1481 666 1028 0
1481 -666 -1028 0
-1482 -422 1068 0
-1482 422 -1068 0
1482 422 1068 0
1482 -422 -1068 0
-1483 1349 1327 0
-1483 -1349 -1327 0
1483 -1349 1327 0
1483 1349 -1327 0
-1484 1457 542 0
-1484 -1457 -542 0
1484 -1457 542 0
1484 1457 -542 0
-1485 1251 -811 0
-1485 -1251 811 0
1485 -1251 -811 0
1485 1251 811 0
-1486 417 1119 0
-1486 -417 -1119 0
1486 -417 1119 0
1486 417 -1119 0
-1487 798 -1136 0
-1487 -798 1136 0
1487 -798 -1136 0
1487 798 1136 0
-1488 -1043 718 0
-1488 1043 -718 0
1488 1043 718 0
1488 -1043 -718 0
-1489 1474 0
-1489 1191 0
1489 -1474 -1191 0
-1490 527 228 0
-1490 -527 -228 0
1490 -527 228 0
1490 527 -228 0
-1491 128 -65 0
-1491 -128 65 0
1491 -128 -65 0
1491 128 65 0
-1492 1270 75 0
-1492 -1270 -75 0
1492 -1270 75 0
1492 1270 -75 0
-1493 -977 -318 0
-1493 977 318 0
1493 977 -318 0
1493 -977 318 0
-1494 1328 0
-1494 513 0
1494 -1328 -513 0
-1495 -1225 385 0
-1495 1225 -385 0
1495 1225 385 0
1495 -1225 -385 0
-1496 -1495 0
-1496 -108 0
1496 1495 108 0
-1497 -77 354 0
-1497 77 -354 0
1497 77 354 0
1497 -77 -354 0
-1498 1493 -1235 0
-1498 -1493 1235 0
1498 -1493 -1235 0
1498 1493 1235 0
-1499 -1280 882 0
-1499 1280 -882 0
1499 1280 882 0
1499 -1280 -882 0
-1500 775 0
-1500 856 0
1500 -775 -856 0
-1501 -1385 0
-1501 297 0
1501 1385 -297 0
-1502 1245 -1363 0
-1502 -1245 1363 0
1502 -1245 -1363 0
1502 1245 1363 0
-1503 -867 1365 0
-1503 867 -1365 0
1503 867 1365 0
1503 -867 -1365 0
-1504 -898 0
-1504 -354 0
1504 898 354 0
-1505 1427 0
-1505 -1361 0
1505 -1427 1361 0
-1506 514 0
-1506 880 0
1506 -514 -880 0
-1507 -804 616 0
-1507 804 -616 0
1507 804 616 0
1507 -804 -616 0
-1508 -883 0
-1508 724 0
1508 883 -724 0
-1509 1074 0
-1509 285 0
1509 -1074 -285 0
-1510 -757 -272 0
-1510 757 272 0
1510 757 -272 0
1510 -757 272 0
-1511 1240 -1458 0
-1511 -1240 1458 0
1511 -1240 -1458 0
1511 1240 1458 0
-1512 790 -123 0
-1512 -790 123 0
1512 -790 -123 0
1512 790 123 0
-1513 1284 0
-1513 -885 0
1513 -1284 885 0
-1514 -66 0
-1514 787 0
1514 66 -787 0
-1515 -1118 -728 0
-1515 1118 728 0
1515 1118 -728 0
1515 -1118 728 0
-1516 160 0
-1516 -1135 0
1516 -160 1135 0
-1517 801 0
-1517 -533 0
1517 -801 533 0
-1518 844 0
-1518 749 0
1518 -844 -749 0
-1519 1189 267 0
-1519 -1189 -267 0
1519 -1189 267 0
1519 1189 -267 0
-1520 -382 445 0
-1520 382 -445 0
1520 382 445 0
1520 -382 -445 0
-1521 -612 0
-1521 1514 0
1521 612 -1514 0
-1522 1168 -875 0
-1522 -1168 875 0
1522 -1168 -875 0
1522 1168 875 0
-1523 817 -420 0
-1523 -817 420 0
1523 -817 -420 0
1523 817 420 0
-1524 -852 0
-1524 -419 0
1524 852 419 0
-1525 -809 0
-1525 -995 0
1525 809 995 0
-1526 -504 -1517 0
-1526 504 1517 0
1526 504 -1517 0
1526 -504 1517 0
-1527 -1027 0
-1527 462 0
1527 1027 -462 0
-1528 -482 -1186 0
-1528 482 1186 0
1528 482 -1186 0
1528 -482 1186 0
-1529 -746 741 0
-1529 746 -741 0
1529 746 741 0
1529 -746 -741 0
-1530 289 -248 0
-1530 -289 248 0
1530 -289 -248 0
1530 289 248 0
-1531 541 1224 0
-1531 -541 -1224 0
1531 -541 1224 0
1531 541 -1224 0
-1532 -1099 0
-1532 798 0
1532 1099 -798 0
-1533 -205 -658 0
-1533 205 658 0
1533 205 -658 0
1533 -205 658 0
-1534 566 107 0
-1534 -566 -107 0
1534 -566 107 0
1534 566 -107 0
-1535 342 0
-1535 -312 0
1535 -342 312 0
-1536 -743 629 0
-1536 743 -629 0
1536 743 629 0
1536 -743 -629 0
-1537 -110 0
-1537 20 0
1537 110 -20 0
-1538 -919 630 0
-1538 919 -630 0
1538 919 630 0
1538 -919 -630 0
-1539 -404 0
-1539 -191 0
1539 404 191 0
-1540 -225 334 0
-1540 225 -334 0
1540 225 334 0
1540 -225 -334 0
-1541 1359 0
-1541 -293 0
1541 -1359 293 0
-1542 1378 -651 0
-1542 -1378 651 0
1542 -1378 -651 0
1542 1378 651 0
-1543 -1123 -134 0
-1543 1123 134 0
1543 1123 -134 0
1543 -1123 134 0
-1544 679 -1331 0
-1544 -679 1331 0
1544 -679 -1331 0
1544 679 1331 0
-1545 -1344 0
-1545 -1103 0
1545 1344 1103 0
-1546 1346 0
-1546 717 0
1546 -1346 -717 0
-1547 -931 -1175 0
-1547 931 1175 0
1547 931 -1175 0
1547 -931 1175 0
-1548 -240 -812 0
-1548 240 812 0
1548 240 -812 0
1548 -240 812 0
-1549 1137 189 0
-1549 -1137 -189 0
1549 -1137 189 0
1549 1137 -189 0
-1550 -690 -395 0
-1550 690 395 0
1550 690 -395 0
1550 -690 395 0
-1551 993 0
-1551 641 0
1551 -993 -641 0
-1552 659 0
-1552 -468 0
1552 -659 468 0
-1553 1319 0
-1553 837 0
1553 -1319 -837 0
-1554 1166 -974 0
-1554 -1166 974 0
1554 -1166 -974 0
1554 1166 974 0
-1555 -1349 0
-1555 -518 0
1555 1349 518 0
-1556 -788 0
-1556 1229 0
1556 788 -1229 0
-1557 1335 0
-1557 845 0
1557 -1335 -845 0
-1558 88 -311 0
-1558 -88 311 0
1558 -88 -311 0
1558 88 311 0
-1559 43 -1446 0
-1559 -43 1446 0
1559 -43 -1446 0
1559 43 1446 0
-1560 1144 0
-1560 -452 0
1560 -1144 452 0
-1561 1311 997 0
-1561 -1311 -997 0
1561 -1311 997 0
1561 1311 -997 0
-1562 285 0
-1562 -1541 0
1562 -285 1541 0
-1563 -327 0
-1563 255 0
1563 327 -255 0
-1564 260 0
-1564 323 0
1564 -260 -323 0
-1565 -161 135 0
-1565 161 -135 0
1565 161 135 0
1565 -161 -135 0
-1566 151 -1338 0
-1566 -151 1338 0
1566 -151 -1338 0
1566 151 1338 0
-1567 1296 720 0
-1567 -1296 -720 0
1567 -1296 720 0
1567 1296 -720 0
-1568 -158 -1476 0
-1568 158 1476 0
1568 158 -1476 0
1568 -158 1476 0
-1569 -1233 0
-1569 134 0
1569 1233 -134 0
-1570 860 0
-1570 -562 0
1570 -860 562 0
-1571 913 985 0
-1571 -913 -985 0
1571 -913 985 0
1571 913 -985 0
-1572 1492 976 0
-1572 -1492 -976 0
1572 -1492 976 0
1572 1492 -976 0
-1573 573 0
-1573 -300 0
1573 -573 300 0
-1574 -1017 0
-1574 -271 0
1574 1017 271 0
-1575 738 0
-1575 -424 0
1575 -738 424 0
-1576 -251 -1103 0
-1576 251 1103 0
1576 251 -1103 0
1576 -251 1103 0
-1577 -992 -1216 0
-1577 992 1216 0
1577 992 -1216 0
1577 -992 1216 0
-1578 -955 0
-1578 738 0
1578 955 -738 0
-1579 -8 0
-1579 68 0
1579 8 -68 0
-1580 -1515 -362 0
-1580 1515 362 0
1580 1515 -362 0
1580 -1515 362 0
-1581 991 -775 0
-1581 -991 775 0
1581 -991 -775 0
1581 991 775 0
-1582 -610 0
-1582 -687 0
1582 610 687 0
-1583 983 844 0
-1583 -983 -844 0
1583 -983 844 0
1583 983 -844 0
-1584 -985 1495 0
-1584 985 -1495 0
1584 985 1495 0
1584 -985 -1495 0
-1585 235 489 0
-1585 -235 -489 0
1585 -235 489 0
1585 235 -489 0
-1586 -601 182 0
-1586 601 -182 0
1586 601 182 0
1586 -601 -182 0
-1587 1025 0
-1587 -1480 0
1587 -1025 1480 0
-1588 445 -1013 0
-1588 -445 1013 0
1588 -445 -1013 0
1588 445 1013 0
-1589 -122 -385 0
-1589 122 385 0
1589 122 -385 0
1589 -122 385 0
-1590 -980 1088 0
-1590 980 -1088 0
1590 980 1088 0
1590 -980 -1088 0
-1591 871 0
-1591 -532 0
1591 -871 532 0
-1592 -1410 154 0
-1592 1410 -154 0
1592 1410 154 0
1592 -1410 -154 0
-1593 1335 -1218 0
-1593 -1335 1218 0
1593 -1335 -1218 0
1593 1335 1218 0
-1594 483 0
-1594 1030 0
1594 -483 -1030 0
-1595 1272 0
-1595 376 0
1595 -1272 -376 0
-1596 1446 198 0
-1596 -1446 -198 0
1596 -1446 198 0
1596 1446 -198 0
-1597 780 858 0
-1597 -780 -858 0
1597 -780 858 0
1597 780 -858 0
-1598 -322 877 0
-1598 322 -877 0
1598 322 877 0
1598 -322 -877 0
-1599 11 1175 0
-1599 -11 -1175 0
1599 -11 1175 0
1599 11 -1175 0
-1600 790 0
-1600 852 0
1600 -790 -852 0
-1601 741 8 0
-1601 -741 -8 0
1601 -741 8 0
1601 741 -8 0
-1602 1575 0
-1602 -585 0
1602 -1575 585 0
-1603 -1000 1387 0
-1603 1000 -1387 0
1603 1000 1387 0
1603 -1000 -1387 0
-1604 -1049 0
-1604 -1285 0
1604 1049 1285 0
-1605 821 0
-1605 1445 0
1605 -821 -1445 0
-1606 -1005 -218 0
-1606 1005 218 0
1606 1005 -218 0
1606 -1005 218 0
-1607 891 569 0
-1607 -891 -569 0
1607 -891 569 0
1607 891 -569 0
-1608 246 903 0
-1608 -246 -903 0
1608 -246 903 0
1608 246 -903 0
-1609 47 1090 0
-1609 -47 -1090 0
1609 -47 1090 0
1609 47 -1090 0
-1610 197 -320 0
-1610 -197 320 0
1610 -197 -320 0
1610 197 320 0
-1611 358 0
-1611 1397 0
1611 -358 -1397 0
-1612 -509 374 0
-1612 509 -374 0
1612 509 374 0
1612 -509 -374 0
-1613 -712 700 0
-1613 712 -700 0
1613 712 700 0
1613 -712 -700 0
-1614 783 -1502 0
-1614 -783 1502 0
1614 -783 -1502 0
1614 783 1502 0
-1615 -150 -1607 0
-1615 150 1607 0
1615 150 -1607 0
1615 -150 1607 0
-1616 -123 775 0
-1616 123 -775 0
1616 123 775 0
1616 -123 -775 0
-1617 -538 1084 0
-1617 538 -1084 0
1617 538 1084 0
1617 -538 -1084 0
-1618 71 -1124 0
-1618 -71 1124 0
1618 -71 -1124 0
1618 71 1124 0
-1619 -1205 0
-1619 -71 0
1619 1205 71 0
-1620 984 0
-1620 -677 0
1620 -984 677 0
-1621 950 1290 0
-1621 -950 -1290 0
1621 -950 1290 0
1621 950 -1290 0
-1622 1053 1466 0
-1622 -1053 -1466 0
1622 -1053 1466 0
1622 1053 -1466 0
-1623 815 1036 0
-1623 -815 -1036 0
1623 -815 1036 0
1623 815 -1036 0
-1624 -1209 0
-1624 1100 0
1624 1209 -1100 0
-1625 -309 0
-1625 1516 0
1625 309 -1516 0
-1626 8 -1323 0
-1626 -8 1323 0
1626 -8 -1323 0
1626 8 1323 0
-1627 284 0
-1627 1144 0
1627 -284 -1144 0
-1628 -352 0
-1628 -230 0
1628 352 230 0
-1629 1075 1155 0
-1629 -1075 -1155 0
1629 -1075 1155 0
1629 1075 -1155 0
-1630 979 1628 0
-1630 -979 -1628 0
1630 -979 1628 0
1630 979 -1628 0
-1631 -669 954 0
-1631 669 -954 0
1631 669 954 0
1631 -669 -954 0
-1632 808 0
-1632 -209 0
1632 -808 209 0
-1633 -1061 -1074 0
-1633 1061 1074 0
1633 1061 -1074 0
1633 -1061 1074 0
-1634 1330 1056 0
-1634 -1330 -1056 0
1634 -1330 1056 0
1634 1330 -1056 0
-1635 56 1371 0
-1635 -56 -1371 0
1635 -56 1371 0
1635 56 -1371 0
-1636 -885 0
-1636 -1355 0
1636 885 1355 0
-1637 822 -633 0
-1637 -822 633 0
1637 -822 -633 0
1637 822 633 0
-1638 1581 1494 0
-1638 -1581 -1494 0
1638 -1581 1494 0
1638 1581 -1494 0
-1639 1279 0
-1639 288 0
1639 -1279 -288 0
-1640 -669 1433 0
-1640 669 -1433 0
1640 669 1433 0
1640 -669 -1433 0
-1641 -1115 -1613 0
-1641 1115 1613 0
1641 1115 -1613 0
1641 -1115 1613 0
-1642 874 -623 0
-1642 -874 623 0
1642 -874 -623 0
1642 874 623 0
-1643 -459 -1136 0
-1643 459 1136 0
1643 459 -1136 0
1643 -459 1136 0
-1644 -538 -1400 0
-1644 538 1400 0
1644 538 -1400 0
1644 -538 1400 0
-1645 1141 -439 0
-1645 -1141 439 0
1645 -1141 -439 0
1645 1141 439 0
-1646 912 0
-1646 -1252 0
1646 -912 1252 0
-1647 -1212 -1531 0
-1647 1212 1531 0
1647 1212 -1531 0
1647 -1212 1531 0
-1648 -1323 1080 0
-1648 1323 -1080 0
1648 1323 1080 0
1648 -1323 -1080 0
-1649 282 -255 0
-1649 -282 255 0
1649 -282 -255 0
1649 282 255 0
-1650 -1130 1193 0
-1650 1130 -1193 0
1650 1130 1193 0
1650 -1130 -1193 0
-1651 1575 -516 0
-1651 -1575 516 0
1651 -1575 -516 0
1651 1575 516 0
-1652 1298 -1140 0
-1652 -1298 1140 0
1652 -1298 -1140 0
1652 1298 1140 0
-1653 -24 1527 0
-1653 24 -1527 0
1653 24 1527 0
1653 -24 -1527 0
-1654 1363 1354 0
-1654 -1363 -1354 0
1654 -1363 1354 0
1654 1363 -1354 0
-1655 468 0
-1655 1522 0
1655 -468 -1522 0
-1656 -57 1459 0
-1656 57 -1459 0
1656 57 1459 0
1656 -57 -1459 0
-1657 220 -1390 0
-1657 -220 1390 0
1657 -220 -1390 0
1657 220 1390 0
-1658 1476 -929 0
-1658 -1476 929 0
1658 -1476 -929 0
1658 1476 929 0
-1659 -474 0
-1659 -553 0
1659 474 553 0
-1660 -1167 226 0
-1660 1167 -226 0
1660 1167 226 0
1660 -1167 -226 0
-1661 254 183 0
-1661 -254 -183 0
1661 -254 183 0
1661 254 -183 0
-1662 856 866 0
-1662 -856 -866 0
1662 -856 866 0
1662 856 -866 0
-1663 1617 0
-1663 285 0
1663 -1617 -285 0
-1664 -873 260 0
-1664 873 -260 0
1664 873 260 0
1664 -873 -260 0
-1665 -529 -889 0
-1665 529 889 0
1665 529 -889 0
1665 -529 889 0
-1666 1 585 0
-1666 -1 -585 0
1666 -1 585 0
1666 1 -585 0
-1667 -116 58 0
-1667 116 -58 0
1667 116 58 0
1667 -116 -58 0
-1668 584 0
-1668 991 0
1668 -584 -991 0
-1669 9 320 0
-1669 -9 -320 0
1669 -9 320 0
1669 9 -320 0
-1670 1348 -436 0
-1670 -1348 436 0
1670 -1348 -436 0
1670 1348 436 0
-1671 -481 -302 0
-1671 481 302 0
1671 481 -302 0
1671 -481 302 0
-1672 557 606 0
-1672 -557 -606 0
1672 -557 606 0
1672 557 -606 0
-1673 -115 -388 0
-1673 115 388 0
1673 115 -388 0
1673 -115 388 0
-1674 -693 -1319 0
-1674 693 1319 0
1674 693 -1319 0
1674 -693 1319 0
-1675 -1220 -1627 0
-1675 1220 1627 0
1675 1220 -1627 0
1675 -1220 1627 0
-1676 842 -446 0
-1676 -842 446 0
1676 -842 -446 0
1676 842 446 0
-1677 447 0
-1677 297 0
1677 -447 -297 0
-1678 -1153 1676 0
-1678 1153 -1676 0
1678 1153 1676 0
1678 -1153 -1676 0
-1679 1502 -648 0
-1679 -1502 648 0
1679 -1502 -648 0
1679 1502 648 0
-1680 22 0
-1680 -440 0
1680 -22 440 0
-1681 -16 -455 0
-1681 16 455 0
1681 16 -455 0
1681 -16 455 0
-1682 -826 950 0
-1682 826 -950 0
1682 826 950 0
1682 -826 -950 0
-1683 -974 0
-1683 556 0
1683 974 -556 0
-1684 -1408 0
-1684 -733 0
1684 1408 733 0
-1685 184 0
-1685 -1639 0
1685 -184 1639 0
-1686 -772 118 0
-1686 772 -118 0
1686 772 118 0
1686 -772 -118 0
-1687 -265 -916 0
-1687 265 916 0
1687 265 -916 0
1687 -265 916 0
-1688 956 0
-1688 -869 0
1688 -956 869 0
-1689 -24 964 0
-1689 24 -964 0
1689 24 964 0
1689 -24 -964 0
-1690 -1676 933 0
-1690 1676 -933 0
1690 1676 933 0
1690 -1676 -933 0
-1691 161 0
-1691 -305 0
1691 -161 305 0
-1692 619 0
-1692 982 0
1692 -619 -982 0
-1693 -330 0
-1693 698 0
1693 330 -698 0
-1694 -891 -1023 0
-1694 891 1023 0
1694 891 -1023 0
1694 -891 1023 0
-1695 -1089 0
-1695 -1046 0
1695 1089 1046 0
-1696 92 0
-1696 -538 0
1696 -92 538 0
-1697 -1573 347 0
-1697 1573 -347 0
1697 1573 347 0
1697 -1573 -347 0
-1698 -877 0
-1698 1566 0
1698 877 -1566 0
-1699 -978 0
-1699 1419 0
1699 978 -1419 0
-1700 92 -142 0
-1700 -92 142 0
1700 -92 -142 0
1700 92 142 0
-1701 364 -1574 0
-1701 -364 1574 0
1701 -364 -1574 0
1701 364 1574 0
-1702 -333 542 0
-1702 333 -542 0
1702 333 542 0
1702 -333 -542 0
-1703 1325 -405 0
-1703 -1325 405 0
1703 -1325 -405 0
1703 1325 405 0
-1704 -8 -498 0
-1704 8 498 0
1704 8 -498 0
1704 -8 498 0
-1705 -1514 1428 0
-1705 1514 -1428 0
1705 1514 1428 0
1705 -1514 -1428 0
-1706 396 0
-1706 523 0
1706 -396 -523 0
-1707 518 -465 0
-1707 -518 465 0
1707 -518 -465 0
1707 518 465 0
-1708 -1625 1456 0
-1708 1625 -1456 0
1708 1625 1456 0
1708 -1625 -1456 0
-1709 -1281 1199 0
-1709 1281 -1199 0
1709 1281 1199 0
1709 -1281 -1199 0
-1710 1492 -821 0
-1710 -1492 821 0
1710 -1492 -821 0
1710 1492 821 0
-1711 -870 0
-1711 1108 0
1711 870 -1108 0
-1712 1194 -1537 0
-1712 -1194 1537 0
1712 -1194 -1537 0
1712 1194 1537 0
-1713 942 -697 0
-1713 -942 697 0
1713 -942 -697 0
1713 942 697 0
-1714 266 -1138 0
-1714 -266 1138 0
1714 -266 -1138 0
1714 266 1138 0
-1715 1284 708 0
-1715 -1284 -708 0
1715 -1284 708 0
1715 1284 -708 0
-1716 1286 -728 0
-1716 -1286 728 0
1716 -1286 -728 0
1716 1286 728 0
-1717 -209 -386 0
-1717 209 386 0
1717 209 -386 0
1717 -209 386 0
-1718 1500 0
-1718 -655 0
1718 -1500 655 0
-1719 -324 -1205 0
-1719 324 1205 0
1719 324 -1205 0
1719 -324 1205 0
-1720 -1425 1364 0
-1720 1425 -1364 0
1720 1425 1364 0
1720 -1425 -1364 0
-1721 1383 1333 0
-1721 -1383 -1333 0
1721 -1383 1333 0
1721 1383 -1333 0
-1722 1196 -1621 0
-1722 -1196 1621 0
1722 -1196 -1621 0
1722 1196 1621 0
-1723 1236 -1363 0
-1723 -1236 1363 0
1723 -1236 -1363 0
1723 1236 1363 0
-1724 -1532 0
-1724 96 0
1724 1532 -96 0
-1725 -1538 -118 0
-1725 1538 118 0
1725 1538 -118 0
1725 -1538 118 0
-1726 -1034 -690 0
-1726 1034 690 0
1726 1034 -690 0
1726 -1034 690 0
-1727 -583 -921 0
-1727 583 921 0
1727 583 -921 0
1727 -583 921 0
-1728 -624 0
-1728 1156 0
1728 624 -1156 0
-1729 -1717 1590 0
-1729 1717 -1590 0
1729 1717 1590 0
1729 -1717 -1590 0
-1730 241 0
-1730 -1048 0
1730 -241 1048 0
-1731 599 0
-1731 -632 0
1731 -599 632 0
-1732 -351 -1606 0
-1732 351 1606 0
1732 351 -1606 0
1732 -351 1606 0
-1733 1237 -1601 0
-1733 -1237 1601 0
1733 -1237 -1601 0
1733 1237 1601 0
-1734 -1137 0
-1734 742 0
1734 1137 -742 0
-1735 -1642 135 0
-1735 1642 -135 0
1735 1642 135 0
1735 -1642 -135 0
-1736 903 -179 0
-1736 -903 179 0
1736 -903 -179 0
1736 903 179 0
-1737 44 0
-1737 1102 0
1737 -44 -1102 0
-1738 699 417 0
-1738 -699 -417 0
1738 -699 417 0
1738 699 -417 0
-1739 -527 717 0
-1739 527 -717 0
1739 527 717 0
1739 -527 -717 0
-1740 -727 1430 0
-1740 727 -1430 0
1740 727 1430 0
1740 -727 -1430 0
-1741 -1010 -359 0
-1741 1010 359 0
1741 1010 -359 0
1741 -1010 359 0
-1742 -1285 -178 0
-1742 1285 178 0
1742 1285 -178 0
1742 -1285 178 0
-1743 -1316 -1637 0
-1743 1316 1637 0
1743 1316 -1637 0
1743 -1316 1637 0
-1744 -1026 964 0
-1744 1026 -964 0
1744 1026 964 0
1744 -1026 -964 0
-1745 1436 -1565 0
-1745 -1436 1565 0
1745 -1436 -1565 0
1745 1436 1565 0
-1746 398 106 0
-1746 -398 -106 0
1746 -398 106 0
1746 398 -106 0
-1747 -622 -1641 0
-1747 622 1641 0
1747 622 -1641 0
1747 -622 1641 0
-1748 -1082 1117 0
-1748 1082 -1117 0
1748 1082 1117 0
1748 -1082 -1117 0
-1749 1608 -431 0
-1749 -1608 431 0
1749 -1608 -431 0
1749 1608 431 0
-1750 1668 1268 0
-1750 -1668 -1268 0
1750 -1668 1268 0
1750 1668 -1268 0
-1751 348 1095 0
-1751 -348 -1095 0
1751 -348 1095 0
1751 348 -1095 0
-1752 1468 0
-1752 721 0
1752 -1468 -721 0
-1753 -1593 -1401 0
-1753 1593 1401 0
1753 1593 -1401 0
1753 -1593 1401 0
-1754 -932 0
-1754 1312 0
1754 932 -1312 0
-1755 508 -183 0
-1755 -508 183 0
1755 -508 -183 0
1755 508 183 0
-1756 -208 0
-1756 -1469 0
1756 208 1469 0
-1757 -64 0
-1757 566 0
1757 64 -566 0
-1758 -1709 0
-1758 -1102 0
1758 1709 1102 0
-1759 -1327 837 0
-1759 1327 -837 0
1759 1327 837 0
1759 -1327 -837 0
-1760 -1656 -470 0
-1760 1656 470 0
1760 1656 -470 0
1760 -1656 470 0
-1761 -1728 0
-1761 246 0
1761 1728 -246 0
-1762 -1123 313 0
-1762 1123 -313 0
1762 1123 313 0
1762 -1123 -313 0
-1763 -515 1704 0
-1763 515 -1704 0
1763 515 1704 0
1763 -515 -1704 0
-1764 -1576 424 0
-1764 1576 -424 0
1764 1576 424 0
1764 -1576 -424 0
-1765 -770 520 0
-1765 770 -520 0
1765 770 520 0
1765 -770 -520 0
-1766 739 0
-1766 983 0
1766 -739 -983 0
-1767 1279 -199 0
-1767 -1279 199 0
1767 -1279 -199 0
1767 1279 199 0
-1768 439 -451 0
-1768 -439 451 0
1768 -439 -451 0
1768 439 451 0
-1769 -1608 -1555 0
-1769 1608 1555 0
1769 1608 -1555 0
1769 -1608 1555 0
-1770 -524 1390 0
-1770 524 -1390 0
1770 524 1390 0
1770 -524 -1390 0
-1771 1468 -1738 0
-1771 -1468 1738 0
1771 -1468 -1738 0
1771 1468 1738 0
-1772 -1384 304 0
-1772 1384 -304 0
1772 1384 304 0
1772 -1384 -304 0
-1773 1406 -1234 0
-1773 -1406 1234 0
1773 -1406 -1234 0
1773 1406 1234 0
-1774 -614 -122 0
-1774 614 122 0
1774 614 -122 0
1774 -614 122 0
-1775 910 0
-1775 -962 0
1775 -910 962 0
-1776 655 1500 0
-1776 -655 -1500 0
1776 -655 1500 0
1776 655 -1500 0
-1777 131 0
-1777 -926 0
1777 -131 926 0
-1778 -1506 -670 0
-1778 1506 670 0
1778 1506 -670 0
1778 -1506 670 0
-1779 96 0
-1779 564 0
1779 -96 -564 0
-1780 -742 -12 0
-1780 742 12 0
1780 742 -12 0
1780 -742 12 0
-1781 -971 -506 0
-1781 971 506 0
1781 971 -506 0
1781 -971 506 0
-1782 -35 1658 0
-1782 35 -1658 0
1782 35 1658 0
1782 -35 -1658 0
-1783 -996 381 0
-1783 996 -381 0
1783 996 381 0
1783 -996 -381 0
-1784 -884 0
-1784 -263 0
1784 884 263 0
-1785 1133 697 0
-1785 -1133 -697 0
1785 -1133 697 0
1785 1133 -697 0
-1786 782 197 0
-1786 -782 -197 0
1786 -782 197 0
1786 782 -197 0
-1787 -490 -48 0
-1787 490 48 0
1787 490 -48 0
1787 -490 48 0
-1788 213 -524 0
-1788 -213 524 0
1788 -213 -524 0
1788 213 524 0
-1789 -1781 0
-1789 -1314 0
1789 1781 1314 0
-1790 -1029 0
-1790 -1058 0
1790 1029 1058 0
-1791 -383 1092 0
-1791 383 -1092 0
1791 383 1092 0
1791 -383 -1092 0
-1792 1707 0
-1792 -364 0
1792 -1707 364 0
-1793 -637 0
-1793 927 0
1793 637 -927 0
-1794 -1438 0
-1794 -1010 0
1794 1438 1010 0
-1795 211 0
-1795 1180 0
1795 -211 -1180 0
-1796 954 1025 0
-1796 -954 -1025 0
1796 -954 1025 0
1796 954 -1025 0
-1797 -1037 1377 0
-1797 1037 -1377 0
1797 1037 1377 0
1797 -1037 -1377 0
-1798 528 0
-1798 -811 0
1798 -528 811 0
-1799 599 0
-1799 -1491 0
1799 -599 1491 0
-1800 1046 121 0
-1800 -1046 -121 0
1800 -1046 121 0
1800 1046 -121 0
-1801 -312 -1534 0
-1801 312 1534 0
1801 312 -1534 0
1801 -312 1534 0
-1802 185 -1586 0
-1802 -185 1586 0
1802 -185 -1586 0
1802 185 1586 0
-1803 618 -475 0
-1803 -618 475 0
1803 -618 -475 0
1803 618 475 0
-1804 1763 -423 0
-1804 -1763 423 0
1804 -1763 -423 0
1804 1763 423 0
-1805 -427 250 0
-1805 427 -250 0
1805 427 250 0
1805 -427 -250 0
-1806 -759 20 0
-1806 759 -20 0
1806 759 20 0
1806 -759 -20 0
-1807 -1132 -1484 0
-1807 1132 1484 0
1807 1132 -1484 0
1807 -1132 1484 0
-1808 316 156 0
-1808 -316 -156 0
1808 -316 156 0
1808 316 -156 0
-1809 -870 -1422 0
-1809 870 1422 0
1809 870 -1422 0
1809 -870 1422 0
-1810 -1366 1509 0
-1810 1366 -1509 0
1810 1366 1509 0
1810 -1366 -1509 0
-1811 277 0
-1811 -933 0
1811 -277 933 0
-1812 -1197 0
-1812 227 0
1812 1197 -227 0
-1813 1249 -1060 0
-1813 -1249 1060 0
1813 -1249 -1060 0
1813 1249 1060 0
-1814 -578 1374 0
-1814 578 -1374 0
1814 578 1374 0
1814 -578 -1374 0
-1815 -1233 387 0
-1815 1233 -387 0
1815 1233 387 0
1815 -1233 -387 0
-1816 26 -293 0
-1816 -26 293 0
1816 -26 -293 0
1816 26 293 0
-1817 -54 -153 0
-1817 54 153 0
1817 54 -153 0
1817 -54 153 0
-1818 -696 -1577 0
-1818 696 1577 0
1818 696 -1577 0
1818 -696 1577 0
-1819 -1628 1584 0
-1819 1628 -1584 0
1819 1628 1584 0
1819 -1628 -1584 0
-1820 612 -1463 0
-1820 -612 1463 0
1820 -612 -1463 0
1820 612 1463 0
-1821 393 565 0
-1821 -393 -565 0
1821 -393 565 0
1821 393 -565 0
-1822 1291 887 0
-1822 -1291 -887 0
1822 -1291 887 0
1822 1291 -887 0
-1823 -143 255 0
-1823 143 -255 0
1823 143 255 0
1823 -143 -255 0
-1824 143 898 0
-1824 -143 -898 0
1824 -143 898 0
1824 143 -898 0
-1825 -1693 977 0
-1825 1693 -977 0
1825 1693 977 0
1825 -1693 -977 0
-1826 659 1057 0
-1826 -659 -1057 0
1826 -659 1057 0
1826 659 -1057 0
-1827 234 0
-1827 -1544 0
1827 -234 1544 0
-1828 -1674 -990 0
-1828 1674 990 0
1828 1674 -990 0
1828 -1674 990 0
-1829 1411 556 0
-1829 -1411 -556 0
1829 -1411 556 0
1829 1411 -556 0
-1830 1273 -638 0
-1830 -1273 638 0
1830 -1273 -638 0
1830 1273 638 0
-1831 709 1512 0
-1831 -709 -1512 0
1831 -709 1512 0
1831 709 -1512 0
-1832 599 448 0
-1832 -599 -448 0
1832 -599 448 0
1832 599 -448 0
-1833 -1571 0
-1833 -968 0
1833 1571 968 0
-1834 9 -865 0
-1834 -9 865 0
1834 -9 -865 0
1834 9 865 0
-1835 -1412 0
-1835 -271 0
1835 1412 271 0
-1836 232 1573 0
-1836 -232 -1573 0
1836 -232 1573 0
1836 232 -1573 0
-1837 -861 697 0
-1837 861 -697 0
1837 861 697 0
1837 -861 -697 0
-1838 1323 0
-1838 -87 0
1838 -1323 87 0
-1839 -1385 0
-1839 -1097 0
1839 1385 1097 0
-1840 -334 0
-1840 1384 0
1840 334 -1384 0
-1841 -742 -1725 0
-1841 742 1725 0
1841 742 -1725 0
1841 -742 1725 0
-1842 -1743 0
-1842 1353 0
1842 1743 -1353 0
-1843 -1534 0
-1843 828 0
1843 1534 -828 0
-1844 -1498 -1564 0
-1844 1498 1564 0
1844 1498 -1564 0
1844 -1498 1564 0
-1845 1764 1468 0
-1845 -1764 -1468 0
1845 -1764 1468 0
1845 1764 -1468 0
-1846 -482 0
-1846 -135 0
1846 482 135 0
-1847 1560 0
-1847 -783 0
1847 -1560 783 0
-1848 -103 1371 0
-1848 103 -1371 0
1848 103 1371 0
1848 -103 -1371 0
-1849 1626 0
-1849 -1682 0
1849 -1626 1682 0
-1850 538 349 0
-1850 -538 -349 0
1850 -538 349 0
1850 538 -349 0
-1851 -1539 0
-1851 -1250 0
1851 1539 1250 0
-1852 -926 -169 0
-1852 926 169 0
1852 926 -169 0
1852 -926 169 0
-1853 1449 936 0
-1853 -1449 -936 0
1853 -1449 936 0
1853 1449 -936 0
-1854 -78 819 0
-1854 78 -819 0
1854 78 819 0
1854 -78 -819 0
-1855 653 0
-1855 1814 0
1855 -653 -1814 0
-1856 18 822 0
-1856 -18 -822 0
1856 -18 822 0
1856 18 -822 0
-1857 888 1722 0
-1857 -888 -1722 0
1857 -888 1722 0
1857 888 -1722 0
-1858 1219 -276 0
-1858 -1219 276 0
1858 -1219 -276 0
1858 1219 276 0
-1859 -1766 0
-1859 -34 0
1859 1766 34 0
-1860 368 -258 0
-1860 -368 258 0
1860 -368 -258 0
1860 368 258 0
-1861 1366 -1839 0
-1861 -1366 1839 0
1861 -1366 -1839 0
1861 1366 1839 0
-1862 -642 0
-1862 -938 0
1862 642 938 0
-1863 -761 1113 0
-1863 761 -1113 0
1863 761 1113 0
1863 -761 -1113 0
-1864 -190 515 0
-1864 190 -515 0
1864 190 515 0
1864 -190 -515 0
-1865 196 -735 0
-1865 -196 735 0
1865 -196 -735 0
1865 196 735 0
-1866 301 280 0
-1866 -301 -280 0
1866 -301 280 0
1866 301 -280 0
-1867 1507 0
-1867 1845 0
1867 -1507 -1845 0
-1868 1258 57 0
-1868 -1258 -57 0
1868 -1258 57 0
1868 1258 -57 0
-1869 1326 263 0
-1869 -1326 -263 0
1869 -1326 263 0
1869 1326 -263 0
-1870 790 -1424 0
-1870 -790 1424 0
1870 -790 -1424 0
1870 790 1424 0
-1871 -1151 0
-1871 332 0
1871 1151 -332 0
-1872 -1209 0
-1872 -1853 0
1872 1209 1853 0
-1873 -777 -275 0
-1873 777 275 0
1873 777 -275 0
1873 -777 275 0
-1874 897 1787 0
-1874 -897 -1787 0
1874 -897 1787 0
1874 897 -1787 0
-1875 1659 -16 0
-1875 -1659 16 0
1875 -1659 -16 0
1875 1659 16 0
-1876 237 -1835 0
-1876 -237 1835 0
1876 -237 -1835 0
1876 237 1835 0
-1877 307 964 0
-1877 -307 -964 0
1877 -307 964 0
1877 307 -964 0
-1878 1288 0
-1878 -326 0
1878 -1288 326 0
-1879 -1199 0
-1879 -398 0
1879 1199 398 0
-1880 621 -1606 0
-1880 -621 1606 0
1880 -621 -1606 0
1880 621 1606 0
-1881 1807 -1084 0
-1881 -1807 1084 0
1881 -1807 -1084 0
1881 1807 1084 0
-1882 705 -530 0
-1882 -705 530 0
1882 -705 -530 0
1882 705 530 0
-1883 -1870 1125 0
-1883 1870 -1125 0
1883 1870 1125 0
1883 -1870 -1125 0
-1884 -626 1237 0
-1884 626 -1237 0
1884 626 1237 0
1884 -626 -1237 0
-1885 434 -615 0
-1885 -434 615 0
1885 -434 -615 0
1885 434 615 0
-1886 -62 1063 0
-1886 62 -1063 0
1886 62 1063 0
1886 -62 -1063 0
-1887 -798 0
-1887 -1080 0
1887 798 1080 0
-1888 1734 -1551 0
-1888 -1734 1551 0
1888 -1734 -1551 0
1888 1734 1551 0
-1889 1146 1275 0
-1889 -1146 -1275 0
1889 -1146 1275 0
1889 1146 -1275 0
-1890 715 317 0
-1890 -715 -317 0
1890 -715 317 0
1890 715 -317 0
-1891 -164 1596 0
-1891 164 -1596 0
1891 164 1596 0
1891 -164 -1596 0
-1892 1409 0
-1892 -1068 0
1892 -1409 1068 0
-1893 909 721 0
-1893 -909 -721 0
1893 -909 721 0
1893 909 -721 0
-1894 867 1893 0
-1894 -867 -1893 0
1894 -867 1893 0
1894 867 -1893 0
-1895 1786 496 0
-1895 -1786 -496 0
1895 -1786 496 0
1895 1786 -496 0
-1896 39 1313 0
-1896 -39 -1313 0
1896 -39 1313 0
1896 39 -1313 0
-1897 1721 -800 0
-1897 -1721 800 0
1897 -1721 -800 0
1897 1721 800 0
-1898 84 838 0
-1898 -84 -838 0
1898 -84 838 0
1898 84 -838 0
-1899 1105 -1435 0
-1899 -1105 1435 0
1899 -1105 -1435 0
1899 1105 1435 0
-1900 -1242 -1202 0
-1900 1242 1202 0
1900 1242 -1202 0
1900 -1242 1202 0
-1901 -687 920 0
-1901 687 -920 0
1901 687 920 0
1901 -687 -920 0
-1902 -1512 0
-1902 1399 0
1902 1512 -1399 0
-1903 -1299 0
-1903 617 0
1903 1299 -617 0
-1904 -815 0
-1904 962 0
1904 815 -962 0
-1905 -1281 -441 0
-1905 1281 441 0
1905 1281 -441 0
1905 -1281 441 0
-1906 -953 -1778 0
-1906 953 1778 0
1906 953 -1778 0
1906 -953 1778 0
-1907 1534 11 0
-1907 -1534 -11 0
1907 -1534 11 0
1907 1534 -11 0
-1908 1486 -652 0
-1908 -1486 652 0
1908 -1486 -652 0
1908 1486 652 0
-1909 -271 0
-1909 1718 0
1909 271 -1718 0
-1910 -972 0
-1910 -523 0
1910 972 523 0
-1911 -1082 956 0
-1911 1082 -956 0
1911 1082 956 0
1911 -1082 -956 0
-1912 -1246 -703 0
-1912 1246 703 0
1912 1246 -703 0
1912 -1246 703 0
-1913 1896 -369 0
-1913 -1896 369 0
1913 -1896 -369 0
1913 1896 369 0
-1914 416 80 0
-1914 -416 -80 0
1914 -416 80 0
1914 416 -80 0
-1915 1301 0
-1915 960 0
1915 -1301 -960 0
-1916 962 530 0
-1916 -962 -530 0
1916 -962 530 0
1916 962 -530 0
-1917 1626 1361 0
-1917 -1626 -1361 0
1917 -1626 1361 0
1917 1626 -1361 0
-1918 641 1223 0
-1918 -641 -1223 0
1918 -641 1223 0
1918 641 -1223 0
-1919 707 -767 0
-1919 -707 767 0
1919 -707 -767 0
1919 707 767 0
-1920 -1110 0
-1920 267 0
1920 1110 -267 0
-1921 -1030 86 0
-1921 1030 -86 0
1921 1030 86 0
1921 -1030 -86 0
-1922 713 921 0
-1922 -713 -921 0
1922 -713 921 0
1922 713 -921 0
-1923 -1060 0
-1923 142 0
1923 1060 -142 0
-1924 -501 -1139 0
-1924 501 1139 0
1924 501 -1139 0
1924 -501 1139 0
-1925 838 -793 0
-1925 -838 793 0
1925 -838 -793 0
1925 838 793 0
-1926 -888 -1088 0
-1926 888 1088 0
1926 888 -1088 0
1926 -888 1088 0
-1927 1827 1131 0
-1927 -1827 -1131 0
1927 -1827 1131 0
1927 1827 -1131 0
-1928 -1206 -166 0
-1928 1206 166 0
1928 1206 -166 0
1928 -1206 166 0
-1929 1696 1505 0
-1929 -1696 -1505 0
1929 -1696 1505 0
1929 1696 -1505 0
-1930 1132 -1667 0
-1930 -1132 1667 0
1930 -1132 -1667 0
1930 1132 1667 0
-1931 -1432 -437 0
-1931 1432 437 0
1931 1432 -437 0
1931 -1432 437 0
-1932 1545 -800 0
-1932 -1545 800 0
1932 -1545 -800 0
1932 1545 800 0
-1933 -835 1863 0
-1933 835 -1863 0
1933 835 1863 0
1933 -835 -1863 0
-1934 1510 191 0
-1934 -1510 -191 0
1934 -1510 191 0
1934 1510 -191 0
-1935 904 -668 0
-1935 -904 668 0
1935 -904 -668 0
1935 904 668 0
-1936 910 -44 0
-1936 -910 44 0
1936 -910 -44 0
1936 910 44 0
-1937 1712 1164 0
-1937 -1712 -1164 0
1937 -1712 1164 0
1937 1712 -1164 0
-1938 54 269 0
-1938 -54 -269 0
1938 -54 269 0
1938 54 -269 0
-1939 1889 -1744 0
-1939 -1889 1744 0
1939 -1889 -1744 0
1939 1889 1744 0
-1940 1289 -1067 0
-1940 -1289 1067 0
1940 -1289 -1067 0
1940 1289 1067 0
-1941 989 805 0
-1941 -989 -805 0
1941 -989 805 0
1941 989 -805 0
-1942 -483 0
-1942 1086 0
1942 483 -1086 0
-1943 -1238 1320 0
-1943 1238 -1320 0
1943 1238 1320 0
1943 -1238 -1320 0
-1944 532 -146 0
-1944 -532 146 0
1944 -532 -146 0
1944 532 146 0
-1945 -854 0
-1945 132 0
1945 854 -132 0
-1946 1704 -1291 0
-1946 -1704 1291 0
1946 -1704 -1291 0
1946 1704 1291 0
-1947 721 0
-1947 -1226 0
1947 -721 1226 0
-1948 -287 0
-1948 486 0
1948 287 -486 0
-1949 -1817 -159 0
-1949 1817 159 0
1949 1817 -159 0
1949 -1817 159 0
-1950 703 0
-1950 105 0
1950 -703 -105 0
-1951 -626 1085 0
-1951 626 -1085 0
1951 626 1085 0
1951 -626 -1085 0
-1952 1322 129 0
-1952 -1322 -129 0
1952 -1322 129 0
1952 1322 -129 0
-1953 -1472 0
-1953 572 0
1953 1472 -572 0
-1954 1724 -1697 0
-1954 -1724 1697 0
1954 -1724 -1697 0
1954 1724 1697 0
-1955 -644 470 0
-1955 644 -470 0
1955 644 470 0
1955 -644 -470 0
-1956 295 -1930 0
-1956 -295 1930 0
1956 -295 -1930 0
1956 295 1930 0
-1957 1453 0
-1957 -13 0
1957 -1453 13 0
-1958 -1140 1401 0
-1958 1140 -1401 0
1958 1140 1401 0
1958 -1140 -1401 0
-1959 -1782 215 0
-1959 1782 -215 0
1959 1782 215 0
1959 -1782 -215 0
-1960 1343 -310 0
-1960 -1343 310 0
1960 -1343 -310 0
1960 1343 310 0
-1961 -928 1560 0
-1961 928 -1560 0
1961 928 1560 0
1961 -928 -1560 0
-1962 1458 -169 0
-1962 -1458 169 0
1962 -1458 -169 0
1962 1458 169 0
-1963 1756 -587 0
-1963 -1756 587 0
1963 -1756 -587 0
1963 1756 587 0
-1964 963 -1538 0
-1964 -963 1538 0
1964 -963 -1538 0
1964 963 1538 0
-1965 -1153 836 0
-1965 1153 -836 0
1965 1153 836 0
1965 -1153 -836 0
-1966 -399 -1376 0
-1966 399 1376 0
1966 399 -1376 0
1966 -399 1376 0
-1967 -376 0
-1967 252 0
1967 376 -252 0
-1968 1540 0
-1968 -254 0
1968 -1540 254 0
-1969 -498 0
-1969 -1391 0
1969 498 1391 0
-1970 -1121 -1321 0
-1970 1121 1321 0
1970 1121 -1321 0
1970 -1121 1321 0
-1971 1721 -1321 0
-1971 -1721 1321 0
1971 -1721 -1321 0
1971 1721 1321 0
-1972 315 0
-1972 -114 0
1972 -315 114 0
-1973 1205 -150 0
-1973 -1205 150 0
1973 -1205 -150 0
1973 1205 150 0
-1974 -231 -621 0
-1974 231 621 0
1974 231 -621 0
1974 -231 621 0
-1975 -1034 -1483 0
-1975 1034 1483 0
1975 1034 -1483 0
1975 -1034 1483 0
-1976 -1832 -1901 0
-1976 1832 1901 0
1976 1832 -1901 0
1976 -1832 1901 0
-1977 1595 738 0
-1977 -1595 -738 0
1977 -1595 738 0
1977 1595 -738 0
-1978 987 745 0
-1978 -987 -745 0
1978 -987 745 0
1978 987 -745 0
-1979 1131 1579 0
-1979 -1131 -1579 0
1979 -1131 1579 0
1979 1131 -1579 0
-1980 -855 0
-1980 -270 0
1980 855 270 0
-1981 -1957 0
-1981 256 0
1981 1957 -256 0
-1982 335 -1921 0
-1982 -335 1921 0
1982 -335 -1921 0
1982 335 1921 0
-1983 -1283 0
-1983 105 0
1983 1283 -105 0
-1984 -715 -753 0
-1984 715 753 0
1984 715 -753 0
1984 -715 753 0
-1985 -334 1038 0
-1985 334 -1038 0
1985 334 1038 0
1985 -334 -1038 0
-1986 973 -1567 0
-1986 -973 1567 0
1986 -973 -1567 0
1986 973 1567 0
-1987 -108 0
-1987 1931 0
1987 108 -1931 0
-1988 -1530 -37 0
-1988 1530 37 0
1988 1530 -37 0
1988 -1530 37 0
-1989 829 -1939 0
-1989 -829 1939 0
1989 -829 -1939 0
1989 829 1939 0
-1990 -1165 1435 0
-1990 1165 -1435 0
1990 1165 1435 0
1990 -1165 -1435 0
-1991 -718 -40 0
-1991 718 40 0
1991 718 -40 0
1991 -718 40 0
-1992 -841 1644 0
-1992 841 -1644 0
1992 841 1644 0
1992 -841 -1644 0
-1993 1731 -480 0
-1993 -1731 480 0
1993 -1731 -480 0
1993 1731 480 0
-1994 -861 -542 0
-1994 861 542 0
1994 861 -542 0
1994 -861 542 0
-1995 382 0
-1995 354 0
1995 -382 -354 0
-1996 515 1375 0
-1996 -515 -1375 0
1996 -515 1375 0
1996 515 -1375 0
-1997 -1319 0
-1997 1154 0
1997 1319 -1154 0
-1998 -1485 -870 0
-1998 1485 870 0
1998 1485 -870 0
1998 -1485 870 0
-1999 1216 0
-1999 -613 0
1999 -1216 613 0
-2000 1954 -1577 0
-2000 -1954 1577 0
2000 -1954 -1577 0
2000 1954 1577 0
-2001 1719 0
-2001 1551 0
2001 -1719 -1551 0
-2002 -517 0
-2002 -1145 0
2002 517 1145 0
-2003 976 0
-2003 -1666 0
2003 -976 1666 0
-2004 1498 0
-2004 827 0
2004 -1498 -827 0
-2005 -475 1335 0
-2005 475 -1335 0
2005 475 1335 0
2005 -475 -1335 0
-2006 -207 -581 0
-2006 207 581 0
2006 207 -581 0
2006 -207 581 0
-2007 952 -1650 0
-2007 -952 1650 0
2007 -952 -1650 0
2007 952 1650 0
-2008 1436 0
-2008 -1753 0
2008 -1436 1753 0
-2009 -1986 1691 0
-2009 1986 -1691 0
2009 1986 1691 0
2009 -1986 -1691 0
-2010 -904 0
-2010 11 0
2010 904 -11 0
-2011 -919 -96 0
-2011 919 96 0
2011 919 -96 0
2011 -919 96 0
-2012 -1741 0
-2012 1142 0
2012 1741 -1142 0
-2013 -662 356 0
-2013 662 -356 0
2013 662 356 0
2013 -662 -356 0
-2014 1407 1760 0
-2014 -1407 -1760 0
2014 -1407 1760 0
2014 1407 -1760 0
-2015 -1842 1902 0
-2015 1842 -1902 0
2015 1842 1902 0
2015 -1842 -1902 0
-2016 -1221 -1362 0
-2016 1221 1362 0
2016 1221 -1362 0
2016 -1221 1362 0
-2017 1368 0
-2017 1296 0
2017 -1368 -1296 0
-2018 1759 0
-2018 -429 0
2018 -1759 429 0
-2019 -203 0
-2019 790 0
2019 203 -790 0
-2020 1190 -842 0
-2020 -1190 842 0
2020 -1190 -842 0
2020 1190 842 0
-2021 -1262 680 0
-2021 1262 -680 0
2021 1262 680 0
2021 -1262 -680 0
-2022 1646 1176 0
-2022 -1646 -1176 0
2022 -1646 1176 0
2022 1646 -1176 0
-2023 -898 0
-2023 961 0
2023 898 -961 0
-2024 -1954 686 0
-2024 1954 -686 0
2024 1954 686 0
2024 -1954 -686 0
-2025 -1335 0
-2025 671 0
2025 1335 -671 0
-2026 1537 1351 0
-2026 -1537 -1351 0
2026 -1537 1351 0
2026 1537 -1351 0
-2027 -1694 -1144 0
-2027 1694 1144 0
2027 1694 -1144 0
2027 -1694 1144 0
-2028 -1657 1965 0
-2028 1657 -1965 0
2028 1657 1965 0
2028 -1657 -1965 0
-2029 -1441 0
-2029 -221 0
2029 1441 221 0
-2030 1772 1207 0
-2030 -1772 -1207 0
2030 -1772 1207 0
2030 1772 -1207 0
-2031 -964 2017 0
-2031 964 -2017 0
2031 964 2017 0
2031 -964 -2017 0
-2032 -734 -1172 0
-2032 734 1172 0
2032 734 -1172 0
2032 -734 1172 0
-2033 360 -1558 0
-2033 -360 1558 0
2033 -360 -1558 0
2033 360 1558 0
-2034 1477 514 0
-2034 -1477 -514 0
2034 -1477 514 0
2034 1477 -514 0
-2035 612 0
-2035 -498 0
2035 -612 498 0
-2036 -1865 0
-2036 -1915 0
2036 1865 1915 0
-2037 1338 -704 0
-2037 -1338 704 0
2037 -1338 -704 0
2037 1338 704 0
-2038 1496 323 0
-2038 -1496 -323 0
2038 -1496 323 0
2038 1496 -323 0
-2039 -555 -1468 0
-2039 555 1468 0
2039 555 -1468 0
2039 -555 1468 0
-2040 739 1577 0
-2040 -739 -1577 0
2040 -739 1577 0
2040 739 -1577 0
-2041 -1437 -1488 0
-2041 1437 1488 0
2041 1437 -1488 0
2041 -1437 1488 0
-2042 1910 1780 0
-2042 -1910 -1780 0
2042 -1910 1780 0
2042 1910 -1780 0
-2043 -408 0
-2043 1192 0
2043 408 -1192 0
-2044 -1518 0
-2044 -985 0
2044 1518 985 0
-2045 381 -1247 0
-2045 -381 1247 0
2045 -381 -1247 0
2045 381 1247 0
-2046 1613 1305 0
-2046 -1613 -1305 0
2046 -1613 1305 0
2046 1613 -1305 0
-2047 1961 -852 0
-2047 -1961 852 0
2047 -1961 -852 0
2047 1961 852 0
-2048 -1037 2039 0
-2048 1037 -2039 0
2048 1037 2039 0
2048 -1037 -2039 0
-2049 169 85 0
-2049 -169 -85 0
2049 -169 85 0
2049 169 -85 0
-2050 711 1280 0
-2050 -711 -1280 0
2050 -711 1280 0
2050 711 -1280 0
-2051 -809 1803 0
-2051 809 -1803 0
2051 809 1803 0
2051 -809 -1803 0
-2052 1182 903 0
-2052 -1182 -903 0
2052 -1182 903 0
2052 1182 -903 0
-2053 2013 -905 0
-2053 -2013 905 0
2053 -2013 -905 0
2053 2013 905 0
-2054 -877 1847 0
-2054 877 -1847 0
2054 877 1847 0
2054 -877 -1847 0
-2055 1001 -1190 0
-2055 -1001 1190 0
2055 -1001 -1190 0
2055 1001 1190 0
-2056 1428 0
-2056 -699 0
2056 -1428 699 0
-2057 -1713 0
-2057 482 0
2057 1713 -482 0
-2058 -1082 1417 0
-2058 1082 -1417 0
2058 1082 1417 0
2058 -1082 -1417 0
-2059 -270 -609 0
-2059 270 609 0
2059 270 -609 0
2059 -270 609 0
-2060 -1658 41 0
-2060 1658 -41 0
2060 1658 41 0
2060 -1658 -41 0
-2061 -495 -33 0
-2061 495 33 0
2061 495 -33 0
2061 -495 33 0
-2062 1963 0
-2062 1912 0
2062 -1963 -1912 0
-2063 -1400 -924 0
-2063 1400 924 0
2063 1400 -924 0
2063 -1400 924 0
-2064 1224 -1143 0
-2064 -1224 1143 0
2064 -1224 -1143 0
2064 1224 1143 0
-2065 -689 1919 0
-2065 689 -1919 0
2065 689 1919 0
2065 -689 -1919 0
-2066 2035 -687 0
-2066 -2035 687 0
2066 -2035 -687 0
2066 2035 687 0
-2067 -1919 -96 0
-2067 1919 96 0
2067 1919 -96 0
2067 -1919 96 0
-2068 -826 0
-2068 1646 0
2068 826 -1646 0
-2069 -2063 0
-2069 7 0
2069 2063 -7 0
-2070 11 0
-2070 576 0
2070 -11 -576 0
-2071 2066 989 0
-2071 -2066 -989 0
2071 -2066 989 0
2071 2066 -989 0
-2072 -1800 -51 0
-2072 1800 51 0
2072 1800 -51 0
2072 -1800 51 0
-2073 -1747 0
-2073 -710 0
2073 1747 710 0
-2074 1690 312 0
-2074 -1690 -312 0
2074 -1690 312 0
2074 1690 -312 0
-2075 837 0
-2075 1392 0
2075 -837 -1392 0
-2076 -375 0
-2076 -1528 0
2076 375 1528 0
-2077 -743 -1872 0
-2077 743 1872 0
2077 743 -1872 0
2077 -743 1872 0
-2078 -814 -602 0
-2078 814 602 0
2078 814 -602 0
2078 -814 602 0
-2079 645 0
-2079 1289 0
2079 -645 -1289 0
-2080 -1044 -1730 0
-2080 1044 1730 0
2080 1044 -1730 0
2080 -1044 1730 0
-2081 -68 -1753 0
-2081 68 1753 0
2081 68 -1753 0
2081 -68 1753 0
-2082 1547 -476 0
-2082 -1547 476 0
2082 -1547 -476 0
2082 1547 476 0
-2083 -1208 0
-2083 1630 0
2083 1208 -1630 0
-2084 586 -432 0
-2084 -586 432 0
2084 -586 -432 0
2084 586 432 0
-2085 1350 -1794 0
-2085 -1350 1794 0
2085 -1350 -1794 0
2085 1350 1794 0
-2086 2067 -1929 0
-2086 -2067 1929 0
2086 -2067 -1929 0
2086 2067 1929 0
-2087 -1574 -881 0
-2087 1574 881 0
2087 1574 -881 0
2087 -1574 881 0
-2088 -1516 1699 0
-2088 1516 -1699 0
2088 1516 1699 0
2088 -1516 -1699 0
-2089 96 1415 0
-2089 -96 -1415 0
2089 -96 1415 0
2089 96 -1415 0
-2090 1812 0
-2090 -702 0
2090 -1812 702 0
-2091 2048 1907 0
-2091 -2048 -1907 0
2091 -2048 1907 0
2091 2048 -1907 0
-2092 -1626 762 0
-2092 1626 -762 0
2092 1626 762 0
2092 -1626 -762 0
-2093 -800 0
-2093 -53 0
2093 800 53 0
-2094 -1911 -859 0
-2094 1911 859 0
2094 1911 -859 0
2094 -1911 859 0
-2095 -932 0
-2095 -1328 0
2095 932 1328 0
-2096 1091 -522 0
-2096 -1091 522 0
2096 -1091 -522 0
2096 1091 522 0
-2097 -1103 1659 0
-2097 1103 -1659 0
2097 1103 1659 0
2097 -1103 -1659 0
-2098 835 -829 0
-2098 -835 829 0
2098 -835 -829 0
2098 835 829 0
-2099 -557 1597 0
-2099 557 -1597 0
2099 557 1597 0
2099 -557 -1597 0
-2100 2096 -1144 0
-2100 -2096 1144 0
2100 -2096 -1144 0
2100 2096 1144 0
-2101 -186 22 0
-2101 186 -22 0
2101 186 22 0
2101 -186 -22 0
-2102 -1639 1379 0
-2102 1639 -1379 0
2102 1639 1379 0
2102 -1639 -1379 0
-2103 -1196 0
-2103 1205 0
2103 1196 -1205 0
-2104 1287 1873 0
-2104 -1287 -1873 0
2104 -1287 1873 0
2104 1287 -1873 0
-2105 -294 -506 0
-2105 294 506 0
2105 294 -506 0
2105 -294 506 0
-2106 150 43 0
-2106 -150 -43 0
2106 -150 43 0
2106 150 -43 0
-2107 511 1916 0
-2107 -511 -1916 0
2107 -511 1916 0
2107 511 -1916 0
-2108 -1905 0
-2108 1950 0
2108 1905 -1950 0
-2109 1721 -1492 0
-2109 -1721 1492 0
2109 -1721 -1492 0
2109 1721 1492 0
-2110 1857 -978 0
-2110 -1857 978 0
2110 -1857 -978 0
2110 1857 978 0
-2111 -78 -14 0
-2111 78 14 0
2111 78 -14 0
2111 -78 14 0
-2112 2080 419 0
-2112 -2080 -419 0
2112 -2080 419 0
2112 2080 -419 0
-2113 -1860 -581 0
-2113 1860 581 0
2113 1860 -581 0
2113 -1860 581 0
-2114 -1949 -1164 0
-2114 1949 1164 0
2114 1949 -1164 0
2114 -1949 1164 0
-2115 1092 415 0
-2115 -1092 -415 0
2115 -1092 415 0
2115 1092 -415 0
-2116 -1237 -903 0
-2116 1237 903 0
2116 1237 -903 0
2116 -1237 903 0
-2117 -959 -964 0
-2117 959 964 0
2117 959 -964 0
2117 -959 964 0
-2118 889 1779 0
-2118 -889 -1779 0
2118 -889 1779 0
2118 889 -1779 0
-2119 -2005 -1551 0
-2119 2005 1551 0
2119 2005 -1551 0
2119 -2005 1551 0
-2120 -969 1958 0
-2120 969 -1958 0
2120 969 1958 0
2120 -969 -1958 0
-2121 -604 0
-2121 -732 0
2121 604 732 0
-2122 930 0
-2122 -1875 0
2122 -930 1875 0
-2123 795 0
-2123 1449 0
2123 -795 -1449 0
-2124 1907 -1157 0
-2124 -1907 1157 0
2124 -1907 -1157 0
2124 1907 1157 0
-2125 1869 0
-2125 1180 0
2125 -1869 -1180 0
-2126 -51 881 0
-2126 51 -881 0
2126 51 881 0
2126 -51 -881 0
-2127 2116 -446 0
-2127 -2116 446 0
2127 -2116 -446 0
2127 2116 446 0
-2128 -801 1555 0
-2128 801 -1555 0
2128 801 1555 0
2128 -801 -1555 0
-2129 1737 445 0
-2129 -1737 -445 0
2129 -1737 445 0
2129 1737 -445 0
-2130 -561 231 0
-2130 561 -231 0
2130 561 231 0
2130 -561 -231 0
-2131 -425 94 0
-2131 425 -94 0
2131 425 94 0
2131 -425 -94 0
-2132 981 1342 0
-2132 -981 -1342 0
2132 -981 1342 0
2132 981 -1342 0
-2133 -300 0
-2133 -1700 0
2133 300 1700 0
-2134 -1638 0
-2134 1757 0
2134 1638 -1757 0
-2135 -164 0
-2135 1270 0
2135 164 -1270 0
-2136 1147 -1161 0
-2136 -1147 1161 0
2136 -1147 -1161 0
2136 1147 1161 0
-2137 -748 -630 0
-2137 748 630 0
2137 748 -630 0
2137 -748 630 0
-2138 1702 0
-2138 -1082 0
2138 -1702 1082 0
-2139 844 -1191 0
-2139 -844 1191 0
2139 -844 -1191 0
2139 844 1191 0
-2140 -424 0
-2140 1152 0
2140 424 -1152 0
-2141 -1236 0
-2141 47 0
2141 1236 -47 0
-2142 691 0
-2142 -295 0
2142 -691 295 0
-2143 1288 159 0
-2143 -1288 -159 0
2143 -1288 159 0
2143 1288 -159 0
-2144 1381 1626 0
-2144 -1381 -1626 0
2144 -1381 1626 0
2144 1381 -1626 0
-2145 978 -1952 0
-2145 -978 1952 0
2145 -978 -1952 0
2145 978 1952 0
-2146 -407 1546 0
-2146 407 -1546 0
2146 407 1546 0
2146 -407 -1546 0
-2147 -145 0
-2147 -1662 0
2147 145 1662 0
-2148 2041 1632 0
-2148 -2041 -1632 0
2148 -2041 1632 0
2148 2041 -1632 0
-2149 -1425 767 0
-2149 1425 -767 0
2149 1425 767 0
2149 -1425 -767 0
-2150 1222 -95 0
-2150 -1222 95 0
2150 -1222 -95 0
2150 1222 95 0
-2151 1317 895 0
-2151 -1317 -895 0
2151 -1317 895 0
2151 1317 -895 0
-2152 1195 0
-2152 1912 0
2152 -1195 -1912 0
-2153 456 0
-2153 86 0
2153 -456 -86 0
-2154 988 -1902 0
-2154 -988 1902 0
2154 -988 -1902 0
2154 988 1902 0
-2155 1073 -1440 0
-2155 -1073 1440 0
2155 -1073 -1440 0
2155 1073 1440 0
-2156 -1091 -158 0
-2156 1091 158 0
2156 1091 -158 0
2156 -1091 158 0
-2157 -537 297 0
-2157 537 -297 0
2157 537 297 0
2157 -537 -297 0
-2158 -1852 0
-2158 -1858 0
2158 1852 1858 0
-2159 993 715 0
-2159 -993 -715 0
2159 -993 715 0
2159 993 -715 0
-2160 -176 0
-2160 -358 0
2160 176 358 0
-2161 -1163 0
-2161 -724 0
2161 1163 724 0
-2162 -213 0
-2162 1220 0
2162 213 -1220 0
-2163 -1293 1495 0
-2163 1293 -1495 0
2163 1293 1495 0
2163 -1293 -1495 0
-2164 713 0
-2164 1367 0
2164 -713 -1367 0
-2165 -775 -145 0
-2165 775 145 0
2165 775 -145 0
2165 -775 145 0
-2166 807 -2022 0
-2166 -807 2022 0
2166 -807 -2022 0
2166 807 2022 0
-2167 1719 1029 0
-2167 -1719 -1029 0
2167 -1719 1029 0
2167 1719 -1029 0
-2168 -651 759 0
-2168 651 -759 0
2168 651 759 0
2168 -651 -759 0
-2169 -2164 -218 0
-2169 2164 218 0
2169 2164 -218 0
2169 -2164 218 0
-2170 907 999 0
-2170 -907 -999 0
2170 -907 999 0
2170 907 -999 0
-2171 -1764 185 0
-2171 1764 -185 0
2171 1764 185 0
2171 -1764 -185 0
-2172 2106 0
-2172 40 0
2172 -2106 -40 0
-2173 -2042 636 0
-2173 2042 -636 0
2173 2042 636 0
2173 -2042 -636 0
-2174 -1994 0
-2174 -933 0
2174 1994 933 0
-2175 988 0
-2175 747 0
2175 -988 -747 0
-2176 -2099 0
-2176 932 0
2176 2099 -932 0
-2177 1679 -2090 0
-2177 -1679 2090 0
2177 -1679 -2090 0
2177 1679 2090 0
-2178 -1522 -903 0
-2178 1522 903 0
2178 1522 -903 0
2178 -1522 903 0
-2179 -1921 -959 0
-2179 1921 959 0
2179 1921 -959 0
2179 -1921 959 0
-2180 1759 1701 0
-2180 -1759 -1701 0
2180 -1759 1701 0
2180 1759 -1701 0
-2181 1626 -1897 0
-2181 -1626 1897 0
2181 -1626 -1897 0
2181 1626 1897 0
-2182 -1634 1740 0
-2182 1634 -1740 0
2182 1634 1740 0
2182 -1634 -1740 0
-2183 1550 0
-2183 1187 0
2183 -1550 -1187 0
-2184 -357 1950 0
-2184 357 -1950 0
2184 357 1950 0
2184 -357 -1950 0
-2185 -1990 0
-2185 -168 0
2185 1990 168 0
-2186 -2061 -183 0
-2186 2061 183 0
2186 2061 -183 0
2186 -2061 183 0
-2187 1825 -156 0
-2187 -1825 156 0
2187 -1825 -156 0
2187 1825 156 0
-2188 -436 84 0
-2188 436 -84 0
2188 436 84 0
2188 -436 -84 0
-2189 1708 -4 0
-2189 -1708 4 0
2189 -1708 -4 0
2189 1708 4 0
-2190 1304 0
-2190 1762 0
2190 -1304 -1762 0
-2191 1640 -149 0
-2191 -1640 149 0
2191 -1640 -149 0
2191 1640 149 0
-2192 846 -1845 0
-2192 -846 1845 0
2192 -846 -1845 0
2192 846 1845 0
-2193 1857 442 0
-2193 -1857 -442 0
2193 -1857 442 0
2193 1857 -442 0
-2194 -1296 1688 0
-2194 1296 -1688 0
2194 1296 1688 0
2194 -1296 -1688 0
-2195 -1095 -1428 0
-2195 1095 1428 0
2195 1095 -1428 0
2195 -1095 1428 0
-2196 731 0
-2196 -1154 0
2196 -731 1154 0
-2197 -2110 2059 0
-2197 2110 -2059 0
2197 2110 2059 0
2197 -2110 -2059 0
-2198 -569 0
-2198 480 0
2198 569 -480 0
-2199 -1745 454 0
-2199 1745 -454 0
2199 1745 454 0
2199 -1745 -454 0
-2200 1845 0
-2200 -98 0
2200 -1845 98 0
-2201 1840 -1623 0
-2201 -1840 1623 0
2201 -1840 -1623 0
2201 1840 1623 0
-2202 -306 1671 0
-2202 306 -1671 0
2202 306 1671 0
2202 -306 -1671 0
-2203 -2019 -1221 0
-2203 2019 1221 0
2203 2019 -1221 0
2203 -2019 1221 0
-2204 2031 751 0
-2204 -2031 -751 0
2204 -2031 751 0
2204 2031 -751 0
-2205 -335 -1411 0
-2205 335 1411 0
2205 335 -1411 0
2205 -335 1411 0
-2206 1051 1629 0
-2206 -1051 -1629 0
2206 -1051 1629 0
2206 1051 -1629 0
-2207 248 0
-2207 1925 0
2207 -248 -1925 0
-2208 1340 2037 0
-2208 -1340 -2037 0
2208 -1340 2037 0
2208 1340 -2037 0
-2209 -653 1986 0
-2209 653 -1986 0
2209 653 1986 0
2209 -653 -1986 0
-2210 667 0
-2210 -1365 0
2210 -667 1365 0
-2211 -1001 0
-2211 -1199 0
2211 1001 1199 0
-2212 869 -1915 0
-2212 -869 1915 0
2212 -869 -1915 0
2212 869 1915 0
-2213 -767 1719 0
-2213 767 -1719 0
2213 767 1719 0
2213 -767 -1719 0
-2214 -264 -486 0
-2214 264 486 0
2214 264 -486 0
2214 -264 486 0
-2215 177 0
-2215 1994 0
2215 -177 -1994 0
-2216 1060 0
-2216 410 0
2216 -1060 -410 0
-2217 -1675 -290 0
-2217 1675 290 0
2217 1675 -290 0
2217 -1675 290 0
-2218 -1323 0
-2218 804 0
2218 1323 -804 0
-2219 -1206 1730 0
-2219 1206 -1730 0
2219 1206 1730 0
2219 -1206 -1730 0
-2220 1946 -1114 0
-2220 -1946 1114 0
2220 -1946 -1114 0
2220 1946 1114 0
-2221 1767 916 0
-2221 -1767 -916 0
2221 -1767 916 0
2221 1767 -916 0
-2222 -1725 0
-2222 1162 0
2222 1725 -1162 0
-2223 -1154 104 0
-2223 1154 -104 0
2223 1154 104 0
2223 -1154 -104 0
-2224 -419 1310 0
-2224 419 -1310 0
2224 419 1310 0
2224 -419 -1310 0
-2225 786 0
-2225 -449 0
2225 -786 449 0
-2226 -100 1132 0
-2226 100 -1132 0
2226 100 1132 0
2226 -100 -1132 0
-2227 -873 1162 0
-2227 873 -1162 0
2227 873 1162 0
2227 -873 -1162 0
-2228 112 -1564 0
-2228 -112 1564 0
2228 -112 -1564 0
2228 112 1564 0
-2229 -1806 880 0
-2229 1806 -880 0
2229 1806 880 0
2229 -1806 -880 0
-2230 -212 0
-2230 219 0
2230 212 -219 0
-2231 -161 0
-2231 45 0
2231 161 -45 0
-2232 992 0
-2232 -953 0
2232 -992 953 0
-2233 -2125 -967 0
-2233 2125 967 0
2233 2125 -967 0
2233 -2125 967 0
-2234 -1126 0
-2234 -2201 0
2234 1126 2201 0
-2235 -665 -544 0
-2235 665 544 0
2235 665 -544 0
2235 -665 544 0
-2236 1006 0
-2236 1387 0
2236 -1006 -1387 0
-2237 -1783 0
-2237 -565 0
2237 1783 565 0
-2238 -1171 1124 0
-2238 1171 -1124 0
2238 1171 1124 0
2238 -1171 -1124 0
-2239 1469 -1725 0
-2239 -1469 1725 0
2239 -1469 -1725 0
2239 1469 1725 0
-2240 -161 479 0
-2240 161 -479 0
2240 161 479 0
2240 -161 -479 0
-2241 1463 960 0
-2241 -1463 -960 0
2241 -1463 960 0
2241 1463 -960 0
-2242 2225 0
-2242 1219 0
2242 -2225 -1219 0
-2243 586 2153 0
-2243 -586 -2153 0
2243 -586 2153 0
2243 586 -2153 0
-2244 1899 -1672 0
-2244 -1899 1672 0
2244 -1899 -1672 0
2244 1899 1672 0
-2245 -16 -339 0
-2245 16 339 0
2245 16 -339 0
2245 -16 339 0
-2246 1433 0
-2246 377 0
2246 -1433 -377 0
-2247 1477 -555 0
-2247 -1477 555 0
2247 -1477 -555 0
2247 1477 555 0
-2248 743 -178 0
-2248 -743 178 0
2248 -743 -178 0
2248 743 178 0
-2249 -1066 1783 0
-2249 1066 -1783 0
2249 1066 1783 0
2249 -1066 -1783 0
-2250 -1184 0
-2250 -193 0
2250 1184 193 0
-2251 -847 54 0
-2251 847 -54 0
2251 847 54 0
2251 -847 -54 0
-2252 -317 1132 0
-2252 317 -1132 0
2252 317 1132 0
2252 -317 -1132 0
-2253 -585 0
-2253 -1511 0
2253 585 1511 0
-2254 1799 -1780 0
-2254 -1799 1780 0
2254 -1799 -1780 0
2254 1799 1780 0
-2255 -1382 -612 0
-2255 1382 612 0
2255 1382 -612 0
2255 -1382 612 0
-2256 -1043 -869 0
-2256 1043 869 0
2256 1043 -869 0
2256 -1043 869 0
-2257 -1019 0
-2257 -2024 0
2257 1019 2024 0
-2258 -2018 -1215 0
-2258 2018 1215 0
2258 2018 -1215 0
2258 -2018 1215 0
-2259 -138 0
-2259 -74 0
2259 138 74 0
-2260 -2118 -185 0
-2260 2118 185 0
2260 2118 -185 0
2260 -2118 185 0
-2261 -1220 -922 0
-2261 1220 922 0
2261 1220 -922 0
2261 -1220 922 0
-2262 981 -1672 0
-2262 -981 1672 0
2262 -981 -1672 0
2262 981 1672 0
-2263 188 1451 0
-2263 -188 -1451 0
2263 -188 1451 0
2263 188 -1451 0
-2264 -1250 -860 0
-2264 1250 860 0
2264 1250 -860 0
2264 -1250 860 0
-2265 -543 0
-2265 353 0
2265 543 -353 0
-2266 -596 -2133 0
-2266 596 2133 0
2266 596 -2133 0
2266 -596 2133 0
-2267 84 0
-2267 -1528 0
2267 -84 1528 0
-2268 -720 0
-2268 479 0
2268 720 -479 0
-2269 908 0
-2269 1146 0
2269 -908 -1146 0
-2270 -2129 0
-2270 -615 0
2270 2129 615 0
-2271 1268 0
-2271 -1118 0
2271 -1268 1118 0
-2272 -694 0
-2272 927 0
2272 694 -927 0
-2273 1312 0
-2273 909 0
2273 -1312 -909 0
-2274 -206 1639 0
-2274 206 -1639 0
2274 206 1639 0
2274 -206 -1639 0
-2275 -882 0
-2275 1501 0
2275 882 -1501 0
-2276 204 1370 0
-2276 -204 -1370 0
2276 -204 1370 0
2276 204 -1370 0
-2277 1135 -508 0
-2277 -1135 508 0
2277 -1135 -508 0
2277 1135 508 0
-2278 2128 1668 0
-2278 -2128 -1668 0
2278 -2128 1668 0
2278 2128 -1668 0
-2279 -1914 -1151 0
-2279 1914 1151 0
2279 1914 -1151 0
2279 -1914 1151 0
-2280 -1830 -1124 0
-2280 1830 1124 0
2280 1830 -1124 0
2280 -1830 1124 0
-2281 -817 0
-2281 1338 0
2281 817 -1338 0
-2282 -1172 1214 0
-2282 1172 -1214 0
2282 1172 1214 0
2282 -1172 -1214 0
-2283 -1479 429 0
-2283 1479 -429 0
2283 1479 429 0
2283 -1479 -429 0
-2284 392 -313 0
-2284 -392 313 0
2284 -392 -313 0
2284 392 313 0
-2285 2217 -716 0
-2285 -2217 716 0
2285 -2217 -716 0
2285 2217 716 0
-2286 189 0
-2286 2078 0
2286 -189 -2078 0
-2287 270 2038 0
-2287 -270 -2038 0
2287 -270 2038 0
2287 270 -2038 0
-2288 -927 -1168 0
-2288 927 1168 0
2288 927 -1168 0
2288 -927 1168 0
-2289 -591 -1311 0
-2289 591 1311 0
2289 591 -1311 0
2289 -591 1311 0
-2290 -2174 1626 0
-2290 2174 -1626 0
2290 2174 1626 0
2290 -2174 -1626 0
-2291 -2164 -378 0
-2291 2164 378 0
2291 2164 -378 0
2291 -2164 378 0
-2292 1965 -1298 0
-2292 -1965 1298 0
2292 -1965 -1298 0
2292 1965 1298 0
-2293 -1421 1710 0
-2293 1421 -1710 0
2293 1421 1710 0
2293 -1421 -1710 0
-2294 -2012 92 0
-2294 2012 -92 0
2294 2012 92 0
2294 -2012 -92 0
-2295 613 976 0
-2295 -613 -976 0
2295 -613 976 0
2295 613 -976 0
-2296 1984 -1202 0
-2296 -1984 1202 0
2296 -1984 -1202 0
2296 1984 1202 0
-2297 145 1011 0
-2297 -145 -1011 0
2297 -145 1011 0
2297 145 -1011 0
-2298 -1389 898 0
-2298 1389 -898 0
2298 1389 898 0
2298 -1389 -898 0
-2299 826 -922 0
-2299 -826 922 0
2299 -826 -922 0
2299 826 922 0
-2300 -767 0
-2300 -1623 0
2300 767 1623 0
-2301 1062 390 0
-2301 -1062 -390 0
2301 -1062 390 0
2301 1062 -390 0
-2302 163 -2054 0
-2302 -163 2054 0
2302 -163 -2054 0
2302 163 2054 0
-2303 -173 1317 0
-2303 173 -1317 0
2303 173 1317 0
2303 -173 -1317 0
-2304 -1783 799 0
-2304 1783 -799 0
2304 1783 799 0
2304 -1783 -799 0
-2305 743 326 0
-2305 -743 -326 0
2305 -743 326 0
2305 743 -326 0
-2306 770 -2036 0
-2306 -770 2036 0
2306 -770 -2036 0
2306 770 2036 0
-2307 2055 0
-2307 2172 0
2307 -2055 -2172 0
-2308 429 0
-2308 2236 0
2308 -429 -2236 0
-2309 1203 1423 0
-2309 -1203 -1423 0
2309 -1203 1423 0
2309 1203 -1423 0
-2310 156 -747 0
-2310 -156 747 0
2310 -156 -747 0
2310 156 747 0
-2311 -20 -138 0
-2311 20 138 0
2311 20 -138 0
2311 -20 138 0
-2312 918 -1338 0
-2312 -918 1338 0
2312 -918 -1338 0
2312 918 1338 0
-2313 -293 0
-2313 -911 0
2313 293 911 0
-2314 1988 0
-2314 -1617 0
2314 -1988 1617 0
-2315 -2072 -1069 0
-2315 2072 1069 0
2315 2072 -1069 0
2315 -2072 1069 0
-2316 918 -158 0
-2316 -918 158 0
2316 -918 -158 0
2316 918 158 0
-2317 1825 531 0
-2317 -1825 -531 0
2317 -1825 531 0
2317 1825 -531 0
-2318 854 -1953 0
-2318 -854 1953 0
2318 -854 -1953 0
2318 854 1953 0
-2319 -2125 -93 0
-2319 2125 93 0
2319 2125 -93 0
2319 -2125 93 0
-2320 -1381 0
-2320 404 0
2320 1381 -404 0
-2321 -1035 0
-2321 1826 0
2321 1035 -1826 0
-2322 1030 0
-2322 51 0
2322 -1030 -51 0
-2323 1235 1027 0
-2323 -1235 -1027 0
2323 -1235 1027 0
2323 1235 -1027 0
-2324 -1847 0
-2324 -1291 0
2324 1847 1291 0
-2325 -2155 -929 0
-2325 2155 929 0
2325 2155 -929 0
2325 -2155 929 0
-2326 -1453 0
-2326 368 0
2326 1453 -368 0
-2327 1948 -830 0
-2327 -1948 830 0
2327 -1948 -830 0
2327 1948 830 0
-2328 1232 364 0
-2328 -1232 -364 0
2328 -1232 364 0
2328 1232 -364 0
-2329 -247 -998 0
-2329 247 998 0
2329 247 -998 0
2329 -247 998 0
-2330 -463 0
-2330 -527 0
2330 463 527 0
-2331 2126 -978 0
-2331 -2126 978 0
2331 -2126 -978 0
2331 2126 978 0
-2332 1066 0
-2332 -1846 0
2332 -1066 1846 0
-2333 -1521 0
-2333 -2300 0
2333 1521 2300 0
-2334 1830 0
-2334 160 0
2334 -1830 -160 0
-2335 -869 -2187 0
-2335 869 2187 0
2335 869 -2187 0
2335 -869 2187 0
-2336 -27 564 0
-2336 27 -564 0
2336 27 564 0
2336 -27 -564 0
-2337 2208 0
-2337 1886 0
2337 -2208 -1886 0
-2338 -2017 -218 0
-2338 2017 218 0
2338 2017 -218 0
2338 -2017 218 0
-2339 1515 2083 0
-2339 -1515 -2083 0
2339 -1515 2083 0
2339 1515 -2083 0
-2340 -2176 0
-2340 -1251 0
2340 2176 1251 0
-2341 839 0
-2341 -1293 0
2341 -839 1293 0
-2342 1407 0
-2342 2192 0
2342 -1407 -2192 0
-2343 -1853 -1987 0
-2343 1853 1987 0
2343 1853 -1987 0
2343 -1853 1987 0
-2344 -1695 2153 0
-2344 1695 -2153 0
2344 1695 2153 0
2344 -1695 -2153 0
-2345 -1278 -576 0
-2345 1278 576 0
2345 1278 -576 0
2345 -1278 576 0
-2346 -1788 2160 0
-2346 1788 -2160 0
2346 1788 2160 0
2346 -1788 -2160 0
-2347 1350 1943 0
-2347 -1350 -1943 0
2347 -1350 1943 0
2347 1350 -1943 0
-2348 1923 -404 0
-2348 -1923 404 0
2348 -1923 -404 0
2348 1923 404 0
-2349 442 0
-2349 -1241 0
2349 -442 1241 0
-2350 -328 -594 0
-2350 328 594 0
2350 328 -594 0
2350 -328 594 0
-2351 -1326 495 0
-2351 1326 -495 0
2351 1326 495 0
2351 -1326 -495 0
-2352 -2333 0
-2352 -1174 0
2352 2333 1174 0
-2353 -2085 0
-2353 -938 0
2353 2085 938 0
-2354 -1443 -1090 0
-2354 1443 1090 0
2354 1443 -1090 0
2354 -1443 1090 0
-2355 1072 2214 0
-2355 -1072 -2214 0
2355 -1072 2214 0
2355 1072 -2214 0
-2356 -2020 1782 0
-2356 2020 -1782 0
2356 2020 1782 0
2356 -2020 -1782 0
-2357 2034 3 0
-2357 -2034 -3 0
2357 -2034 3 0
2357 2034 -3 0
-2358 -265 -2003 0
-2358 265 2003 0
2358 265 -2003 0
2358 -265 2003 0
-2359 449 0
-2359 -1034 0
2359 -449 1034 0
-2360 -1289 0
-2360 2213 0
2360 1289 -2213 0
-2361 -744 2297 0
-2361 744 -2297 0
2361 744 2297 0
2361 -744 -2297 0
-2362 -338 2286 0
-2362 338 -2286 0
2362 338 2286 0
2362 -338 -2286 0
-2363 -378 -1038 0
-2363 378 1038 0
2363 378 -1038 0
2363 -378 1038 0
-2364 -1833 1612 0
-2364 1833 -1612 0
2364 1833 1612 0
2364 -1833 -1612 0
-2365 -1897 982 0
-2365 1897 -982 0
2365 1897 982 0
2365 -1897 -982 0
-2366 1036 0
-2366 -1187 0
2366 -1036 1187 0
-2367 392 0
-2367 446 0
2367 -392 -446 0
-2368 1823 -2354 0
-2368 -1823 2354 0
2368 -1823 -2354 0
2368 1823 2354 0
-2369 132 926 0
-2369 -132 -926 0
2369 -132 926 0
2369 132 -926 0
-2370 -1192 -890 0
-2370 1192 890 0
2370 1192 -890 0
2370 -1192 890 0
-2371 -774 -2301 0
-2371 774 2301 0
2371 774 -2301 0
2371 -774 2301 0
-2372 -2305 -227 0
-2372 2305 227 0
2372 2305 -227 0
2372 -2305 227 0
-2373 267 -1236 0
-2373 -267 1236 0
2373 -267 -1236 0
2373 267 1236 0
-2374 -2103 -347 0
-2374 2103 347 0
2374 2103 -347 0
2374 -2103 347 0
-2375 1270 1990 0
-2375 -1270 -1990 0
2375 -1270 1990 0
2375 1270 -1990 0
-2376 -36 1830 0
-2376 36 -1830 0
2376 36 1830 0
2376 -36 -1830 0
-2377 761 -1182 0
-2377 -761 1182 0
2377 -761 -1182 0
2377 761 1182 0
-2378 -1900 552 0
-2378 1900 -552 0
2378 1900 552 0
2378 -1900 -552 0
-2379 -628 1020 0
-2379 628 -1020 0
2379 628 1020 0
2379 -628 -1020 0
-2380 1216 -2008 0
-2380 -1216 2008 0
2380 -1216 -2008 0
2380 1216 2008 0
-2381 -1134 286 0
-2381 1134 -286 0
2381 1134 286 0
2381 -1134 -286 0
-2382 1735 -773 0
-2382 -1735 773 0
2382 -1735 -773 0
2382 1735 773 0
-2383 2042 1001 0
-2383 -2042 -1001 0
2383 -2042 1001 0
2383 2042 -1001 0
-2384 -889 600 0
-2384 889 -600 0
2384 889 600 0
2384 -889 -600 0
-2385 407 -1827 0
-2385 -407 1827 0
2385 -407 -1827 0
2385 407 1827 0
-2386 -2023 0
-2386 549 0
2386 2023 -549 0
-2387 -1633 0
-2387 -1793 0
2387 1633 1793 0
-2388 -2265 -1125 0
-2388 2265 1125 0
2388 2265 -1125 0
2388 -2265 1125 0
-2389 -1829 -2192 0
-2389 1829 2192 0
2389 1829 -2192 0
2389 -1829 2192 0
-2390 -1410 66 0
-2390 1410 -66 0
2390 1410 66 0
2390 -1410 -66 0
-2391 -1265 0
-2391 1823 0
2391 1265 -1823 0
-2392 1389 -1113 0
-2392 -1389 1113 0
2392 -1389 -1113 0
2392 1389 1113 0
-2393 473 100 0
-2393 -473 -100 0
2393 -473 100 0
2393 473 -100 0
-2394 2182 1082 0
-2394 -2182 -1082 0
2394 -2182 1082 0
2394 2182 -1082 0
-2395 -644 0
-2395 653 0
2395 644 -653 0
-2396 -267 1782 0
-2396 267 -1782 0
2396 267 1782 0
2396 -267 -1782 0
-2397 -56 0
-2397 -1537 0
2397 56 1537 0
-2398 1535 54 0
-2398 -1535 -54 0
2398 -1535 54 0
2398 1535 -54 0
-2399 -1393 0
-2399 -1012 0
2399 1393 1012 0
-2400 -2059 236 0
-2400 2059 -236 0
2400 2059 236 0
2400 -2059 -236 0
-2401 2357 -145 0
-2401 -2357 145 0
2401 -2357 -145 0
2401 2357 145 0
-2402 -1329 379 0
-2402 1329 -379 0
2402 1329 379 0
2402 -1329 -379 0
-2403 -185 -430 0
-2403 185 430 0
2403 185 -430 0
2403 -185 430 0
-2404 -941 1119 0
-2404 941 -1119 0
2404 941 1119 0
2404 -941 -1119 0
-2405 -1120 -792 0
-2405 1120 792 0
2405 1120 -792 0
2405 -1120 792 0
-2406 -1994 1778 0
-2406 1994 -1778 0
2406 1994 1778 0
2406 -1994 -1778 0
-2407 660 2275 0
-2407 -660 -2275 0
2407 -660 2275 0
2407 660 -2275 0
-2408 -82 1334 0
-2408 82 -1334 0
2408 82 1334 0
2408 -82 -1334 0
-2409 -309 2350 0
-2409 309 -2350 0
2409 309 2350 0
2409 -309 -2350 0
-2410 -225 -1261 0
-2410 225 1261 0
2410 225 -1261 0
2410 -225 1261 0
-2411 -1749 -31 0
-2411 1749 31 0
2411 1749 -31 0
2411 -1749 31 0
-2412 612 0
-2412 -1139 0
2412 -612 1139 0
-2413 -2376 0
-2413 -1008 0
2413 2376 1008 0
-2414 -175 1212 0
-2414 175 -1212 0
2414 175 1212 0
2414 -175 -1212 0
-2415 -1873 -1285 0
-2415 1873 1285 0
2415 1873 -1285 0
2415 -1873 1285 0
-2416 1168 752 0
-2416 -1168 -752 0
2416 -1168 752 0
2416 1168 -752 0
-2417 915 1166 0
-2417 -915 -1166 0
2417 -915 1166 0
2417 915 -1166 0
-2418 756 0
-2418 192 0
2418 -756 -192 0
-2419 1478 1803 0
-2419 -1478 -1803 0
2419 -1478 1803 0
2419 1478 -1803 0
-2420 -2419 -2284 0
-2420 2419 2284 0
2420 2419 -2284 0
2420 -2419 2284 0
-2421 -734 -889 0
-2421 734 889 0
2421 734 -889 0
2421 -734 889 0
-2422 1617 1851 0
-2422 -1617 -1851 0
2422 -1617 1851 0
2422 1617 -1851 0
-2423 618 -1508 0
-2423 -618 1508 0
2423 -618 -1508 0
2423 618 1508 0
-2424 -374 -1744 0
-2424 374 1744 0
2424 374 -1744 0
2424 -374 1744 0
-2425 2404 -88 0
-2425 -2404 88 0
2425 -2404 -88 0
2425 2404 88 0
-2426 -109 0
-2426 595 0
2426 109 -595 0
-2427 599 1719 0
-2427 -599 -1719 0
2427 -599 1719 0
2427 599 -1719 0
-2428 1378 -2242 0
-2428 -1378 2242 0
2428 -1378 -2242 0
2428 1378 2242 0
-2429 -2327 2163 0
-2429 2327 -2163 0
2429 2327 2163 0
2429 -2327 -2163 0
-2430 2245 -679 0
-2430 -2245 679 0
2430 -2245 -679 0
2430 2245 679 0
-2431 1423 2423 0
-2431 -1423 -2423 0
2431 -1423 2423 0
2431 1423 -2423 0
-2432 971 0
-2432 2035 0
2432 -971 -2035 0
-2433 -2163 -930 0
-2433 2163 930 0
2433 2163 -930 0
2433 -2163 930 0
-2434 -144 1469 0
-2434 144 -1469 0
2434 144 1469 0
2434 -144 -1469 0
-2435 -187 1941 0
-2435 187 -1941 0
2435 187 1941 0
2435 -187 -1941 0
-2436 -2381 0
-2436 1807 0
2436 2381 -1807 0
-2437 2412 2272 0
-2437 -2412 -2272 0
2437 -2412 2272 0
2437 2412 -2272 0
-2438 209 0
-2438 -566 0
2438 -209 566 0
-2439 -1010 -871 0
-2439 1010 871 0
2439 1010 -871 0
2439 -1010 871 0
-2440 -1296 480 0
-2440 1296 -480 0
2440 1296 480 0
2440 -1296 -480 0
-2441 957 931 0
-2441 -957 -931 0
2441 -957 931 0
2441 957 -931 0
-2442 112 -1048 0
-2442 -112 1048 0
2442 -112 -1048 0
2442 112 1048 0
-2443 214 2030 0
-2443 -214 -2030 0
2443 -214 2030 0
2443 214 -2030 0
-2444 -1443 -2278 0
-2444 1443 2278 0
2444 1443 -2278 0
2444 -1443 2278 0
-2445 1024 1086 0
-2445 -1024 -1086 0
2445 -1024 1086 0
2445 1024 -1086 0
-2446 -1561 939 0
-2446 1561 -939 0
2446 1561 939 0
2446 -1561 -939 0
-2447 -1714 868 0
-2447 1714 -868 0
2447 1714 868 0
2447 -1714 -868 0
-2448 1684 0
-2448 154 0
2448 -1684 -154 0
-2449 99 0
-2449 -1719 0
2449 -99 1719 0
-2450 1022 1470 0
-2450 -1022 -1470 0
2450 -1022 1470 0
2450 1022 -1470 0
-2451 -2370 0
-2451 706 0
2451 2370 -706 0
-2452 -2421 33 0
-2452 2421 -33 0
2452 2421 33 0
2452 -2421 -33 0
-2453 356 -1784 0
-2453 -356 1784 0
2453 -356 -1784 0
2453 356 1784 0
-2454 1681 0
-2454 -2028 0
2454 -1681 2028 0
-2455 1038 -2020 0
-2455 -1038 2020 0
2455 -1038 -2020 0
2455 1038 2020 0
-2456 -1334 0
-2456 335 0
2456 1334 -335 0
-2457 -2400 7 0
-2457 2400 -7 0
2457 2400 7 0
2457 -2400 -7 0
-2458 73 -435 0
-2458 -73 435 0
2458 -73 -435 0
2458 73 435 0
-2459 -2136 -527 0
-2459 2136 527 0
2459 2136 -527 0
2459 -2136 527 0
-2460 61 1447 0
-2460 -61 -1447 0
2460 -61 1447 0
2460 61 -1447 0
-2461 -2041 685 0
-2461 2041 -685 0
2461 2041 685 0
2461 -2041 -685 0
-2462 -936 0
-2462 618 0
2462 936 -618 0
-2463 1606 0
-2463 2137 0
2463 -1606 -2137 0
-2464 -266 716 0
-2464 266 -716 0
2464 266 716 0
2464 -266 -716 0
-2465 -2336 -492 0
-2465 2336 492 0
2465 2336 -492 0
2465 -2336 492 0
-2466 -1012 0
-2466 -584 0
2466 1012 584 0
-2467 -1286 0
-2467 1046 0
2467 1286 -1046 0
-2468 -1760 946 0
-2468 1760 -946 0
2468 1760 946 0
2468 -1760 -946 0
-2469 1259 -1996 0
-2469 -1259 1996 0
2469 -1259 -1996 0
2469 1259 1996 0
-2470 -2408 0
-2470 -419 0
2470 2408 419 0
-2471 876 -1604 0
-2471 -876 1604 0
2471 -876 -1604 0
2471 876 1604 0
-2472 -1785 -1385 0
-2472 1785 1385 0
2472 1785 -1385 0
2472 -1785 1385 0
-2473 -281 244 0
-2473 281 -244 0
2473 281 244 0
2473 -281 -244 0
-2474 -1639 -351 0
-2474 1639 351 0
2474 1639 -351 0
2474 -1639 351 0
-2475 1270 1653 0
-2475 -1270 -1653 0
2475 -1270 1653 0
2475 1270 -1653 0
-2476 -2158 -982 0
-2476 2158 982 0
2476 2158 -982 0
2476 -2158 982 0
-2477 2047 0
-2477 871 0
2477 -2047 -871 0
-2478 893 0
-2478 -1496 0
2478 -893 1496 0
-2479 -108 2363 0
-2479 108 -2363 0
2479 108 2363 0
2479 -108 -2363 0
-2480 1476 1436 0
-2480 -1476 -1436 0
2480 -1476 1436 0
2480 1476 -1436 0
-2481 719 -1457 0
-2481 -719 1457 0
2481 -719 -1457 0
2481 719 1457 0
-2482 -2130 1262 0
-2482 2130 -1262 0
2482 2130 1262 0
2482 -2130 -1262 0
-2483 345 0
-2483 1300 0
2483 -345 -1300 0
-2484 1962 427 0
-2484 -1962 -427 0
2484 -1962 427 0
2484 1962 -427 0
-2485 371 0
-2485 -717 0
2485 -371 717 0
-2486 -1782 -1601 0
-2486 1782 1601 0
2486 1782 -1601 0
2486 -1782 1601 0
-2487 1861 610 0
-2487 -1861 -610 0
2487 -1861 610 0
2487 1861 -610 0
-2488 792 -2238 0
-2488 -792 2238 0
2488 -792 -2238 0
2488 792 2238 0
-2489 -194 -2004 0
-2489 194 2004 0
2489 194 -2004 0
2489 -194 2004 0
-2490 -1562 0
-2490 1141 0
2490 1562 -1141 0
-2491 -1700 386 0
-2491 1700 -386 0
2491 1700 386 0
2491 -1700 -386 0
-2492 -2416 -1437 0
-2492 2416 1437 0
2492 2416 -1437 0
2492 -2416 1437 0
-2493 -1386 -1180 0
-2493 1386 1180 0
2493 1386 -1180 0
2493 -1386 1180 0
-2494 2470 -558 0
-2494 -2470 558 0
2494 -2470 -558 0
2494 2470 558 0
-2495 -1010 -1021 0
-2495 1010 1021 0
2495 1010 -1021 0
2495 -1010 1021 0
-2496 45 414 0
-2496 -45 -414 0
2496 -45 414 0
2496 45 -414 0
-2497 -2174 0
-2497 481 0
2497 2174 -481 0
-2498 -957 0
-2498 1576 0
2498 957 -1576 0
-2499 26 2119 0
-2499 -26 -2119 0
2499 -26 2119 0
2499 26 -2119 0
-2500 1381 1394 0
-2500 -1381 -1394 0
2500 -1381 1394 0
2500 1381 -1394 0
-2501 -1600 -1785 0
-2501 1600 1785 0
2501 1600 -1785 0
2501 -1600 1785 0
-2502 -1804 2370 0
-2502 1804 -2370 0
2502 1804 2370 0
2502 -1804 -2370 0
-2503 -251 0
-2503 1792 0
2503 251 -1792 0
-2504 -1393 1767 0
-2504 1393 -1767 0
2504 1393 1767 0
2504 -1393 -1767 0
-2505 731 1620 0
-2505 -731 -1620 0
2505 -731 1620 0
2505 731 -1620 0
-2506 -6 622 0
-2506 6 -622 0
2506 6 622 0
2506 -6 -622 0
-2507 -964 -1799 0
-2507 964 1799 0
2507 964 -1799 0
2507 -964 1799 0
-2508 -1333 0
-2508 1233 0
2508 1333 -1233 0
-2509 -2022 -469 0
-2509 2022 469 0
2509 2022 -469 0
2509 -2022 469 0
-2510 -227 0
-2510 -2133 0
2510 227 2133 0
-2511 2027 0
-2511 -155 0
2511 -2027 155 0
-2512 -2094 0
-2512 1452 0
2512 2094 -1452 0
-2513 345 0
-2513 207 0
2513 -345 -207 0
-2514 -2115 0
-2514 1115 0
2514 2115 -1115 0
-2515 -786 0
-2515 -180 0
2515 786 180 0
-2516 447 0
-2516 2432 0
2516 -447 -2432 0
-2517 154 -2334 0
-2517 -154 2334 0
2517 -154 -2334 0
2517 154 2334 0
-2518 -2239 603 0
-2518 2239 -603 0
2518 2239 603 0
2518 -2239 -603 0
-2519 -1942 1296 0
-2519 1942 -1296 0
2519 1942 1296 0
2519 -1942 -1296 0
-2520 -758 278 0
-2520 758 -278 0
2520 758 278 0
2520 -758 -278 0
-2521 -1206 2216 0
-2521 1206 -2216 0
2521 1206 2216 0
2521 -1206 -2216 0
-2522 -2336 2491 0
-2522 2336 -2491 0
2522 2336 2491 0
2522 -2336 -2491 0
-2523 82 0
-2523 1579 0
2523 -82 -1579 0
-2524 113 -184 0
-2524 -113 184 0
2524 -113 -184 0
2524 113 184 0
-2525 -498 -2077 0
-2525 498 2077 0
2525 498 -2077 0
2525 -498 2077 0
-2526 -551 -1357 0
-2526 551 1357 0
2526 551 -1357 0
2526 -551 1357 0
-2527 765 2032 0
-2527 -765 -2032 0
2527 -765 2032 0
2527 765 -2032 0
-2528 626 -1419 0
-2528 -626 1419 0
2528 -626 -1419 0
2528 626 1419 0
-2529 165 -1536 0
-2529 -165 1536 0
2529 -165 -1536 0
2529 165 1536 0
-2530 -1193 -2102 0
-2530 1193 2102 0
2530 1193 -2102 0
2530 -1193 2102 0
-2531 1430 1290 0
-2531 -1430 -1290 0
2531 -1430 1290 0
2531 1430 -1290 0
-2532 1381 0
-2532 -2293 0
2532 -1381 2293 0
-2533 -1499 0
-2533 2066 0
2533 1499 -2066 0
-2534 -968 -420 0
-2534 968 420 0
2534 968 -420 0
2534 -968 420 0
-2535 -64 0
-2535 -692 0
2535 64 692 0
-2536 492 1293 0
-2536 -492 -1293 0
2536 -492 1293 0
2536 492 -1293 0
-2537 -2304 700 0
-2537 2304 -700 0
2537 2304 700 0
2537 -2304 -700 0
-2538 1197 1020 0
-2538 -1197 -1020 0
2538 -1197 1020 0
2538 1197 -1020 0
-2539 -92 -2515 0
-2539 92 2515 0
2539 92 -2515 0
2539 -92 2515 0
-2540 47 -1123 0
-2540 -47 1123 0
2540 -47 -1123 0
2540 47 1123 0
-2541 -467 0
-2541 -1008 0
2541 467 1008 0
-2542 631 2325 0
-2542 -631 -2325 0
2542 -631 2325 0
2542 631 -2325 0
-2543 -1805 0
-2543 922 0
2543 1805 -922 0
-2544 1490 0
-2544 -1687 0
2544 -1490 1687 0
-2545 306 854 0
-2545 -306 -854 0
2545 -306 854 0
2545 306 -854 0
-2546 -647 -873 0
-2546 647 873 0
2546 647 -873 0
2546 -647 873 0
-2547 2371 0
-2547 -2100 0
2547 -2371 2100 0
-2548 -1302 710 0
-2548 1302 -710 0
2548 1302 710 0
2548 -1302 -710 0
-2549 -1220 0
-2549 -1714 0
2549 1220 1714 0
-2550 -867 -194 0
-2550 867 194 0
2550 867 -194 0
2550 -867 194 0
-2551 1233 -1039 0
-2551 -1233 1039 0
2551 -1233 -1039 0
2551 1233 1039 0
-2552 2296 2068 0
-2552 -2296 -2068 0
2552 -2296 2068 0
2552 2296 -2068 0
-2553 -830 -263 0
-2553 830 263 0
2553 830 -263 0
2553 -830 263 0
-2554 -1460 2470 0
-2554 1460 -2470 0
2554 1460 2470 0
2554 -1460 -2470 0
-2555 1720 2548 0
-2555 -1720 -2548 0
2555 -1720 2548 0
2555 1720 -2548 0
-2556 1959 -2152 0
-2556 -1959 2152 0
2556 -1959 -2152 0
2556 1959 2152 0
-2557 -1799 1810 0
-2557 1799 -1810 0
2557 1799 1810 0
2557 -1799 -1810 0
-2558 1499 0
-2558 -1298 0
2558 -1499 1298 0
-2559 -987 -819 0
-2559 987 819 0
2559 987 -819 0
2559 -987 819 0
-2560 -478 -1310 0
-2560 478 1310 0
2560 478 -1310 0
2560 -478 1310 0
-2561 846 -1837 0
-2561 -846 1837 0
2561 -846 -1837 0
2561 846 1837 0
-2562 -744 0
-2562 1377 0
2562 744 -1377 0
-2563 1676 2539 0
-2563 -1676 -2539 0
2563 -1676 2539 0
2563 1676 -2539 0
-2564 467 0
-2564 -2030 0
2564 -467 2030 0
-2565 2517 -1951 0
-2565 -2517 1951 0
2565 -2517 -1951 0
2565 2517 1951 0
-2566 -2476 1766 0
-2566 2476 -1766 0
2566 2476 1766 0
2566 -2476 -1766 0
-2567 139 0
-2567 2505 0
2567 -139 -2505 0
-2568 -94 -235 0
-2568 94 235 0
2568 94 -235 0
2568 -94 235 0
-2569 -863 -1075 0
-2569 863 1075 0
2569 863 -1075 0
2569 -863 1075 0
-2570 1904 0
-2570 2248 0
2570 -1904 -2248 0
-2571 661 0
-2571 -614 0
2571 -661 614 0
-2572 -1279 -2290 0
-2572 1279 2290 0
2572 1279 -2290 0
2572 -1279 2290 0
-2573 -1735 0
-2573 684 0
2573 1735 -684 0
-2574 -46 -885 0
-2574 46 885 0
2574 46 -885 0
2574 -46 885 0
-2575 -1978 180 0
-2575 1978 -180 0
2575 1978 180 0
2575 -1978 -180 0
-2576 -647 -561 0
-2576 647 561 0
2576 647 -561 0
2576 -647 561 0
-2577 -931 2259 0
-2577 931 -2259 0
2577 931 2259 0
2577 -931 -2259 0
-2578 -200 -1280 0
-2578 200 1280 0
2578 200 -1280 0
2578 -200 1280 0
-2579 -321 1234 0
-2579 321 -1234 0
2579 321 1234 0
2579 -321 -1234 0
-2580 1480 2418 0
-2580 -1480 -2418 0
2580 -1480 2418 0
2580 1480 -2418 0
-2581 -2480 -700 0
-2581 2480 700 0
2581 2480 -700 0
2581 -2480 700 0
-2582 1839 947 0
-2582 -1839 -947 0
2582 -1839 947 0
2582 1839 -947 0
-2583 -2580 2010 0
-2583 2580 -2010 0
2583 2580 2010 0
2583 -2580 -2010 0
-2584 682 358 0
-2584 -682 -358 0
2584 -682 358 0
2584 682 -358 0
-2585 2224 -524 0
-2585 -2224 524 0
2585 -2224 -524 0
2585 2224 524 0
-2586 1562 -2558 0
-2586 -1562 2558 0
2586 -1562 -2558 0
2586 1562 2558 0
-2587 450 -294 0
-2587 -450 294 0
2587 -450 -294 0
2587 450 294 0
-2588 -2126 1949 0
-2588 2126 -1949 0
2588 2126 1949 0
2588 -2126 -1949 0
-2589 1913 0
-2589 -1439 0
2589 -1913 1439 0
-2590 -2209 253 0
-2590 2209 -253 0
2590 2209 253 0
2590 -2209 -253 0
-2495 0
2496 0
-2497 0
-2498 0
2499 0
-2500 0
2501 0
2502 0
-2503 0
-2504 0
2505 0
2506 0
-2507 0
-2508 0
2509 0
-2510 0
-2511 0
-2512 0
-2513 0
-2514 0
2515 0
-2516 0
-2517 0
2518 0
2519 0
-2520 0
2521 0
-2522 0
-2523 0
2524 0
-2525 0
-2526 0
-2527 0
2528 0
-2529 0
-2530 0
2531 0
-2532 0
-2533 0
2534 0
2535 0
-2536 0
2537 0
-2538 0
-2539 0
-2540 0
-2541 0
2542 0
-2543 0
-2544 0
2545 0
2546 0
-2547 0
-2548 0
-2549 0
2550 0
-2551 0
-2552 0
2553 0
2554 0
-2555 0
2556 0
-2557 0
2558 0
2559 0
2560 0
2561 0
-2562 0
2563 0
-2564 0
2565 0
-2566 0
2567 0
2568 0
2569 0
-2570 0
-2571 0
-2572 0
-2573 0
-2574 0
2575 0
2576 0
2577 0
2578 0
-2579 0
-2580 0
2581 0
2582 0
2583 0
2584 0
2585 0
-2586 0
2587 0
-2588 0
-2589 0
2590 0
