c xor-heavy random circuit, inputs=128 gates=4000, last 128 signals pinned to a planted input assignment; input variables are 1..128
c generated by TurboCryptoSAT gen-benchmark - satisfiable by construction
p cnf 4125 14908
-129 37 22 0
-129 -37 -22 0
129 -37 22 0
129 37 -22 0
-130 66 -104 0
-130 -66 104 0
130 -66 -104 0
130 66 104 0
-131 -61 114 0
-131 61 -114 0
131 61 114 0
131 -61 -114 0
-132 -98 59 0
-132 98 -59 0
132 98 59 0
132 -98 -59 0
-133 -75 2 0
-133 75 -2 0
133 75 2 0
133 -75 -2 0
-134 -28 0
-134 80 0
134 28 -80 0
-135 -119 0
-135 -53 0
135 119 53 0
-136 53 0
-136 108 0
136 -53 -108 0
-137 70 -58 0
-137 -70 58 0
137 -70 -58 0
137 70 58 0
-138 -17 7 0
-138 17 -7 0
138 17 7 0
138 -17 -7 0
-139 -64 103 0
-139 64 -103 0
139 64 103 0
139 -64 -103 0
-140 -22 -2 0
-140 22 2 0
140 22 -2 0
140 -22 2 0
-141 -38 0
-141 -119 0
141 38 119 0
-142 -108 0
-142 50 0
142 108 -50 0
-143 107 -133 0
-143 -107 133 0
143 -107 -133 0
143 107 133 0
-144 19 -46 0
-144 -19 46 0
144 -19 -46 0
144 19 46 0
-145 -64 0
-145 98 0
145 64 -98 0
-146 33 0
-146 97 0
146 -33 -97 0
-147 -5 -139 0
-147 5 139 0
147 5 -139 0
147 -5 139 0
-148 139 -40 0
-148 -139 40 0
148 -139 -40 0
148 139 40 0
-149 6 90 0
-149 -6 -90 0
149 -6 90 0
149 6 -90 0
-150 -8 -31 0
-150 8 31 0
150 8 -31 0
150 -8 31 0
-151 -120 -62 0
-151 120 62 0
151 120 -62 0
151 -120 62 0
-152 127 113 0
-152 -127 -113 0
152 -127 113 0
152 127 -113 0
-153 135 58 0
-153 -135 -58 0
153 -135 58 0
153 135 -58 0
-154 -96 -63 0
-154 96 63 0
154 96 -63 0
154 -96 63 0
-155 40 -89 0
-155 -40 89 0
155 -40 -89 0
155 40 89 0
-156 -120 -99 0
-156 120 99 0
156 120 -99 0
156 -120 99 0
-157 -24 -31 0
-157 24 31 0
157 24 -31 0
157 -24 31 0
-158 10 -65 0
-158 -10 65 0
158 -10 -65 0
158 10 65 0
-159 -116 0
-159 90 0
159 116 -90 0
-160 -59 138 0
-160 59 -138 0
160 59 138 0
160 -59 -138 0
-161 80 -89 0
-161 -80 89 0
161 -80 -89 0
161 80 89 0
-162 -157 0
-162 143 0
162 157 -143 0
-163 96 0
-163 49 0
163 -96 -49 0
-164 -134 -12 0
-164 134 12 0
164 134 -12 0
164 -134 12 0
-165 136 0
-165 -21 0
165 -136 21 0
-166 -31 -43 0
-166 31 43 0
166 31 -43 0
166 -31 43 0
-167 120 0
-167 60 0
167 -120 -60 0
-168 -63 41 0
-168 63 -41 0
168 63 41 0
168 -63 -41 0
-169 117 -12 0
-169 -117 12 0
169 -117 -12 0
169 117 12 0
-170 117 -6 0
-170 -117 6 0
170 -117 -6 0
170 117 6 0
-171 -125 -43 0
-171 125 43 0
171 125 -43 0
171 -125 43 0
-172 70 96 0
-172 -70 -96 0
172 -70 96 0
172 70 -96 0
-173 -85 89 0
-173 85 -89 0
173 85 89 0
173 -85 -89 0
-174 16 86 0
-174 -16 -86 0
174 -16 86 0
174 16 -86 0
-175 4 30 0
-175 -4 -30 0
175 -4 30 0
175 4 -30 0
-176 156 0
-176 -158 0
176 -156 158 0
-177 114 0
-177 -68 0
177 -114 68 0
-178 138 109 0
-178 -138 -109 0
178 -138 109 0
178 138 -109 0
-179 -59 0
-179 -17 0
179 59 17 0
-180 -37 -75 0
-180 37 75 0
180 37 -75 0
180 -37 75 0
-181 178 0
-181 62 0
181 -178 -62 0
-182 65 -26 0
-182 -65 26 0
182 -65 -26 0
182 65 26 0
-183 -173 -176 0
-183 173 176 0
183 173 -176 0
183 -173 176 0
-184 10 178 0
-184 -10 -178 0
184 -10 178 0
184 10 -178 0
-185 107 -39 0
-185 -107 39 0
185 -107 -39 0
185 107 39 0
-186 -77 0
-186 -146 0
186 77 146 0
-187 -131 0
-187 -18 0
187 131 18 0
-188 -150 0
-188 46 0
188 150 -46 0
-189 89 98 0
-189 -89 -98 0
189 -89 98 0
189 89 -98 0
-190 -70 0
-190 146 0
190 70 -146 0
-191 78 -182 0
-191 -78 182 0
191 -78 -182 0
191 78 182 0
-192 178 0
-192 -167 0
192 -178 167 0
-193 -147 -53 0
-193 147 53 0
193 147 -53 0
193 -147 53 0
-194 -83 -185 0
-194 83 185 0
194 83 -185 0
194 -83 185 0
-195 -148 0
-195 143 0
195 148 -143 0
-196 152 62 0
-196 -152 -62 0
196 -152 62 0
196 152 -62 0
-197 -136 166 0
-197 136 -166 0
197 136 166 0
197 -136 -166 0
-198 61 -4 0
-198 -61 4 0
198 -61 -4 0
198 61 4 0
-199 -29 -13 0
-199 29 13 0
199 29 -13 0
199 -29 13 0
-200 -170 0
-200 -92 0
200 170 92 0
-201 190 -19 0
-201 -190 19 0
201 -190 -19 0
201 190 19 0
-202 44 0
-202 165 0
202 -44 -165 0
-203 -114 0
-203 21 0
203 114 -21 0
-204 178 0
-204 30 0
204 -178 -30 0
-205 -40 88 0
-205 40 -88 0
205 40 88 0
205 -40 -88 0
-206 66 74 0
-206 -66 -74 0
206 -66 74 0
206 66 -74 0
-207 43 0
-207 -173 0
207 -43 173 0
-208 -185 -114 0
-208 185 114 0
208 185 -114 0
208 -185 114 0
-209 110 0
-209 -191 0
209 -110 191 0
-210 43 0
-210 -14 0
210 -43 14 0
-211 -141 88 0
-211 141 -88 0
211 141 88 0
211 -141 -88 0
-212 -80 169 0
-212 80 -169 0
212 80 169 0
212 -80 -169 0
-213 -112 5 0
-213 112 -5 0
213 112 5 0
213 -112 -5 0
-214 -143 27 0
-214 143 -27 0
214 143 27 0
214 -143 -27 0
-215 102 0
-215 7 0
215 -102 -7 0
-216 53 66 0
-216 -53 -66 0
216 -53 66 0
216 53 -66 0
-217 175 -62 0
-217 -175 62 0
217 -175 -62 0
217 175 62 0
-218 169 -6 0
-218 -169 6 0
218 -169 -6 0
218 169 6 0
-219 195 0
-219 -10 0
219 -195 10 0
-220 197 0
-220 -57 0
220 -197 57 0
-221 -59 -139 0
-221 59 139 0
221 59 -139 0
221 -59 139 0
-222 -180 0
-222 -212 0
222 180 212 0
-223 205 0
-223 206 0
223 -205 -206 0
-224 107 0
-224 150 0
224 -107 -150 0
-225 120 -73 0
-225 -120 73 0
225 -120 -73 0
225 120 73 0
-226 76 176 0
-226 -76 -176 0
226 -76 176 0
226 76 -176 0
-227 136 -9 0
-227 -136 9 0
227 -136 -9 0
227 136 9 0
-228 204 -65 0
-228 -204 65 0
228 -204 -65 0
228 204 65 0
-229 203 -52 0
-229 -203 52 0
229 -203 -52 0
229 203 52 0
-230 -76 58 0
-230 76 -58 0
230 76 58 0
230 -76 -58 0
-231 207 92 0
-231 -207 -92 0
231 -207 92 0
231 207 -92 0
-232 -174 96 0
-232 174 -96 0
232 174 96 0
232 -174 -96 0
-233 -60 0
-233 136 0
233 60 -136 0
-234 138 -164 0
-234 -138 164 0
234 -138 -164 0
234 138 164 0
-235 172 147 0
-235 -172 -147 0
235 -172 147 0
235 172 -147 0
-236 132 -181 0
-236 -132 181 0
236 -132 -181 0
236 132 181 0
-237 -5 0
-237 72 0
237 5 -72 0
-238 -64 -217 0
-238 64 217 0
238 64 -217 0
238 -64 217 0
-239 -190 0
-239 -65 0
239 190 65 0
-240 117 107 0
-240 -117 -107 0
240 -117 107 0
240 117 -107 0
-241 -147 -222 0
-241 147 222 0
241 147 -222 0
241 -147 222 0
-242 217 220 0
-242 -217 -220 0
242 -217 220 0
242 217 -220 0
-243 -216 -69 0
-243 216 69 0
243 216 -69 0
243 -216 69 0
-244 -33 -65 0
-244 33 65 0
244 33 -65 0
244 -33 65 0
-245 -201 0
-245 -202 0
245 201 202 0
-246 72 0
-246 173 0
246 -72 -173 0
-247 50 -188 0
-247 -50 188 0
247 -50 -188 0
247 50 188 0
-248 -89 0
-248 22 0
248 89 -22 0
-249 168 126 0
-249 -168 -126 0
249 -168 126 0
249 168 -126 0
-250 172 0
-250 248 0
250 -172 -248 0
-251 244 0
-251 -246 0
251 -244 246 0
-252 77 0
-252 -244 0
252 -77 244 0
-253 174 126 0
-253 -174 -126 0
253 -174 126 0
253 174 -126 0
-254 -39 114 0
-254 39 -114 0
254 39 114 0
254 -39 -114 0
-255 214 95 0
-255 -214 -95 0
255 -214 95 0
255 214 -95 0
-256 188 0
-256 -73 0
256 -188 73 0
-257 -216 98 0
-257 216 -98 0
257 216 98 0
257 -216 -98 0
-258 -129 113 0
-258 129 -113 0
258 129 113 0
258 -129 -113 0
-259 -114 214 0
-259 114 -214 0
259 114 214 0
259 -114 -214 0
-260 95 0
-260 -203 0
260 -95 203 0
-261 85 81 0
-261 -85 -81 0
261 -85 81 0
261 85 -81 0
-262 200 179 0
-262 -200 -179 0
262 -200 179 0
262 200 -179 0
-263 249 -115 0
-263 -249 115 0
263 -249 -115 0
263 249 115 0
-264 117 0
-264 -64 0
264 -117 64 0
-265 -227 86 0
-265 227 -86 0
265 227 86 0
265 -227 -86 0
-266 -230 188 0
-266 230 -188 0
266 230 188 0
266 -230 -188 0
-267 144 0
-267 136 0
267 -144 -136 0
-268 32 -137 0
-268 -32 137 0
268 -32 -137 0
268 32 137 0
-269 142 211 0
-269 -142 -211 0
269 -142 211 0
269 142 -211 0
-270 72 -2 0
-270 -72 2 0
270 -72 -2 0
270 72 2 0
-271 -29 0
-271 -239 0
271 29 239 0
-272 265 187 0
-272 -265 -187 0
272 -265 187 0
272 265 -187 0
-273 -261 0
-273 35 0
273 261 -35 0
-274 -120 -153 0
-274 120 153 0
274 120 -153 0
274 -120 153 0
-275 -93 -36 0
-275 93 36 0
275 93 -36 0
275 -93 36 0
-276 159 -11 0
-276 -159 11 0
276 -159 -11 0
276 159 11 0
-277 70 -123 0
-277 -70 123 0
277 -70 -123 0
277 70 123 0
-278 -111 -271 0
-278 111 271 0
278 111 -271 0
278 -111 271 0
-279 154 -33 0
-279 -154 33 0
279 -154 -33 0
279 154 33 0
-280 138 164 0
-280 -138 -164 0
280 -138 164 0
280 138 -164 0
-281 -19 0
-281 -69 0
281 19 69 0
-282 -118 -98 0
-282 118 98 0
282 118 -98 0
282 -118 98 0
-283 -167 206 0
-283 167 -206 0
283 167 206 0
283 -167 -206 0
-284 -276 256 0
-284 276 -256 0
284 276 256 0
284 -276 -256 0
-285 20 0
-285 174 0
285 -20 -174 0
-286 213 0
-286 195 0
286 -213 -195 0
-287 20 0
-287 -223 0
287 -20 223 0
-288 194 98 0
-288 -194 -98 0
288 -194 98 0
288 194 -98 0
-289 -204 97 0
-289 204 -97 0
289 204 97 0
289 -204 -97 0
-290 -286 -249 0
-290 286 249 0
290 286 -249 0
290 -286 249 0
-291 107 218 0
-291 -107 -218 0
291 -107 218 0
291 107 -218 0
-292 282 -95 0
-292 -282 95 0
292 -282 -95 0
292 282 95 0
-293 -95 0
-293 48 0
293 95 -48 0
-294 -55 161 0
-294 55 -161 0
294 55 161 0
294 -55 -161 0
-295 173 76 0
-295 -173 -76 0
295 -173 76 0
295 173 -76 0
-296 -12 0
-296 119 0
296 12 -119 0
-297 -15 0
-297 202 0
297 15 -202 0
-298 48 0
-298 238 0
298 -48 -238 0
-299 -269 0
-299 205 0
299 269 -205 0
-300 82 0
-300 191 0
300 -82 -191 0
-301 -177 269 0
-301 177 -269 0
301 177 269 0
301 -177 -269 0
-302 244 152 0
-302 -244 -152 0
302 -244 152 0
302 244 -152 0
-303 204 0
-303 -268 0
303 -204 268 0
-304 269 276 0
-304 -269 -276 0
304 -269 276 0
304 269 -276 0
-305 137 12 0
-305 -137 -12 0
305 -137 12 0
305 137 -12 0
-306 -69 -164 0
-306 69 164 0
306 69 -164 0
306 -69 164 0
-307 -158 178 0
-307 158 -178 0
307 158 178 0
307 -158 -178 0
-308 46 51 0
-308 -46 -51 0
308 -46 51 0
308 46 -51 0
-309 198 136 0
-309 -198 -136 0
309 -198 136 0
309 198 -136 0
-310 80 0
-310 169 0
310 -80 -169 0
-311 184 208 0
-311 -184 -208 0
311 -184 208 0
311 184 -208 0
-312 7 -258 0
-312 -7 258 0
312 -7 -258 0
312 7 258 0
-313 6 67 0
-313 -6 -67 0
313 -6 67 0
313 6 -67 0
-314 -138 206 0
-314 138 -206 0
314 138 206 0
314 -138 -206 0
-315 -154 167 0
-315 154 -167 0
315 154 167 0
315 -154 -167 0
-316 286 1 0
-316 -286 -1 0
316 -286 1 0
316 286 -1 0
-317 -164 0
-317 -206 0
317 164 206 0
-318 90 256 0
-318 -90 -256 0
318 -90 256 0
318 90 -256 0
-319 -103 35 0
-319 103 -35 0
319 103 35 0
319 -103 -35 0
-320 -259 209 0
-320 259 -209 0
320 259 209 0
320 -259 -209 0
-321 -184 -207 0
-321 184 207 0
321 184 -207 0
321 -184 207 0
-322 -275 -312 0
-322 275 312 0
322 275 -312 0
322 -275 312 0
-323 111 84 0
-323 -111 -84 0
323 -111 84 0
323 111 -84 0
-324 288 0
-324 -102 0
324 -288 102 0
-325 322 -65 0
-325 -322 65 0
325 -322 -65 0
325 322 65 0
-326 171 -317 0
-326 -171 317 0
326 -171 -317 0
326 171 317 0
-327 -239 0
-327 -25 0
327 239 25 0
-328 191 274 0
-328 -191 -274 0
328 -191 274 0
328 191 -274 0
-329 70 -88 0
-329 -70 88 0
329 -70 -88 0
329 70 88 0
-330 259 -62 0
-330 -259 62 0
330 -259 -62 0
330 259 62 0
-331 183 85 0
-331 -183 -85 0
331 -183 85 0
331 183 -85 0
-332 -289 -67 0
-332 289 67 0
332 289 -67 0
332 -289 67 0
-333 19 -70 0
-333 -19 70 0
333 -19 -70 0
333 19 70 0
-334 11 131 0
-334 -11 -131 0
334 -11 131 0
334 11 -131 0
-335 301 0
-335 322 0
335 -301 -322 0
-336 119 -58 0
-336 -119 58 0
336 -119 -58 0
336 119 58 0
-337 -123 -194 0
-337 123 194 0
337 123 -194 0
337 -123 194 0
-338 -141 -142 0
-338 141 142 0
338 141 -142 0
338 -141 142 0
-339 -91 197 0
-339 91 -197 0
339 91 197 0
339 -91 -197 0
-340 -313 0
-340 -320 0
340 313 320 0
-341 39 115 0
-341 -39 -115 0
341 -39 115 0
341 39 -115 0
-342 286 229 0
-342 -286 -229 0
342 -286 229 0
342 286 -229 0
-343 -100 323 0
-343 100 -323 0
343 100 323 0
343 -100 -323 0
-344 -12 0
-344 207 0
344 12 -207 0
-345 -144 303 0
-345 144 -303 0
345 144 303 0
345 -144 -303 0
-346 -155 0
-346 90 0
346 155 -90 0
-347 -165 346 0
-347 165 -346 0
347 165 346 0
347 -165 -346 0
-348 -154 -126 0
-348 154 126 0
348 154 -126 0
348 -154 126 0
-349 -289 0
-349 264 0
349 289 -264 0
-350 -153 -330 0
-350 153 330 0
350 153 -330 0
350 -153 330 0
-351 326 -96 0
-351 -326 96 0
351 -326 -96 0
351 326 96 0
-352 179 -327 0
-352 -179 327 0
352 -179 -327 0
352 179 327 0
-353 -343 -26 0
-353 343 26 0
353 343 -26 0
353 -343 26 0
-354 242 0
-354 178 0
354 -242 -178 0
-355 286 0
-355 -151 0
355 -286 151 0
-356 -316 264 0
-356 316 -264 0
356 316 264 0
356 -316 -264 0
-357 -302 214 0
-357 302 -214 0
357 302 214 0
357 -302 -214 0
-358 -19 -342 0
-358 19 342 0
358 19 -342 0
358 -19 342 0
-359 -148 232 0
-359 148 -232 0
359 148 232 0
359 -148 -232 0
-360 -222 -238 0
-360 222 238 0
360 222 -238 0
360 -222 238 0
-361 330 149 0
-361 -330 -149 0
361 -330 149 0
361 330 -149 0
-362 140 0
-362 57 0
362 -140 -57 0
-363 -268 -235 0
-363 268 235 0
363 268 -235 0
363 -268 235 0
-364 -69 0
-364 -65 0
364 69 65 0
-365 -95 197 0
-365 95 -197 0
365 95 197 0
365 -95 -197 0
-366 101 -114 0
-366 -101 114 0
366 -101 -114 0
366 101 114 0
-367 159 257 0
-367 -159 -257 0
367 -159 257 0
367 159 -257 0
-368 240 128 0
-368 -240 -128 0
368 -240 128 0
368 240 -128 0
-369 -173 -360 0
-369 173 360 0
369 173 -360 0
369 -173 360 0
-370 -246 0
-370 -325 0
370 246 325 0
-371 -263 -333 0
-371 263 333 0
371 263 -333 0
371 -263 333 0
-372 309 0
-372 188 0
372 -309 -188 0
-373 65 -54 0
-373 -65 54 0
373 -65 -54 0
373 65 54 0
-374 -81 223 0
-374 81 -223 0
374 81 223 0
374 -81 -223 0
-375 203 -322 0
-375 -203 322 0
375 -203 -322 0
375 203 322 0
-376 -95 -150 0
-376 95 150 0
376 95 -150 0
376 -95 150 0
-377 127 302 0
-377 -127 -302 0
377 -127 302 0
377 127 -302 0
-378 -159 0
-378 272 0
378 159 -272 0
-379 -250 114 0
-379 250 -114 0
379 250 114 0
379 -250 -114 0
-380 -54 119 0
-380 54 -119 0
380 54 119 0
380 -54 -119 0
-381 -295 371 0
-381 295 -371 0
381 295 371 0
381 -295 -371 0
-382 163 301 0
-382 -163 -301 0
382 -163 301 0
382 163 -301 0
-383 -260 259 0
-383 260 -259 0
383 260 259 0
383 -260 -259 0
-384 115 -41 0
-384 -115 41 0
384 -115 -41 0
384 115 41 0
-385 248 -26 0
-385 -248 26 0
385 -248 -26 0
385 248 26 0
-386 354 368 0
-386 -354 -368 0
386 -354 368 0
386 354 -368 0
-387 241 -176 0
-387 -241 176 0
387 -241 -176 0
387 241 176 0
-388 -193 0
-388 -190 0
388 193 190 0
-389 -156 0
-389 344 0
389 156 -344 0
-390 -244 0
-390 214 0
390 244 -214 0
-391 128 365 0
-391 -128 -365 0
391 -128 365 0
391 128 -365 0
-392 130 -360 0
-392 -130 360 0
392 -130 -360 0
392 130 360 0
-393 147 -305 0
-393 -147 305 0
393 -147 -305 0
393 147 305 0
-394 -39 0
-394 -205 0
394 39 205 0
-395 -262 0
-395 178 0
395 262 -178 0
-396 -230 -128 0
-396 230 128 0
396 230 -128 0
396 -230 128 0
-397 -315 358 0
-397 315 -358 0
397 315 358 0
397 -315 -358 0
-398 -221 0
-398 374 0
398 221 -374 0
-399 -191 109 0
-399 191 -109 0
399 191 109 0
399 -191 -109 0
-400 -67 0
-400 -301 0
400 67 301 0
-401 44 -225 0
-401 -44 225 0
401 -44 -225 0
401 44 225 0
-402 -11 374 0
-402 11 -374 0
402 11 374 0
402 -11 -374 0
-403 -138 -327 0
-403 138 327 0
403 138 -327 0
403 -138 327 0
-404 28 0
-404 306 0
404 -28 -306 0
-405 179 -117 0
-405 -179 117 0
405 -179 -117 0
405 179 117 0
-406 156 1 0
-406 -156 -1 0
406 -156 1 0
406 156 -1 0
-407 263 57 0
-407 -263 -57 0
407 -263 57 0
407 263 -57 0
-408 -123 -98 0
-408 123 98 0
408 123 -98 0
408 -123 98 0
-409 285 -288 0
-409 -285 288 0
409 -285 -288 0
409 285 288 0
-410 242 148 0
-410 -242 -148 0
410 -242 148 0
410 242 -148 0
-411 320 0
-411 -88 0
411 -320 88 0
-412 388 127 0
-412 -388 -127 0
412 -388 127 0
412 388 -127 0
-413 314 52 0
-413 -314 -52 0
413 -314 52 0
413 314 -52 0
-414 24 397 0
-414 -24 -397 0
414 -24 397 0
414 24 -397 0
-415 -54 361 0
-415 54 -361 0
415 54 361 0
415 -54 -361 0
-416 140 258 0
-416 -140 -258 0
416 -140 258 0
416 140 -258 0
-417 -332 0
-417 -260 0
417 332 260 0
-418 -392 -5 0
-418 392 5 0
418 392 -5 0
418 -392 5 0
-419 390 0
-419 144 0
419 -390 -144 0
-420 369 0
-420 -349 0
420 -369 349 0
-421 -396 406 0
-421 396 -406 0
421 396 406 0
421 -396 -406 0
-422 -31 381 0
-422 31 -381 0
422 31 381 0
422 -31 -381 0
-423 -347 89 0
-423 347 -89 0
423 347 89 0
423 -347 -89 0
-424 -363 -1 0
-424 363 1 0
424 363 -1 0
424 -363 1 0
-425 -405 299 0
-425 405 -299 0
425 405 299 0
425 -405 -299 0
-426 309 313 0
-426 -309 -313 0
426 -309 313 0
426 309 -313 0
-427 -336 -55 0
-427 336 55 0
427 336 -55 0
427 -336 55 0
-428 -173 116 0
-428 173 -116 0
428 173 116 0
428 -173 -116 0
-429 49 0
-429 -44 0
429 -49 44 0
-430 200 225 0
-430 -200 -225 0
430 -200 225 0
430 200 -225 0
-431 -229 388 0
-431 229 -388 0
431 229 388 0
431 -229 -388 0
-432 -28 0
-432 -390 0
432 28 390 0
-433 311 25 0
-433 -311 -25 0
433 -311 25 0
433 311 -25 0
-434 -200 0
-434 405 0
434 200 -405 0
-435 57 298 0
-435 -57 -298 0
435 -57 298 0
435 57 -298 0
-436 404 0
-436 -12 0
436 -404 12 0
-437 -264 -388 0
-437 264 388 0
437 264 -388 0
437 -264 388 0
-438 201 336 0
-438 -201 -336 0
438 -201 336 0
438 201 -336 0
-439 121 31 0
-439 -121 -31 0
439 -121 31 0
439 121 -31 0
-440 273 -423 0
-440 -273 423 0
440 -273 -423 0
440 273 423 0
-441 355 -350 0
-441 -355 350 0
441 -355 -350 0
441 355 350 0
-442 352 -127 0
-442 -352 127 0
442 -352 -127 0
442 352 127 0
-443 -33 -384 0
-443 33 384 0
443 33 -384 0
443 -33 384 0
-444 332 119 0
-444 -332 -119 0
444 -332 119 0
444 332 -119 0
-445 -336 353 0
-445 336 -353 0
445 336 353 0
445 -336 -353 0
-446 -391 0
-446 -410 0
446 391 410 0
-447 27 365 0
-447 -27 -365 0
447 -27 365 0
447 27 -365 0
-448 -334 0
-448 117 0
448 334 -117 0
-449 226 -18 0
-449 -226 18 0
449 -226 -18 0
449 226 18 0
-450 141 445 0
-450 -141 -445 0
450 -141 445 0
450 141 -445 0
-451 -403 -204 0
-451 403 204 0
451 403 -204 0
451 -403 204 0
-452 -167 408 0
-452 167 -408 0
452 167 408 0
452 -167 -408 0
-453 -227 0
-453 14 0
453 227 -14 0
-454 -183 331 0
-454 183 -331 0
454 183 331 0
454 -183 -331 0
-455 259 304 0
-455 -259 -304 0
455 -259 304 0
455 259 -304 0
-456 354 -382 0
-456 -354 382 0
456 -354 -382 0
456 354 382 0
-457 -146 0
-457 -76 0
457 146 76 0
-458 203 -308 0
-458 -203 308 0
458 -203 -308 0
458 203 308 0
-459 -313 376 0
-459 313 -376 0
459 313 376 0
459 -313 -376 0
-460 380 -410 0
-460 -380 410 0
460 -380 -410 0
460 380 410 0
-461 91 430 0
-461 -91 -430 0
461 -91 430 0
461 91 -430 0
-462 -434 267 0
-462 434 -267 0
462 434 267 0
462 -434 -267 0
-463 -126 236 0
-463 126 -236 0
463 126 236 0
463 -126 -236 0
-464 225 0
-464 95 0
464 -225 -95 0
-465 430 133 0
-465 -430 -133 0
465 -430 133 0
465 430 -133 0
-466 251 -142 0
-466 -251 142 0
466 -251 -142 0
466 251 142 0
-467 57 0
-467 345 0
467 -57 -345 0
-468 -10 355 0
-468 10 -355 0
468 10 355 0
468 -10 -355 0
-469 150 313 0
-469 -150 -313 0
469 -150 313 0
469 150 -313 0
-470 -362 204 0
-470 362 -204 0
470 362 204 0
470 -362 -204 0
-471 348 -420 0
-471 -348 420 0
471 -348 -420 0
471 348 420 0
-472 -259 369 0
-472 259 -369 0
472 259 369 0
472 -259 -369 0
-473 97 -293 0
-473 -97 293 0
473 -97 -293 0
473 97 293 0
-474 284 -418 0
-474 -284 418 0
474 -284 -418 0
474 284 418 0
-475 -461 -25 0
-475 461 25 0
475 461 -25 0
475 -461 25 0
-476 -184 396 0
-476 184 -396 0
476 184 396 0
476 -184 -396 0
-477 29 -37 0
-477 -29 37 0
477 -29 -37 0
477 29 37 0
-478 401 -366 0
-478 -401 366 0
478 -401 -366 0
478 401 366 0
-479 -435 -339 0
-479 435 339 0
479 435 -339 0
479 -435 339 0
-480 -334 -389 0
-480 334 389 0
480 334 -389 0
480 -334 389 0
-481 400 -228 0
-481 -400 228 0
481 -400 -228 0
481 400 228 0
-482 -395 0
-482 97 0
482 395 -97 0
-483 295 384 0
-483 -295 -384 0
483 -295 384 0
483 295 -384 0
-484 18 -460 0
-484 -18 460 0
484 -18 -460 0
484 18 460 0
-485 411 77 0
-485 -411 -77 0
485 -411 77 0
485 411 -77 0
-486 -88 472 0
-486 88 -472 0
486 88 472 0
486 -88 -472 0
-487 22 0
-487 447 0
487 -22 -447 0
-488 62 0
-488 -223 0
488 -62 223 0
-489 73 290 0
-489 -73 -290 0
489 -73 290 0
489 73 -290 0
-490 64 -22 0
-490 -64 22 0
490 -64 -22 0
490 64 22 0
-491 -327 63 0
-491 327 -63 0
491 327 63 0
491 -327 -63 0
-492 320 0
-492 -412 0
492 -320 412 0
-493 -41 0
-493 209 0
493 41 -209 0
-494 218 0
-494 183 0
494 -218 -183 0
-495 -81 -97 0
-495 81 97 0
495 81 -97 0
495 -81 97 0
-496 -226 173 0
-496 226 -173 0
496 226 173 0
496 -226 -173 0
-497 326 229 0
-497 -326 -229 0
497 -326 229 0
497 326 -229 0
-498 229 0
-498 -113 0
498 -229 113 0
-499 494 152 0
-499 -494 -152 0
499 -494 152 0
499 494 -152 0
-500 491 -265 0
-500 -491 265 0
500 -491 -265 0
500 491 265 0
-501 -177 429 0
-501 177 -429 0
501 177 429 0
501 -177 -429 0
-502 -108 0
-502 377 0
502 108 -377 0
-503 70 0
-503 429 0
503 -70 -429 0
-504 -334 204 0
-504 334 -204 0
504 334 204 0
504 -334 -204 0
-505 22 0
-505 44 0
505 -22 -44 0
-506 374 -463 0
-506 -374 463 0
506 -374 -463 0
506 374 463 0
-507 -438 385 0
-507 438 -385 0
507 438 385 0
507 -438 -385 0
-508 212 200 0
-508 -212 -200 0
508 -212 200 0
508 212 -200 0
-509 -74 -273 0
-509 74 273 0
509 74 -273 0
509 -74 273 0
-510 -4 0
-510 -441 0
510 4 441 0
-511 -193 509 0
-511 193 -509 0
511 193 509 0
511 -193 -509 0
-512 -279 184 0
-512 279 -184 0
512 279 184 0
512 -279 -184 0
-513 150 0
-513 -307 0
513 -150 307 0
-514 438 -480 0
-514 -438 480 0
514 -438 -480 0
514 438 480 0
-515 380 -465 0
-515 -380 465 0
515 -380 -465 0
515 380 465 0
-516 491 0
-516 -201 0
516 -491 201 0
-517 -46 450 0
-517 46 -450 0
517 46 450 0
517 -46 -450 0
-518 -275 483 0
-518 275 -483 0
518 275 483 0
518 -275 -483 0
-519 469 -130 0
-519 -469 130 0
519 -469 -130 0
519 469 130 0
-520 351 241 0
-520 -351 -241 0
520 -351 241 0
520 351 -241 0
-521 212 370 0
-521 -212 -370 0
521 -212 370 0
521 212 -370 0
-522 -494 6 0
-522 494 -6 0
522 494 6 0
522 -494 -6 0
-523 345 -396 0
-523 -345 396 0
523 -345 -396 0
523 345 396 0
-524 223 -132 0
-524 -223 132 0
524 -223 -132 0
524 223 132 0
-525 458 -327 0
-525 -458 327 0
525 -458 -327 0
525 458 327 0
-526 255 0
-526 -405 0
526 -255 405 0
-527 -99 334 0
-527 99 -334 0
527 99 334 0
527 -99 -334 0
-528 360 524 0
-528 -360 -524 0
528 -360 524 0
528 360 -524 0
-529 -481 337 0
-529 481 -337 0
529 481 337 0
529 -481 -337 0
-530 -3 -97 0
-530 3 97 0
530 3 -97 0
530 -3 97 0
-531 42 -12 0
-531 -42 12 0
531 -42 -12 0
531 42 12 0
-532 123 0
-532 183 0
532 -123 -183 0
-533 -414 418 0
-533 414 -418 0
533 414 418 0
533 -414 -418 0
-534 -45 -248 0
-534 45 248 0
534 45 -248 0
534 -45 248 0
-535 -498 -250 0
-535 498 250 0
535 498 -250 0
535 -498 250 0
-536 -211 444 0
-536 211 -444 0
536 211 444 0
536 -211 -444 0
-537 448 0
-537 375 0
537 -448 -375 0
-538 495 35 0
-538 -495 -35 0
538 -495 35 0
538 495 -35 0
-539 -52 -188 0
-539 52 188 0
539 52 -188 0
539 -52 188 0
-540 -80 0
-540 230 0
540 80 -230 0
-541 -447 -167 0
-541 447 167 0
541 447 -167 0
541 -447 167 0
-542 469 -324 0
-542 -469 324 0
542 -469 -324 0
542 469 324 0
-543 -234 -174 0
-543 234 174 0
543 234 -174 0
543 -234 174 0
-544 21 392 0
-544 -21 -392 0
544 -21 392 0
544 21 -392 0
-545 192 0
-545 -310 0
545 -192 310 0
-546 -284 69 0
-546 284 -69 0
546 284 69 0
546 -284 -69 0
-547 -531 0
-547 243 0
547 531 -243 0
-548 -379 -191 0
-548 379 191 0
548 379 -191 0
548 -379 191 0
-549 -451 0
-549 -207 0
549 451 207 0
-550 135 116 0
-550 -135 -116 0
550 -135 116 0
550 135 -116 0
-551 -199 32 0
-551 199 -32 0
551 199 32 0
551 -199 -32 0
-552 -199 227 0
-552 199 -227 0
552 199 227 0
552 -199 -227 0
-553 143 -385 0
-553 -143 385 0
553 -143 -385 0
553 143 385 0
-554 -61 323 0
-554 61 -323 0
554 61 323 0
554 -61 -323 0
-555 526 0
-555 348 0
555 -526 -348 0
-556 -9 0
-556 204 0
556 9 -204 0
-557 -485 -187 0
-557 485 187 0
557 485 -187 0
557 -485 187 0
-558 350 293 0
-558 -350 -293 0
558 -350 293 0
558 350 -293 0
-559 418 -478 0
-559 -418 478 0
559 -418 -478 0
559 418 478 0
-560 122 0
-560 547 0
560 -122 -547 0
-561 243 0
-561 -449 0
561 -243 449 0
-562 -138 0
-562 -427 0
562 138 427 0
-563 -487 -135 0
-563 487 135 0
563 487 -135 0
563 -487 135 0
-564 53 94 0
-564 -53 -94 0
564 -53 94 0
564 53 -94 0
-565 558 438 0
-565 -558 -438 0
565 -558 438 0
565 558 -438 0
-566 190 -60 0
-566 -190 60 0
566 -190 -60 0
566 190 60 0
-567 -378 -279 0
-567 378 279 0
567 378 -279 0
567 -378 279 0
-568 -60 500 0
-568 60 -500 0
568 60 500 0
568 -60 -500 0
-569 -157 330 0
-569 157 -330 0
569 157 330 0
569 -157 -330 0
-570 293 -411 0
-570 -293 411 0
570 -293 -411 0
570 293 411 0
-571 -521 35 0
-571 521 -35 0
571 521 35 0
571 -521 -35 0
-572 78 514 0
-572 -78 -514 0
572 -78 514 0
572 78 -514 0
-573 281 -57 0
-573 -281 57 0
573 -281 -57 0
573 281 57 0
-574 224 -351 0
-574 -224 351 0
574 -224 -351 0
574 224 351 0
-575 228 215 0
-575 -228 -215 0
575 -228 215 0
575 228 -215 0
-576 -478 443 0
-576 478 -443 0
576 478 443 0
576 -478 -443 0
-577 409 0
-577 57 0
577 -409 -57 0
-578 -417 540 0
-578 417 -540 0
578 417 540 0
578 -417 -540 0
-579 -28 0
-579 294 0
579 28 -294 0
-580 -377 551 0
-580 377 -551 0
580 377 551 0
580 -377 -551 0
-581 235 370 0
-581 -235 -370 0
581 -235 370 0
581 235 -370 0
-582 -493 0
-582 50 0
582 493 -50 0
-583 -153 164 0
-583 153 -164 0
583 153 164 0
583 -153 -164 0
-584 9 185 0
-584 -9 -185 0
584 -9 185 0
584 9 -185 0
-585 -386 0
-585 529 0
585 386 -529 0
-586 -129 25 0
-586 129 -25 0
586 129 25 0
586 -129 -25 0
-587 283 0
-587 -43 0
587 -283 43 0
-588 521 -566 0
-588 -521 566 0
588 -521 -566 0
588 521 566 0
-589 -137 0
-589 -489 0
589 137 489 0
-590 -265 -61 0
-590 265 61 0
590 265 -61 0
590 -265 61 0
-591 -349 0
-591 -440 0
591 349 440 0
-592 -304 264 0
-592 304 -264 0
592 304 264 0
592 -304 -264 0
-593 -280 0
-593 -166 0
593 280 166 0
-594 -461 0
-594 34 0
594 461 -34 0
-595 -342 -474 0
-595 342 474 0
595 342 -474 0
595 -342 474 0
-596 110 0
-596 -26 0
596 -110 26 0
-597 -262 -156 0
-597 262 156 0
597 262 -156 0
597 -262 156 0
-598 287 0
-598 581 0
598 -287 -581 0
-599 -424 -252 0
-599 424 252 0
599 424 -252 0
599 -424 252 0
-600 -410 276 0
-600 410 -276 0
600 410 276 0
600 -410 -276 0
-601 -41 0
-601 -155 0
601 41 155 0
-602 57 380 0
-602 -57 -380 0
602 -57 380 0
602 57 -380 0
-603 -402 -530 0
-603 402 530 0
603 402 -530 0
603 -402 530 0
-604 581 -277 0
-604 -581 277 0
604 -581 -277 0
604 581 277 0
-605 289 177 0
-605 -289 -177 0
605 -289 177 0
605 289 -177 0
-606 -604 0
-606 411 0
606 604 -411 0
-607 170 73 0
-607 -170 -73 0
607 -170 73 0
607 170 -73 0
-608 491 343 0
-608 -491 -343 0
608 -491 343 0
608 491 -343 0
-609 -224 -192 0
-609 224 192 0
609 224 -192 0
609 -224 192 0
-610 306 -606 0
-610 -306 606 0
610 -306 -606 0
610 306 606 0
-611 301 0
-611 -527 0
611 -301 527 0
-612 310 34 0
-612 -310 -34 0
612 -310 34 0
612 310 -34 0
-613 249 -206 0
-613 -249 206 0
613 -249 -206 0
613 249 206 0
-614 -228 147 0
-614 228 -147 0
614 228 147 0
614 -228 -147 0
-615 -410 -203 0
-615 410 203 0
615 410 -203 0
615 -410 203 0
-616 318 0
-616 -169 0
616 -318 169 0
-617 -199 0
-617 -511 0
617 199 511 0
-618 -437 -249 0
-618 437 249 0
618 437 -249 0
618 -437 249 0
-619 270 268 0
-619 -270 -268 0
619 -270 268 0
619 270 -268 0
-620 286 -109 0
-620 -286 109 0
620 -286 -109 0
620 286 109 0
-621 2 546 0
-621 -2 -546 0
621 -2 546 0
621 2 -546 0
-622 551 151 0
-622 -551 -151 0
622 -551 151 0
622 551 -151 0
-623 274 372 0
-623 -274 -372 0
623 -274 372 0
623 274 -372 0
-624 -531 445 0
-624 531 -445 0
624 531 445 0
624 -531 -445 0
-625 -610 0
-625 445 0
625 610 -445 0
-626 467 0
-626 -96 0
626 -467 96 0
-627 97 0
-627 -342 0
627 -97 342 0
-628 477 -46 0
-628 -477 46 0
628 -477 -46 0
628 477 46 0
-629 -277 438 0
-629 277 -438 0
629 277 438 0
629 -277 -438 0
-630 -384 -160 0
-630 384 160 0
630 384 -160 0
630 -384 160 0
-631 321 -340 0
-631 -321 340 0
631 -321 -340 0
631 321 340 0
-632 -366 -445 0
-632 366 445 0
632 366 -445 0
632 -366 445 0
-633 -38 598 0
-633 38 -598 0
633 38 598 0
633 -38 -598 0
-634 44 0
-634 71 0
634 -44 -71 0
-635 147 412 0
-635 -147 -412 0
635 -147 412 0
635 147 -412 0
-636 275 -383 0
-636 -275 383 0
636 -275 -383 0
636 275 383 0
-637 81 -416 0
-637 -81 416 0
637 -81 -416 0
637 81 416 0
-638 -525 0
-638 -89 0
638 525 89 0
-639 424 473 0
-639 -424 -473 0
639 -424 473 0
639 424 -473 0
-640 -372 -613 0
-640 372 613 0
640 372 -613 0
640 -372 613 0
-641 -598 268 0
-641 598 -268 0
641 598 268 0
641 -598 -268 0
-642 -333 206 0
-642 333 -206 0
642 333 206 0
642 -333 -206 0
-643 301 -276 0
-643 -301 276 0
643 -301 -276 0
643 301 276 0
-644 540 -519 0
-644 -540 519 0
644 -540 -519 0
644 540 519 0
-645 231 -291 0
-645 -231 291 0
645 -231 -291 0
645 231 291 0
-646 52 0
-646 -197 0
646 -52 197 0
-647 -150 -321 0
-647 150 321 0
647 150 -321 0
647 -150 321 0
-648 245 644 0
-648 -245 -644 0
648 -245 644 0
648 245 -644 0
-649 -290 442 0
-649 290 -442 0
649 290 442 0
649 -290 -442 0
-650 491 0
-650 -208 0
650 -491 208 0
-651 265 331 0
-651 -265 -331 0
651 -265 331 0
651 265 -331 0
-652 -210 -47 0
-652 210 47 0
652 210 -47 0
652 -210 47 0
-653 227 0
-653 -103 0
653 -227 103 0
-654 -86 0
-654 -209 0
654 86 209 0
-655 -559 598 0
-655 559 -598 0
655 559 598 0
655 -559 -598 0
-656 -515 -501 0
-656 515 501 0
656 515 -501 0
656 -515 501 0
-657 349 0
-657 295 0
657 -349 -295 0
-658 -30 -23 0
-658 30 23 0
658 30 -23 0
658 -30 23 0
-659 157 87 0
-659 -157 -87 0
659 -157 87 0
659 157 -87 0
-660 455 60 0
-660 -455 -60 0
660 -455 60 0
660 455 -60 0
-661 621 527 0
-661 -621 -527 0
661 -621 527 0
661 621 -527 0
-662 532 -592 0
-662 -532 592 0
662 -532 -592 0
662 532 592 0
-663 426 418 0
-663 -426 -418 0
663 -426 418 0
663 426 -418 0
-664 -52 603 0
-664 52 -603 0
664 52 603 0
664 -52 -603 0
-665 -119 0
-665 -93 0
665 119 93 0
-666 223 -558 0
-666 -223 558 0
666 -223 -558 0
666 223 558 0
-667 88 26 0
-667 -88 -26 0
667 -88 26 0
667 88 -26 0
-668 273 0
-668 -401 0
668 -273 401 0
-669 402 -644 0
-669 -402 644 0
669 -402 -644 0
669 402 644 0
-670 -221 0
-670 -624 0
670 221 624 0
-671 306 0
-671 -487 0
671 -306 487 0
-672 539 0
-672 98 0
672 -539 -98 0
-673 -232 0
-673 -344 0
673 232 344 0
-674 -242 -102 0
-674 242 102 0
674 242 -102 0
674 -242 102 0
-675 197 158 0
-675 -197 -158 0
675 -197 158 0
675 197 -158 0
-676 6 -217 0
-676 -6 217 0
676 -6 -217 0
676 6 217 0
-677 517 118 0
-677 -517 -118 0
677 -517 118 0
677 517 -118 0
-678 -35 -123 0
-678 35 123 0
678 35 -123 0
678 -35 123 0
-679 -193 -257 0
-679 193 257 0
679 193 -257 0
679 -193 257 0
-680 449 -281 0
-680 -449 281 0
680 -449 -281 0
680 449 281 0
-681 350 0
-681 -132 0
681 -350 132 0
-682 -560 -593 0
-682 560 593 0
682 560 -593 0
682 -560 593 0
-683 678 362 0
-683 -678 -362 0
683 -678 362 0
683 678 -362 0
-684 268 -577 0
-684 -268 577 0
684 -268 -577 0
684 268 577 0
-685 36 0
-685 -258 0
685 -36 258 0
-686 -119 0
-686 6 0
686 119 -6 0
-687 474 536 0
-687 -474 -536 0
687 -474 536 0
687 474 -536 0
-688 -233 187 0
-688 233 -187 0
688 233 187 0
688 -233 -187 0
-689 381 -394 0
-689 -381 394 0
689 -381 -394 0
689 381 394 0
-690 513 151 0
-690 -513 -151 0
690 -513 151 0
690 513 -151 0
-691 300 0
-691 -368 0
691 -300 368 0
-692 304 0
-692 -518 0
692 -304 518 0
-693 551 -38 0
-693 -551 38 0
693 -551 -38 0
693 551 38 0
-694 -219 186 0
-694 219 -186 0
694 219 186 0
694 -219 -186 0
-695 -445 0
-695 -572 0
695 445 572 0
-696 630 -136 0
-696 -630 136 0
696 -630 -136 0
696 630 136 0
-697 -520 107 0
-697 520 -107 0
697 520 107 0
697 -520 -107 0
-698 -503 0
-698 165 0
698 503 -165 0
-699 -276 -615 0
-699 276 615 0
699 276 -615 0
699 -276 615 0
-700 -355 -577 0
-700 355 577 0
700 355 -577 0
700 -355 577 0
-701 149 0
-701 -433 0
701 -149 433 0
-702 -672 0
-702 116 0
702 672 -116 0
-703 -482 -41 0
-703 482 41 0
703 482 -41 0
703 -482 41 0
-704 684 325 0
-704 -684 -325 0
704 -684 325 0
704 684 -325 0
-705 -634 -78 0
-705 634 78 0
705 634 -78 0
705 -634 78 0
-706 -638 474 0
-706 638 -474 0
706 638 474 0
706 -638 -474 0
-707 262 -46 0
-707 -262 46 0
707 -262 -46 0
707 262 46 0
-708 20 103 0
-708 -20 -103 0
708 -20 103 0
708 20 -103 0
-709 -189 0
-709 5 0
709 189 -5 0
-710 -416 0
-710 -698 0
710 416 698 0
-711 174 -273 0
-711 -174 273 0
711 -174 -273 0
711 174 273 0
-712 -665 0
-712 669 0
712 665 -669 0
-713 425 0
-713 -588 0
713 -425 588 0
-714 -426 -9 0
-714 426 9 0
714 426 -9 0
714 -426 9 0
-715 -421 -483 0
-715 421 483 0
715 421 -483 0
715 -421 483 0
-716 -214 311 0
-716 214 -311 0
716 214 311 0
716 -214 -311 0
-717 -650 398 0
-717 650 -398 0
717 650 398 0
717 -650 -398 0
-718 -322 -276 0
-718 322 276 0
718 322 -276 0
718 -322 276 0
-719 -548 0
-719 109 0
719 548 -109 0
-720 -147 627 0
-720 147 -627 0
720 147 627 0
720 -147 -627 0
-721 494 0
-721 657 0
721 -494 -657 0
-722 -591 -367 0
-722 591 367 0
722 591 -367 0
722 -591 367 0
-723 369 -721 0
-723 -369 721 0
723 -369 -721 0
723 369 721 0
-724 609 0
-724 542 0
724 -609 -542 0
-725 573 500 0
-725 -573 -500 0
725 -573 500 0
725 573 -500 0
-726 -117 0
-726 -233 0
726 117 233 0
-727 -577 -464 0
-727 577 464 0
727 577 -464 0
727 -577 464 0
-728 -302 -268 0
-728 302 268 0
728 302 -268 0
728 -302 268 0
-729 357 -652 0
-729 -357 652 0
729 -357 -652 0
729 357 652 0
-730 598 188 0
-730 -598 -188 0
730 -598 188 0
730 598 -188 0
-731 322 398 0
-731 -322 -398 0
731 -322 398 0
731 322 -398 0
-732 627 -73 0
-732 -627 73 0
732 -627 -73 0
732 627 73 0
-733 -466 0
-733 -208 0
733 466 208 0
-734 -506 0
-734 -605 0
734 506 605 0
-735 -342 0
-735 -357 0
735 342 357 0
-736 -555 600 0
-736 555 -600 0
736 555 600 0
736 -555 -600 0
-737 710 0
-737 244 0
737 -710 -244 0
-738 -599 79 0
-738 599 -79 0
738 599 79 0
738 -599 -79 0
-739 162 375 0
-739 -162 -375 0
739 -162 375 0
739 162 -375 0
-740 -333 0
-740 -26 0
740 333 26 0
-741 76 -394 0
-741 -76 394 0
741 -76 -394 0
741 76 394 0
-742 -713 53 0
-742 713 -53 0
742 713 53 0
742 -713 -53 0
-743 -337 147 0
-743 337 -147 0
743 337 147 0
743 -337 -147 0
-744 -404 0
-744 -682 0
744 404 682 0
-745 698 0
-745 344 0
745 -698 -344 0
-746 600 130 0
-746 -600 -130 0
746 -600 130 0
746 600 -130 0
-747 -467 -680 0
-747 467 680 0
747 467 -680 0
747 -467 680 0
-748 127 -313 0
-748 -127 313 0
748 -127 -313 0
748 127 313 0
-749 -250 131 0
-749 250 -131 0
749 250 131 0
749 -250 -131 0
-750 100 519 0
-750 -100 -519 0
750 -100 519 0
750 100 -519 0
-751 437 0
-751 81 0
751 -437 -81 0
-752 -61 0
-752 -484 0
752 61 484 0
-753 -290 66 0
-753 290 -66 0
753 290 66 0
753 -290 -66 0
-754 -656 0
-754 263 0
754 656 -263 0
-755 -543 446 0
-755 543 -446 0
755 543 446 0
755 -543 -446 0
-756 -740 219 0
-756 740 -219 0
756 740 219 0
756 -740 -219 0
-757 -418 615 0
-757 418 -615 0
757 418 615 0
757 -418 -615 0
-758 -438 0
-758 -192 0
758 438 192 0
-759 -327 438 0
-759 327 -438 0
759 327 438 0
759 -327 -438 0
-760 -123 635 0
-760 123 -635 0
760 123 635 0
760 -123 -635 0
-761 -49 706 0
-761 49 -706 0
761 49 706 0
761 -49 -706 0
-762 -641 0
-762 -52 0
762 641 52 0
-763 -628 -340 0
-763 628 340 0
763 628 -340 0
763 -628 340 0
-764 488 632 0
-764 -488 -632 0
764 -488 632 0
764 488 -632 0
-765 632 0
-765 -239 0
765 -632 239 0
-766 -338 82 0
-766 338 -82 0
766 338 82 0
766 -338 -82 0
-767 -608 573 0
-767 608 -573 0
767 608 573 0
767 -608 -573 0
-768 -760 -77 0
-768 760 77 0
768 760 -77 0
768 -760 77 0
-769 -700 -461 0
-769 700 461 0
769 700 -461 0
769 -700 461 0
-770 -271 -546 0
-770 271 546 0
770 271 -546 0
770 -271 546 0
-771 748 -70 0
-771 -748 70 0
771 -748 -70 0
771 748 70 0
-772 -594 0
-772 646 0
772 594 -646 0
-773 545 -336 0
-773 -545 336 0
773 -545 -336 0
773 545 336 0
-774 339 -471 0
-774 -339 471 0
774 -339 -471 0
774 339 471 0
-775 677 573 0
-775 -677 -573 0
775 -677 573 0
775 677 -573 0
-776 287 -305 0
-776 -287 305 0
776 -287 -305 0
776 287 305 0
-777 -320 0
-777 182 0
777 320 -182 0
-778 -376 254 0
-778 376 -254 0
778 376 254 0
778 -376 -254 0
-779 209 -428 0
-779 -209 428 0
779 -209 -428 0
779 209 428 0
-780 562 0
-780 -586 0
780 -562 586 0
-781 -554 0
-781 179 0
781 554 -179 0
-782 -56 -75 0
-782 56 75 0
782 56 -75 0
782 -56 75 0
-783 -276 -286 0
-783 276 286 0
783 276 -286 0
783 -276 286 0
-784 416 0
-784 56 0
784 -416 -56 0
-785 -754 0
-785 712 0
785 754 -712 0
-786 -637 -148 0
-786 637 148 0
786 637 -148 0
786 -637 148 0
-787 83 285 0
-787 -83 -285 0
787 -83 285 0
787 83 -285 0
-788 -135 239 0
-788 135 -239 0
788 135 239 0
788 -135 -239 0
-789 -44 0
-789 249 0
789 44 -249 0
-790 -403 -16 0
-790 403 16 0
790 403 -16 0
790 -403 16 0
-791 -129 466 0
-791 129 -466 0
791 129 466 0
791 -129 -466 0
-792 -128 -377 0
-792 128 377 0
792 128 -377 0
792 -128 377 0
-793 -386 0
-793 190 0
793 386 -190 0
-794 442 0
-794 -159 0
794 -442 159 0
-795 -642 0
-795 135 0
795 642 -135 0
-796 454 185 0
-796 -454 -185 0
796 -454 185 0
796 454 -185 0
-797 682 0
-797 722 0
797 -682 -722 0
-798 -66 0
-798 -81 0
798 66 81 0
-799 434 0
-799 -527 0
799 -434 527 0
-800 -441 0
-800 730 0
800 441 -730 0
-801 -590 193 0
-801 590 -193 0
801 590 193 0
801 -590 -193 0
-802 697 786 0
-802 -697 -786 0
802 -697 786 0
802 697 -786 0
-803 -694 -37 0
-803 694 37 0
803 694 -37 0
803 -694 37 0
-804 249 75 0
-804 -249 -75 0
804 -249 75 0
804 249 -75 0
-805 -150 697 0
-805 150 -697 0
805 150 697 0
805 -150 -697 0
-806 467 791 0
-806 -467 -791 0
806 -467 791 0
806 467 -791 0
-807 785 292 0
-807 -785 -292 0
807 -785 292 0
807 785 -292 0
-808 -727 -481 0
-808 727 481 0
808 727 -481 0
808 -727 481 0
-809 -89 0
-809 -629 0
809 89 629 0
-810 -566 359 0
-810 566 -359 0
810 566 359 0
810 -566 -359 0
-811 703 -543 0
-811 -703 543 0
811 -703 -543 0
811 703 543 0
-812 522 -706 0
-812 -522 706 0
812 -522 -706 0
812 522 706 0
-813 -59 0
-813 -596 0
813 59 596 0
-814 -709 -667 0
-814 709 667 0
814 709 -667 0
814 -709 667 0
-815 -228 0
-815 685 0
815 228 -685 0
-816 -569 0
-816 -372 0
816 569 372 0
-817 -105 0
-817 -361 0
817 105 361 0
-818 -508 -87 0
-818 508 87 0
818 508 -87 0
818 -508 87 0
-819 628 -209 0
-819 -628 209 0
819 -628 -209 0
819 628 209 0
-820 350 -121 0
-820 -350 121 0
820 -350 -121 0
820 350 121 0
-821 -28 309 0
-821 28 -309 0
821 28 309 0
821 -28 -309 0
-822 124 0
-822 719 0
822 -124 -719 0
-823 -701 -750 0
-823 701 750 0
823 701 -750 0
823 -701 750 0
-824 -312 700 0
-824 312 -700 0
824 312 700 0
824 -312 -700 0
-825 -502 750 0
-825 502 -750 0
825 502 750 0
825 -502 -750 0
-826 699 0
-826 -236 0
826 -699 236 0
-827 -182 3 0
-827 182 -3 0
827 182 3 0
827 -182 -3 0
-828 -299 -411 0
-828 299 411 0
828 299 -411 0
828 -299 411 0
-829 -162 0
-829 692 0
829 162 -692 0
-830 -460 -589 0
-830 460 589 0
830 460 -589 0
830 -460 589 0
-831 -526 487 0
-831 526 -487 0
831 526 487 0
831 -526 -487 0
-832 673 0
-832 -648 0
832 -673 648 0
-833 -88 681 0
-833 88 -681 0
833 88 681 0
833 -88 -681 0
-834 174 816 0
-834 -174 -816 0
834 -174 816 0
834 174 -816 0
-835 457 0
-835 718 0
835 -457 -718 0
-836 118 -308 0
-836 -118 308 0
836 -118 -308 0
836 118 308 0
-837 529 519 0
-837 -529 -519 0
837 -529 519 0
837 529 -519 0
-838 582 -339 0
-838 -582 339 0
838 -582 -339 0
838 582 339 0
-839 -141 0
-839 -210 0
839 141 210 0
-840 60 0
-840 -464 0
840 -60 464 0
-841 -280 747 0
-841 280 -747 0
841 280 747 0
841 -280 -747 0
-842 -422 0
-842 -706 0
842 422 706 0
-843 270 -252 0
-843 -270 252 0
843 -270 -252 0
843 270 252 0
-844 160 -548 0
-844 -160 548 0
844 -160 -548 0
844 160 548 0
-845 783 -316 0
-845 -783 316 0
845 -783 -316 0
845 783 316 0
-846 366 -28 0
-846 -366 28 0
846 -366 -28 0
846 366 28 0
-847 -687 148 0
-847 687 -148 0
847 687 148 0
847 -687 -148 0
-848 -108 114 0
-848 108 -114 0
848 108 114 0
848 -108 -114 0
-849 -591 -270 0
-849 591 270 0
849 591 -270 0
849 -591 270 0
-850 285 -218 0
-850 -285 218 0
850 -285 -218 0
850 285 218 0
-851 702 -159 0
-851 -702 159 0
851 -702 -159 0
851 702 159 0
-852 803 0
-852 244 0
852 -803 -244 0
-853 664 160 0
-853 -664 -160 0
853 -664 160 0
853 664 -160 0
-854 -686 0
-854 482 0
854 686 -482 0
-855 635 0
-855 388 0
855 -635 -388 0
-856 -348 0
-856 590 0
856 348 -590 0
-857 -165 -171 0
-857 165 171 0
857 165 -171 0
857 -165 171 0
-858 789 0
-858 572 0
858 -789 -572 0
-859 615 -291 0
-859 -615 291 0
859 -615 -291 0
859 615 291 0
-860 346 260 0
-860 -346 -260 0
860 -346 260 0
860 346 -260 0
-861 248 0
-861 43 0
861 -248 -43 0
-862 754 -468 0
-862 -754 468 0
862 -754 -468 0
862 754 468 0
-863 -422 245 0
-863 422 -245 0
863 422 245 0
863 -422 -245 0
-864 -824 -398 0
-864 824 398 0
864 824 -398 0
864 -824 398 0
-865 -354 723 0
-865 354 -723 0
865 354 723 0
865 -354 -723 0
-866 -669 190 0
-866 669 -190 0
866 669 190 0
866 -669 -190 0
-867 -794 0
-867 849 0
867 794 -849 0
-868 -723 0
-868 -311 0
868 723 311 0
-869 385 538 0
-869 -385 -538 0
869 -385 538 0
869 385 -538 0
-870 661 0
-870 746 0
870 -661 -746 0
-871 -863 -695 0
-871 863 695 0
871 863 -695 0
871 -863 695 0
-872 493 -615 0
-872 -493 615 0
872 -493 -615 0
872 493 615 0
-873 390 -520 0
-873 -390 520 0
873 -390 -520 0
873 390 520 0
-874 199 658 0
-874 -199 -658 0
874 -199 658 0
874 199 -658 0
-875 242 0
-875 -271 0
875 -242 271 0
-876 12 0
-876 -594 0
876 -12 594 0
-877 306 0
-877 -36 0
877 -306 36 0
-878 537 0
-878 148 0
878 -537 -148 0
-879 -49 54 0
-879 49 -54 0
879 49 54 0
879 -49 -54 0
-880 842 -66 0
-880 -842 66 0
880 -842 -66 0
880 842 66 0
-881 -536 845 0
-881 536 -845 0
881 536 845 0
881 -536 -845 0
-882 784 158 0
-882 -784 -158 0
882 -784 158 0
882 784 -158 0
-883 20 0
-883 612 0
883 -20 -612 0
-884 580 5 0
-884 -580 -5 0
884 -580 5 0
884 580 -5 0
-885 -38 -143 0
-885 38 143 0
885 38 -143 0
885 -38 143 0
-886 -291 -590 0
-886 291 590 0
886 291 -590 0
886 -291 590 0
-887 -411 -741 0
-887 411 741 0
887 411 -741 0
887 -411 741 0
-888 761 0
-888 -250 0
888 -761 250 0
-889 487 -566 0
-889 -487 566 0
889 -487 -566 0
889 487 566 0
-890 -131 0
-890 -154 0
890 131 154 0
-891 245 0
-891 -721 0
891 -245 721 0
-892 -750 0
-892 -348 0
892 750 348 0
-893 -158 690 0
-893 158 -690 0
893 158 690 0
893 -158 -690 0
-894 479 0
-894 143 0
894 -479 -143 0
-895 706 0
-895 -564 0
895 -706 564 0
-896 347 0
-896 269 0
896 -347 -269 0
-897 756 190 0
-897 -756 -190 0
897 -756 190 0
897 756 -190 0
-898 -573 498 0
-898 573 -498 0
898 573 498 0
898 -573 -498 0
-899 484 -400 0
-899 -484 400 0
899 -484 -400 0
899 484 400 0
-900 -377 0
-900 365 0
900 377 -365 0
-901 609 0
-901 -735 0
901 -609 735 0
-902 287 -11 0
-902 -287 11 0
902 -287 -11 0
902 287 11 0
-903 -257 -424 0
-903 257 424 0
903 257 -424 0
903 -257 424 0
-904 -476 808 0
-904 476 -808 0
904 476 808 0
904 -476 -808 0
-905 -468 561 0
-905 468 -561 0
905 468 561 0
905 -468 -561 0
-906 346 296 0
-906 -346 -296 0
906 -346 296 0
906 346 -296 0
-907 695 -502 0
-907 -695 502 0
907 -695 -502 0
907 695 502 0
-908 -132 0
-908 374 0
908 132 -374 0
-909 -780 0
-909 -614 0
909 780 614 0
-910 50 -303 0
-910 -50 303 0
910 -50 -303 0
910 50 303 0
-911 -588 417 0
-911 588 -417 0
911 588 417 0
911 -588 -417 0
-912 672 731 0
-912 -672 -731 0
912 -672 731 0
912 672 -731 0
-913 696 -588 0
-913 -696 588 0
913 -696 -588 0
913 696 588 0
-914 260 84 0
-914 -260 -84 0
914 -260 84 0
914 260 -84 0
-915 793 0
-915 -600 0
915 -793 600 0
-916 744 0
-916 -526 0
916 -744 526 0
-917 158 -611 0
-917 -158 611 0
917 -158 -611 0
917 158 611 0
-918 57 -89 0
-918 -57 89 0
918 -57 -89 0
918 57 89 0
-919 -814 517 0
-919 814 -517 0
919 814 517 0
919 -814 -517 0
-920 289 0
-920 -8 0
920 -289 8 0
-921 24 711 0
-921 -24 -711 0
921 -24 711 0
921 24 -711 0
-922 136 0
-922 269 0
922 -136 -269 0
-923 -255 -419 0
-923 255 419 0
923 255 -419 0
923 -255 419 0
-924 -497 696 0
-924 497 -696 0
924 497 696 0
924 -497 -696 0
-925 442 472 0
-925 -442 -472 0
925 -442 472 0
925 442 -472 0
-926 -617 0
-926 863 0
926 617 -863 0
-927 -86 -450 0
-927 86 450 0
927 86 -450 0
927 -86 450 0
-928 120 0
-928 474 0
928 -120 -474 0
-929 113 864 0
-929 -113 -864 0
929 -113 864 0
929 113 -864 0
-930 -279 -246 0
-930 279 246 0
930 279 -246 0
930 -279 246 0
-931 266 832 0
-931 -266 -832 0
931 -266 832 0
931 266 -832 0
-932 869 557 0
-932 -869 -557 0
932 -869 557 0
932 869 -557 0
-933 793 -79 0
-933 -793 79 0
933 -793 -79 0
933 793 79 0
-934 642 -452 0
-934 -642 452 0
934 -642 -452 0
934 642 452 0
-935 489 423 0
-935 -489 -423 0
935 -489 423 0
935 489 -423 0
-936 -506 0
-936 -97 0
936 506 97 0
-937 -145 559 0
-937 145 -559 0
937 145 559 0
937 -145 -559 0
-938 705 -378 0
-938 -705 378 0
938 -705 -378 0
938 705 378 0
-939 -144 373 0
-939 144 -373 0
939 144 373 0
939 -144 -373 0
-940 -387 782 0
-940 387 -782 0
940 387 782 0
940 -387 -782 0
-941 718 40 0
-941 -718 -40 0
941 -718 40 0
941 718 -40 0
-942 -35 0
-942 78 0
942 35 -78 0
-943 374 910 0
-943 -374 -910 0
943 -374 910 0
943 374 -910 0
-944 -164 0
-944 20 0
944 164 -20 0
-945 497 -593 0
-945 -497 593 0
945 -497 -593 0
945 497 593 0
-946 735 -189 0
-946 -735 189 0
946 -735 -189 0
946 735 189 0
-947 451 164 0
-947 -451 -164 0
947 -451 164 0
947 451 -164 0
-948 926 529 0
-948 -926 -529 0
948 -926 529 0
948 926 -529 0
-949 804 -455 0
-949 -804 455 0
949 -804 -455 0
949 804 455 0
-950 83 911 0
-950 -83 -911 0
950 -83 911 0
950 83 -911 0
-951 -587 0
-951 -490 0
951 587 490 0
-952 286 0
-952 557 0
952 -286 -557 0
-953 266 588 0
-953 -266 -588 0
953 -266 588 0
953 266 -588 0
-954 222 -935 0
-954 -222 935 0
954 -222 -935 0
954 222 935 0
-955 181 -429 0
-955 -181 429 0
955 -181 -429 0
955 181 429 0
-956 906 0
-956 -730 0
956 -906 730 0
-957 655 533 0
-957 -655 -533 0
957 -655 533 0
957 655 -533 0
-958 130 244 0
-958 -130 -244 0
958 -130 244 0
958 130 -244 0
-959 -139 0
-959 -172 0
959 139 172 0
-960 -242 -689 0
-960 242 689 0
960 242 -689 0
960 -242 689 0
-961 285 0
-961 -215 0
961 -285 215 0
-962 -351 626 0
-962 351 -626 0
962 351 626 0
962 -351 -626 0
-963 -374 706 0
-963 374 -706 0
963 374 706 0
963 -374 -706 0
-964 -191 427 0
-964 191 -427 0
964 191 427 0
964 -191 -427 0
-965 931 147 0
-965 -931 -147 0
965 -931 147 0
965 931 -147 0
-966 558 0
-966 -597 0
966 -558 597 0
-967 216 -156 0
-967 -216 156 0
967 -216 -156 0
967 216 156 0
-968 519 0
-968 839 0
968 -519 -839 0
-969 -523 643 0
-969 523 -643 0
969 523 643 0
969 -523 -643 0
-970 -291 76 0
-970 291 -76 0
970 291 76 0
970 -291 -76 0
-971 -247 -758 0
-971 247 758 0
971 247 -758 0
971 -247 758 0
-972 -108 0
-972 479 0
972 108 -479 0
-973 763 185 0
-973 -763 -185 0
973 -763 185 0
973 763 -185 0
-974 -482 746 0
-974 482 -746 0
974 482 746 0
974 -482 -746 0
-975 -588 836 0
-975 588 -836 0
975 588 836 0
975 -588 -836 0
-976 -153 -438 0
-976 153 438 0
976 153 -438 0
976 -153 438 0
-977 139 -673 0
-977 -139 673 0
977 -139 -673 0
977 139 673 0
-978 -895 -539 0
-978 895 539 0
978 895 -539 0
978 -895 539 0
-979 269 -881 0
-979 -269 881 0
979 -269 -881 0
979 269 881 0
-980 -153 -925 0
-980 153 925 0
980 153 -925 0
980 -153 925 0
-981 452 -338 0
-981 -452 338 0
981 -452 -338 0
981 452 338 0
-982 686 -658 0
-982 -686 658 0
982 -686 -658 0
982 686 658 0
-983 549 -123 0
-983 -549 123 0
983 -549 -123 0
983 549 123 0
-984 914 116 0
-984 -914 -116 0
984 -914 116 0
984 914 -116 0
-985 796 -87 0
-985 -796 87 0
985 -796 -87 0
985 796 87 0
-986 -213 0
-986 -936 0
986 213 936 0
-987 -350 -715 0
-987 350 715 0
987 350 -715 0
987 -350 715 0
-988 394 0
-988 -116 0
988 -394 116 0
-989 -491 -617 0
-989 491 617 0
989 491 -617 0
989 -491 617 0
-990 293 -565 0
-990 -293 565 0
990 -293 -565 0
990 293 565 0
-991 -898 -633 0
-991 898 633 0
991 898 -633 0
991 -898 633 0
-992 -607 -36 0
-992 607 36 0
992 607 -36 0
992 -607 36 0
-993 -459 222 0
-993 459 -222 0
993 459 222 0
993 -459 -222 0
-994 -821 438 0
-994 821 -438 0
994 821 438 0
994 -821 -438 0
-995 -94 806 0
-995 94 -806 0
995 94 806 0
995 -94 -806 0
-996 -455 -961 0
-996 455 961 0
996 455 -961 0
996 -455 961 0
-997 -529 -80 0
-997 529 80 0
997 529 -80 0
997 -529 80 0
-998 -212 0
-998 196 0
998 212 -196 0
-999 40 0
-999 832 0
999 -40 -832 0
-1000 -240 363 0
-1000 240 -363 0
1000 240 363 0
1000 -240 -363 0
-1001 -746 180 0
-1001 746 -180 0
1001 746 180 0
1001 -746 -180 0
-1002 -252 -201 0
-1002 252 201 0
1002 252 -201 0
1002 -252 201 0
-1003 -1 -275 0
-1003 1 275 0
1003 1 -275 0
1003 -1 275 0
-1004 -887 -936 0
-1004 887 936 0
1004 887 -936 0
1004 -887 936 0
-1005 -179 0
-1005 -832 0
1005 179 832 0
-1006 -482 800 0
-1006 482 -800 0
1006 482 800 0
1006 -482 -800 0
-1007 -627 -213 0
-1007 627 213 0
1007 627 -213 0
1007 -627 213 0
-1008 914 328 0
-1008 -914 -328 0
1008 -914 328 0
1008 914 -328 0
-1009 -933 283 0
-1009 933 -283 0
1009 933 283 0
1009 -933 -283 0
-1010 -613 422 0
-1010 613 -422 0
1010 613 422 0
1010 -613 -422 0
-1011 -32 0
-1011 730 0
1011 32 -730 0
-1012 466 93 0
-1012 -466 -93 0
1012 -466 93 0
1012 466 -93 0
-1013 -457 954 0
-1013 457 -954 0
1013 457 954 0
1013 -457 -954 0
-1014 -990 683 0
-1014 990 -683 0
1014 990 683 0
1014 -990 -683 0
-1015 -555 -205 0
-1015 555 205 0
1015 555 -205 0
1015 -555 205 0
-1016 -400 0
-1016 -207 0
1016 400 207 0
-1017 -278 0
-1017 -679 0
1017 278 679 0
-1018 708 0
-1018 172 0
1018 -708 -172 0
-1019 -425 0
-1019 482 0
1019 425 -482 0
-1020 371 -69 0
-1020 -371 69 0
1020 -371 -69 0
1020 371 69 0
-1021 -313 0
-1021 -299 0
1021 313 299 0
-1022 -825 -675 0
-1022 825 675 0
1022 825 -675 0
1022 -825 675 0
-1023 -410 548 0
-1023 410 -548 0
1023 410 548 0
1023 -410 -548 0
-1024 -398 0
-1024 674 0
1024 398 -674 0
-1025 -683 719 0
-1025 683 -719 0
1025 683 719 0
1025 -683 -719 0
-1026 954 0
-1026 493 0
1026 -954 -493 0
-1027 -198 -324 0
-1027 198 324 0
1027 198 -324 0
1027 -198 324 0
-1028 -786 333 0
-1028 786 -333 0
1028 786 333 0
1028 -786 -333 0
-1029 920 0
-1029 814 0
1029 -920 -814 0
-1030 -525 -878 0
-1030 525 878 0
1030 525 -878 0
1030 -525 878 0
-1031 620 -385 0
-1031 -620 385 0
1031 -620 -385 0
1031 620 385 0
-1032 701 0
-1032 545 0
1032 -701 -545 0
-1033 -122 -946 0
-1033 122 946 0
1033 122 -946 0
1033 -122 946 0
-1034 -548 -177 0
-1034 548 177 0
1034 548 -177 0
1034 -548 177 0
-1035 -357 -256 0
-1035 357 256 0
1035 357 -256 0
1035 -357 256 0
-1036 1013 588 0
-1036 -1013 -588 0
1036 -1013 588 0
1036 1013 -588 0
-1037 -285 0
-1037 861 0
1037 285 -861 0
-1038 239 -840 0
-1038 -239 840 0
1038 -239 -840 0
1038 239 840 0
-1039 -602 0
-1039 58 0
1039 602 -58 0
-1040 -420 0
-1040 -945 0
1040 420 945 0
-1041 149 -155 0
-1041 -149 155 0
1041 -149 -155 0
1041 149 155 0
-1042 965 -671 0
-1042 -965 671 0
1042 -965 -671 0
1042 965 671 0
-1043 -486 -953 0
-1043 486 953 0
1043 486 -953 0
1043 -486 953 0
-1044 -119 0
-1044 -821 0
1044 119 821 0
-1045 416 -194 0
-1045 -416 194 0
1045 -416 -194 0
1045 416 194 0
-1046 79 0
-1046 -102 0
1046 -79 102 0
-1047 2 -902 0
-1047 -2 902 0
1047 -2 -902 0
1047 2 902 0
-1048 614 0
-1048 823 0
1048 -614 -823 0
-1049 -42 421 0
-1049 42 -421 0
1049 42 421 0
1049 -42 -421 0
-1050 -929 -543 0
-1050 929 543 0
1050 929 -543 0
1050 -929 543 0
-1051 -817 -685 0
-1051 817 685 0
1051 817 -685 0
1051 -817 685 0
-1052 685 0
-1052 -304 0
1052 -685 304 0
-1053 482 97 0
-1053 -482 -97 0
1053 -482 97 0
1053 482 -97 0
-1054 -677 0
-1054 -439 0
1054 677 439 0
-1055 -373 557 0
-1055 373 -557 0
1055 373 557 0
1055 -373 -557 0
-1056 792 28 0
-1056 -792 -28 0
1056 -792 28 0
1056 792 -28 0
-1057 -952 -399 0
-1057 952 399 0
1057 952 -399 0
1057 -952 399 0
-1058 -980 0
-1058 60 0
1058 980 -60 0
-1059 611 -767 0
-1059 -611 767 0
1059 -611 -767 0
1059 611 767 0
-1060 -387 843 0
-1060 387 -843 0
1060 387 843 0
1060 -387 -843 0
-1061 -974 0
-1061 -500 0
1061 974 500 0
-1062 689 0
-1062 45 0
1062 -689 -45 0
-1063 339 0
-1063 501 0
1063 -339 -501 0
-1064 838 -660 0
-1064 -838 660 0
1064 -838 -660 0
1064 838 660 0
-1065 -107 0
-1065 -283 0
1065 107 283 0
-1066 851 -339 0
-1066 -851 339 0
1066 -851 -339 0
1066 851 339 0
-1067 -965 -889 0
-1067 965 889 0
1067 965 -889 0
1067 -965 889 0
-1068 558 10 0
-1068 -558 -10 0
1068 -558 10 0
1068 558 -10 0
-1069 50 -205 0
-1069 -50 205 0
1069 -50 -205 0
1069 50 205 0
-1070 714 -1026 0
-1070 -714 1026 0
1070 -714 -1026 0
1070 714 1026 0
-1071 -352 400 0
-1071 352 -400 0
1071 352 400 0
1071 -352 -400 0
-1072 759 -193 0
-1072 -759 193 0
1072 -759 -193 0
1072 759 193 0
-1073 -615 60 0
-1073 615 -60 0
1073 615 60 0
1073 -615 -60 0
-1074 124 756 0
-1074 -124 -756 0
1074 -124 756 0
1074 124 -756 0
-1075 698 -982 0
-1075 -698 982 0
1075 -698 -982 0
1075 698 982 0
-1076 172 0
-1076 -950 0
1076 -172 950 0
-1077 141 625 0
-1077 -141 -625 0
1077 -141 625 0
1077 141 -625 0
-1078 -117 0
-1078 502 0
1078 117 -502 0
-1079 -354 -574 0
-1079 354 574 0
1079 354 -574 0
1079 -354 574 0
-1080 384 -285 0
-1080 -384 285 0
1080 -384 -285 0
1080 384 285 0
-1081 1066 -806 0
-1081 -1066 806 0
1081 -1066 -806 0
1081 1066 806 0
-1082 520 -1035 0
-1082 -520 1035 0
1082 -520 -1035 0
1082 520 1035 0
-1083 740 -976 0
-1083 -740 976 0
1083 -740 -976 0
1083 740 976 0
-1084 -621 0
-1084 -749 0
1084 621 749 0
-1085 542 -139 0
-1085 -542 139 0
1085 -542 -139 0
1085 542 139 0
-1086 196 247 0
-1086 -196 -247 0
1086 -196 247 0
1086 196 -247 0
-1087 -765 -337 0
-1087 765 337 0
1087 765 -337 0
1087 -765 337 0
-1088 667 -471 0
-1088 -667 471 0
1088 -667 -471 0
1088 667 471 0
-1089 -931 207 0
-1089 931 -207 0
1089 931 207 0
1089 -931 -207 0
-1090 -417 -865 0
-1090 417 865 0
1090 417 -865 0
1090 -417 865 0
-1091 281 0
-1091 -71 0
1091 -281 71 0
-1092 536 -290 0
-1092 -536 290 0
1092 -536 -290 0
1092 536 290 0
-1093 947 0
-1093 871 0
1093 -947 -871 0
-1094 -778 5 0
-1094 778 -5 0
1094 778 5 0
1094 -778 -5 0
-1095 529 883 0
-1095 -529 -883 0
1095 -529 883 0
1095 529 -883 0
-1096 596 188 0
-1096 -596 -188 0
1096 -596 188 0
1096 596 -188 0
-1097 284 0
-1097 924 0
1097 -284 -924 0
-1098 -744 318 0
-1098 744 -318 0
1098 744 318 0
1098 -744 -318 0
-1099 -1042 146 0
-1099 1042 -146 0
1099 1042 146 0
1099 -1042 -146 0
-1100 -968 -1029 0
-1100 968 1029 0
1100 968 -1029 0
1100 -968 1029 0
-1101 319 0
-1101 778 0
1101 -319 -778 0
-1102 -1016 0
-1102 -1083 0
1102 1016 1083 0
-1103 -360 -158 0
-1103 360 158 0
1103 360 -158 0
1103 -360 158 0
-1104 590 -1069 0
-1104 -590 1069 0
1104 -590 -1069 0
1104 590 1069 0
-1105 1074 0
-1105 676 0
1105 -1074 -676 0
-1106 906 -199 0
-1106 -906 199 0
1106 -906 -199 0
1106 906 199 0
-1107 178 0
-1107 1104 0
1107 -178 -1104 0
-1108 243 -967 0
-1108 -243 967 0
1108 -243 -967 0
1108 243 967 0
-1109 -469 -262 0
-1109 469 262 0
1109 469 -262 0
1109 -469 262 0
-1110 -141 0
-1110 1076 0
1110 141 -1076 0
-1111 918 -331 0
-1111 -918 331 0
1111 -918 -331 0
1111 918 331 0
-1112 868 -251 0
-1112 -868 251 0
1112 -868 -251 0
1112 868 251 0
-1113 -163 -320 0
-1113 163 320 0
1113 163 -320 0
1113 -163 320 0
-1114 -86 -670 0
-1114 86 670 0
1114 86 -670 0
1114 -86 670 0
-1115 407 974 0
-1115 -407 -974 0
1115 -407 974 0
1115 407 -974 0
-1116 -798 549 0
-1116 798 -549 0
1116 798 549 0
1116 -798 -549 0
-1117 135 -1046 0
-1117 -135 1046 0
1117 -135 -1046 0
1117 135 1046 0
-1118 -699 1003 0
-1118 699 -1003 0
1118 699 1003 0
1118 -699 -1003 0
-1119 -748 532 0
-1119 748 -532 0
1119 748 532 0
1119 -748 -532 0
-1120 145 634 0
-1120 -145 -634 0
1120 -145 634 0
1120 145 -634 0
-1121 697 0
-1121 -47 0
1121 -697 47 0
-1122 -768 1082 0
-1122 768 -1082 0
1122 768 1082 0
1122 -768 -1082 0
-1123 -937 609 0
-1123 937 -609 0
1123 937 609 0
1123 -937 -609 0
-1124 950 -821 0
-1124 -950 821 0
1124 -950 -821 0
1124 950 821 0
-1125 1115 43 0
-1125 -1115 -43 0
1125 -1115 43 0
1125 1115 -43 0
-1126 1006 0
-1126 720 0
1126 -1006 -720 0
-1127 1089 -655 0
-1127 -1089 655 0
1127 -1089 -655 0
1127 1089 655 0
-1128 334 775 0
-1128 -334 -775 0
1128 -334 775 0
1128 334 -775 0
-1129 -55 0
-1129 205 0
1129 55 -205 0
-1130 -463 -944 0
-1130 463 944 0
1130 463 -944 0
1130 -463 944 0
-1131 285 -184 0
-1131 -285 184 0
1131 -285 -184 0
1131 285 184 0
-1132 975 1014 0
-1132 -975 -1014 0
1132 -975 1014 0
1132 975 -1014 0
-1133 -784 1021 0
-1133 784 -1021 0
1133 784 1021 0
1133 -784 -1021 0
-1134 -585 0
-1134 -672 0
1134 585 672 0
-1135 -163 637 0
-1135 163 -637 0
1135 163 637 0
1135 -163 -637 0
-1136 48 0
-1136 1075 0
1136 -48 -1075 0
-1137 9 -653 0
-1137 -9 653 0
1137 -9 -653 0
1137 9 653 0
-1138 -218 -975 0
-1138 218 975 0
1138 218 -975 0
1138 -218 975 0
-1139 -655 -275 0
-1139 655 275 0
1139 655 -275 0
1139 -655 275 0
-1140 398 885 0
-1140 -398 -885 0
1140 -398 885 0
1140 398 -885 0
-1141 148 -1117 0
-1141 -148 1117 0
1141 -148 -1117 0
1141 148 1117 0
-1142 -564 0
-1142 -158 0
1142 564 158 0
-1143 354 0
-1143 568 0
1143 -354 -568 0
-1144 661 0
-1144 -1076 0
1144 -661 1076 0
-1145 -306 855 0
-1145 306 -855 0
1145 306 855 0
1145 -306 -855 0
-1146 302 485 0
-1146 -302 -485 0
1146 -302 485 0
1146 302 -485 0
-1147 -401 0
-1147 -11 0
1147 401 11 0
-1148 -1028 315 0
-1148 1028 -315 0
1148 1028 315 0
1148 -1028 -315 0
-1149 322 -766 0
-1149 -322 766 0
1149 -322 -766 0
1149 322 766 0
-1150 -560 0
-1150 795 0
1150 560 -795 0
-1151 -254 101 0
-1151 254 -101 0
1151 254 101 0
1151 -254 -101 0
-1152 -723 -35 0
-1152 723 35 0
1152 723 -35 0
1152 -723 35 0
-1153 548 -52 0
-1153 -548 52 0
1153 -548 -52 0
1153 548 52 0
-1154 1134 -499 0
-1154 -1134 499 0
1154 -1134 -499 0
1154 1134 499 0
-1155 878 -485 0
-1155 -878 485 0
1155 -878 -485 0
1155 878 485 0
-1156 1075 -707 0
-1156 -1075 707 0
1156 -1075 -707 0
1156 1075 707 0
-1157 253 109 0
-1157 -253 -109 0
1157 -253 109 0
1157 253 -109 0
-1158 -509 -198 0
-1158 509 198 0
1158 509 -198 0
1158 -509 198 0
-1159 450 0
-1159 -305 0
1159 -450 305 0
-1160 127 -46 0
-1160 -127 46 0
1160 -127 -46 0
1160 127 46 0
-1161 310 -1010 0
-1161 -310 1010 0
1161 -310 -1010 0
1161 310 1010 0
-1162 -619 0
-1162 -564 0
1162 619 564 0
-1163 -318 0
-1163 754 0
1163 318 -754 0
-1164 -357 903 0
-1164 357 -903 0
1164 357 903 0
1164 -357 -903 0
-1165 -1005 -910 0
-1165 1005 910 0
1165 1005 -910 0
1165 -1005 910 0
-1166 146 0
-1166 -962 0
1166 -146 962 0
-1167 -48 -691 0
-1167 48 691 0
1167 48 -691 0
1167 -48 691 0
-1168 653 -306 0
-1168 -653 306 0
1168 -653 -306 0
1168 653 306 0
-1169 428 -281 0
-1169 -428 281 0
1169 -428 -281 0
1169 428 281 0
-1170 -398 -370 0
-1170 398 370 0
1170 398 -370 0
1170 -398 370 0
-1171 -49 0
-1171 766 0
1171 49 -766 0
-1172 165 0
-1172 366 0
1172 -165 -366 0
-1173 -630 0
-1173 773 0
1173 630 -773 0
-1174 176 -518 0
-1174 -176 518 0
1174 -176 -518 0
1174 176 518 0
-1175 -1146 -652 0
-1175 1146 652 0
1175 1146 -652 0
1175 -1146 652 0
-1176 -384 0
-1176 -1118 0
1176 384 1118 0
-1177 -1153 -1078 0
-1177 1153 1078 0
1177 1153 -1078 0
1177 -1153 1078 0
-1178 1080 -788 0
-1178 -1080 788 0
1178 -1080 -788 0
1178 1080 788 0
-1179 1152 0
-1179 829 0
1179 -1152 -829 0
-1180 -560 0
-1180 926 0
1180 560 -926 0
-1181 -247 536 0
-1181 247 -536 0
1181 247 536 0
1181 -247 -536 0
-1182 411 -9 0
-1182 -411 9 0
1182 -411 -9 0
1182 411 9 0
-1183 -835 -418 0
-1183 835 418 0
1183 835 -418 0
1183 -835 418 0
-1184 1107 0
-1184 -1100 0
1184 -1107 1100 0
-1185 721 -970 0
-1185 -721 970 0
1185 -721 -970 0
1185 721 970 0
-1186 -239 0
-1186 949 0
1186 239 -949 0
-1187 52 399 0
-1187 -52 -399 0
1187 -52 399 0
1187 52 -399 0
-1188 1097 0
-1188 -41 0
1188 -1097 41 0
-1189 -891 -698 0
-1189 891 698 0
1189 891 -698 0
1189 -891 698 0
-1190 -477 543 0
-1190 477 -543 0
1190 477 543 0
1190 -477 -543 0
-1191 109 -104 0
-1191 -109 104 0
1191 -109 -104 0
1191 109 104 0
-1192 302 -396 0
-1192 -302 396 0
1192 -302 -396 0
1192 302 396 0
-1193 1016 -741 0
-1193 -1016 741 0
1193 -1016 -741 0
1193 1016 741 0
-1194 -315 96 0
-1194 315 -96 0
1194 315 96 0
1194 -315 -96 0
-1195 169 0
-1195 -533 0
1195 -169 533 0
-1196 81 -300 0
-1196 -81 300 0
1196 -81 -300 0
1196 81 300 0
-1197 324 0
-1197 -944 0
1197 -324 944 0
-1198 641 -627 0
-1198 -641 627 0
1198 -641 -627 0
1198 641 627 0
-1199 1159 0
-1199 -1058 0
1199 -1159 1058 0
-1200 -310 623 0
-1200 310 -623 0
1200 310 623 0
1200 -310 -623 0
-1201 -368 620 0
-1201 368 -620 0
1201 368 620 0
1201 -368 -620 0
-1202 254 0
-1202 -525 0
1202 -254 525 0
-1203 720 -822 0
-1203 -720 822 0
1203 -720 -822 0
1203 720 822 0
-1204 782 1112 0
-1204 -782 -1112 0
1204 -782 1112 0
1204 782 -1112 0
-1205 84 -30 0
-1205 -84 30 0
1205 -84 -30 0
1205 84 30 0
-1206 -852 0
-1206 -132 0
1206 852 132 0
-1207 652 436 0
-1207 -652 -436 0
1207 -652 436 0
1207 652 -436 0
-1208 -781 561 0
-1208 781 -561 0
1208 781 561 0
1208 -781 -561 0
-1209 -520 0
-1209 141 0
1209 520 -141 0
-1210 -893 -979 0
-1210 893 979 0
1210 893 -979 0
1210 -893 979 0
-1211 -968 0
-1211 -683 0
1211 968 683 0
-1212 -382 0
-1212 -849 0
1212 382 849 0
-1213 -63 0
-1213 -321 0
1213 63 321 0
-1214 1005 985 0
-1214 -1005 -985 0
1214 -1005 985 0
1214 1005 -985 0
-1215 -1031 -427 0
-1215 1031 427 0
1215 1031 -427 0
1215 -1031 427 0
-1216 817 0
-1216 -81 0
1216 -817 81 0
-1217 -27 1080 0
-1217 27 -1080 0
1217 27 1080 0
1217 -27 -1080 0
-1218 -627 0
-1218 -829 0
1218 627 829 0
-1219 800 -63 0
-1219 -800 63 0
1219 -800 -63 0
1219 800 63 0
-1220 -5 564 0
-1220 5 -564 0
1220 5 564 0
1220 -5 -564 0
-1221 1177 635 0
-1221 -1177 -635 0
1221 -1177 635 0
1221 1177 -635 0
-1222 -79 -1085 0
-1222 79 1085 0
1222 79 -1085 0
1222 -79 1085 0
-1223 354 884 0
-1223 -354 -884 0
1223 -354 884 0
1223 354 -884 0
-1224 -553 -219 0
-1224 553 219 0
1224 553 -219 0
1224 -553 219 0
-1225 150 -130 0
-1225 -150 130 0
1225 -150 -130 0
1225 150 130 0
-1226 -205 -1041 0
-1226 205 1041 0
1226 205 -1041 0
1226 -205 1041 0
-1227 1025 571 0
-1227 -1025 -571 0
1227 -1025 571 0
1227 1025 -571 0
-1228 562 355 0
-1228 -562 -355 0
1228 -562 355 0
1228 562 -355 0
-1229 -762 0
-1229 -261 0
1229 762 261 0
-1230 1196 -292 0
-1230 -1196 292 0
1230 -1196 -292 0
1230 1196 292 0
-1231 -289 -277 0
-1231 289 277 0
1231 289 -277 0
1231 -289 277 0
-1232 105 -349 0
-1232 -105 349 0
1232 -105 -349 0
1232 105 349 0
-1233 -423 0
-1233 -1101 0
1233 423 1101 0
-1234 694 1028 0
-1234 -694 -1028 0
1234 -694 1028 0
1234 694 -1028 0
-1235 720 1083 0
-1235 -720 -1083 0
1235 -720 1083 0
1235 720 -1083 0
-1236 337 -120 0
-1236 -337 120 0
1236 -337 -120 0
1236 337 120 0
-1237 249 1002 0
-1237 -249 -1002 0
1237 -249 1002 0
1237 249 -1002 0
-1238 785 -605 0
-1238 -785 605 0
1238 -785 -605 0
1238 785 605 0
-1239 657 0
-1239 906 0
1239 -657 -906 0
-1240 939 295 0
-1240 -939 -295 0
1240 -939 295 0
1240 939 -295 0
-1241 -180 -177 0
-1241 180 177 0
1241 180 -177 0
1241 -180 177 0
-1242 1010 1186 0
-1242 -1010 -1186 0
1242 -1010 1186 0
1242 1010 -1186 0
-1243 477 1174 0
-1243 -477 -1174 0
1243 -477 1174 0
1243 477 -1174 0
-1244 14 755 0
-1244 -14 -755 0
1244 -14 755 0
1244 14 -755 0
-1245 89 0
-1245 -610 0
1245 -89 610 0
-1246 960 -1112 0
-1246 -960 1112 0
1246 -960 -1112 0
1246 960 1112 0
-1247 -1169 404 0
-1247 1169 -404 0
1247 1169 404 0
1247 -1169 -404 0
-1248 594 0
-1248 83 0
1248 -594 -83 0
-1249 -492 761 0
-1249 492 -761 0
1249 492 761 0
1249 -492 -761 0
-1250 150 -780 0
-1250 -150 780 0
1250 -150 -780 0
1250 150 780 0
-1251 855 864 0
-1251 -855 -864 0
1251 -855 864 0
1251 855 -864 0
-1252 -480 259 0
-1252 480 -259 0
1252 480 259 0
1252 -480 -259 0
-1253 1182 984 0
-1253 -1182 -984 0
1253 -1182 984 0
1253 1182 -984 0
-1254 720 -561 0
-1254 -720 561 0
1254 -720 -561 0
1254 720 561 0
-1255 1252 0
-1255 473 0
1255 -1252 -473 0
-1256 949 -318 0
-1256 -949 318 0
1256 -949 -318 0
1256 949 318 0
-1257 -1033 -129 0
-1257 1033 129 0
1257 1033 -129 0
1257 -1033 129 0
-1258 -777 0
-1258 -271 0
1258 777 271 0
-1259 892 699 0
-1259 -892 -699 0
1259 -892 699 0
1259 892 -699 0
-1260 776 0
-1260 578 0
1260 -776 -578 0
-1261 228 -594 0
-1261 -228 594 0
1261 -228 -594 0
1261 228 594 0
-1262 142 664 0
-1262 -142 -664 0
1262 -142 664 0
1262 142 -664 0
-1263 881 346 0
-1263 -881 -346 0
1263 -881 346 0
1263 881 -346 0
-1264 205 1252 0
-1264 -205 -1252 0
1264 -205 1252 0
1264 205 -1252 0
-1265 541 990 0
-1265 -541 -990 0
1265 -541 990 0
1265 541 -990 0
-1266 513 -921 0
-1266 -513 921 0
1266 -513 -921 0
1266 513 921 0
-1267 909 780 0
-1267 -909 -780 0
1267 -909 780 0
1267 909 -780 0
-1268 -582 -567 0
-1268 582 567 0
1268 582 -567 0
1268 -582 567 0
-1269 -1053 -134 0
-1269 1053 134 0
1269 1053 -134 0
1269 -1053 134 0
-1270 172 0
-1270 638 0
1270 -172 -638 0
-1271 1221 231 0
-1271 -1221 -231 0
1271 -1221 231 0
1271 1221 -231 0
-1272 1148 -1065 0
-1272 -1148 1065 0
1272 -1148 -1065 0
1272 1148 1065 0
-1273 603 -829 0
-1273 -603 829 0
1273 -603 -829 0
1273 603 829 0
-1274 -740 415 0
-1274 740 -415 0
1274 740 415 0
1274 -740 -415 0
-1275 -1222 -315 0
-1275 1222 315 0
1275 1222 -315 0
1275 -1222 315 0
-1276 1159 -828 0
-1276 -1159 828 0
1276 -1159 -828 0
1276 1159 828 0
-1277 914 0
-1277 -253 0
1277 -914 253 0
-1278 1098 -454 0
-1278 -1098 454 0
1278 -1098 -454 0
1278 1098 454 0
-1279 -741 -228 0
-1279 741 228 0
1279 741 -228 0
1279 -741 228 0
-1280 -139 0
-1280 791 0
1280 139 -791 0
-1281 162 1122 0
-1281 -162 -1122 0
1281 -162 1122 0
1281 162 -1122 0
-1282 -139 0
-1282 -59 0
1282 139 59 0
-1283 538 -132 0
-1283 -538 132 0
1283 -538 -132 0
1283 538 132 0
-1284 705 -851 0
-1284 -705 851 0
1284 -705 -851 0
1284 705 851 0
-1285 -1094 21 0
-1285 1094 -21 0
1285 1094 21 0
1285 -1094 -21 0
-1286 264 -495 0
-1286 -264 495 0
1286 -264 -495 0
1286 264 495 0
-1287 591 314 0
-1287 -591 -314 0
1287 -591 314 0
1287 591 -314 0
-1288 1169 0
-1288 -219 0
1288 -1169 219 0
-1289 -53 -554 0
-1289 53 554 0
1289 53 -554 0
1289 -53 554 0
-1290 -180 367 0
-1290 180 -367 0
1290 180 367 0
1290 -180 -367 0
-1291 779 774 0
-1291 -779 -774 0
1291 -779 774 0
1291 779 -774 0
-1292 -1004 14 0
-1292 1004 -14 0
1292 1004 14 0
1292 -1004 -14 0
-1293 -445 1284 0
-1293 445 -1284 0
1293 445 1284 0
1293 -445 -1284 0
-1294 -1158 0
-1294 -697 0
1294 1158 697 0
-1295 -852 0
-1295 644 0
1295 852 -644 0
-1296 -619 0
-1296 -1250 0
1296 619 1250 0
-1297 1242 -493 0
-1297 -1242 493 0
1297 -1242 -493 0
1297 1242 493 0
-1298 -57 1273 0
-1298 57 -1273 0
1298 57 1273 0
1298 -57 -1273 0
-1299 -585 -744 0
-1299 585 744 0
1299 585 -744 0
1299 -585 744 0
-1300 -14 0
-1300 -281 0
1300 14 281 0
-1301 -1194 1225 0
-1301 1194 -1225 0
1301 1194 1225 0
1301 -1194 -1225 0
-1302 276 1037 0
-1302 -276 -1037 0
1302 -276 1037 0
1302 276 -1037 0
-1303 948 -783 0
-1303 -948 783 0
1303 -948 -783 0
1303 948 783 0
-1304 793 -1007 0
-1304 -793 1007 0
1304 -793 -1007 0
1304 793 1007 0
-1305 14 -1194 0
-1305 -14 1194 0
1305 -14 -1194 0
1305 14 1194 0
-1306 -173 0
-1306 -84 0
1306 173 84 0
-1307 631 -1282 0
-1307 -631 1282 0
1307 -631 -1282 0
1307 631 1282 0
-1308 -1223 951 0
-1308 1223 -951 0
1308 1223 951 0
1308 -1223 -951 0
-1309 489 614 0
-1309 -489 -614 0
1309 -489 614 0
1309 489 -614 0
-1310 407 -145 0
-1310 -407 145 0
1310 -407 -145 0
1310 407 145 0
-1311 -628 583 0
-1311 628 -583 0
1311 628 583 0
1311 -628 -583 0
-1312 357 463 0
-1312 -357 -463 0
1312 -357 463 0
1312 357 -463 0
-1313 251 -912 0
-1313 -251 912 0
1313 -251 -912 0
1313 251 912 0
-1314 728 0
-1314 -389 0
1314 -728 389 0
-1315 -573 219 0
-1315 573 -219 0
1315 573 219 0
1315 -573 -219 0
-1316 501 809 0
-1316 -501 -809 0
1316 -501 809 0
1316 501 -809 0
-1317 265 -1019 0
-1317 -265 1019 0
1317 -265 -1019 0
1317 265 1019 0
-1318 1039 0
-1318 -535 0
1318 -1039 535 0
-1319 118 681 0
-1319 -118 -681 0
1319 -118 681 0
1319 118 -681 0
-1320 -209 0
-1320 868 0
1320 209 -868 0
-1321 542 -1296 0
-1321 -542 1296 0
1321 -542 -1296 0
1321 542 1296 0
-1322 751 804 0
-1322 -751 -804 0
1322 -751 804 0
1322 751 -804 0
-1323 -559 -279 0
-1323 559 279 0
1323 559 -279 0
1323 -559 279 0
-1324 655 -304 0
-1324 -655 304 0
1324 -655 -304 0
1324 655 304 0
-1325 -607 -1317 0
-1325 607 1317 0
1325 607 -1317 0
1325 -607 1317 0
-1326 -772 0
-1326 809 0
1326 772 -809 0
-1327 -387 633 0
-1327 387 -633 0
1327 387 633 0
1327 -387 -633 0
-1328 48 0
-1328 -155 0
1328 -48 155 0
-1329 164 -1135 0
-1329 -164 1135 0
1329 -164 -1135 0
1329 164 1135 0
-1330 997 -564 0
-1330 -997 564 0
1330 -997 -564 0
1330 997 564 0
-1331 393 824 0
-1331 -393 -824 0
1331 -393 824 0
1331 393 -824 0
-1332 -2 -215 0
-1332 2 215 0
1332 2 -215 0
1332 -2 215 0
-1333 -1127 736 0
-1333 1127 -736 0
1333 1127 736 0
1333 -1127 -736 0
-1334 -322 0
-1334 902 0
1334 322 -902 0
-1335 297 185 0
-1335 -297 -185 0
1335 -297 185 0
1335 297 -185 0
-1336 791 1050 0
-1336 -791 -1050 0
1336 -791 1050 0
1336 791 -1050 0
-1337 -941 885 0
-1337 941 -885 0
1337 941 885 0
1337 -941 -885 0
-1338 -1283 -153 0
-1338 1283 153 0
1338 1283 -153 0
1338 -1283 153 0
-1339 -380 -202 0
-1339 380 202 0
1339 380 -202 0
1339 -380 202 0
-1340 324 1229 0
-1340 -324 -1229 0
1340 -324 1229 0
1340 324 -1229 0
-1341 209 0
-1341 -221 0
1341 -209 221 0
-1342 163 552 0
-1342 -163 -552 0
1342 -163 552 0
1342 163 -552 0
-1343 -438 1145 0
-1343 438 -1145 0
1343 438 1145 0
1343 -438 -1145 0
-1344 1205 0
-1344 926 0
1344 -1205 -926 0
-1345 1306 -911 0
-1345 -1306 911 0
1345 -1306 -911 0
1345 1306 911 0
-1346 248 1003 0
-1346 -248 -1003 0
1346 -248 1003 0
1346 248 -1003 0
-1347 -940 0
-1347 24 0
1347 940 -24 0
-1348 685 0
-1348 1040 0
1348 -685 -1040 0
-1349 -746 -1118 0
-1349 746 1118 0
1349 746 -1118 0
1349 -746 1118 0
-1350 -610 0
-1350 -74 0
1350 610 74 0
-1351 949 0
-1351 655 0
1351 -949 -655 0
-1352 -297 0
-1352 -952 0
1352 297 952 0
-1353 -1232 -832 0
-1353 1232 832 0
1353 1232 -832 0
1353 -1232 832 0
-1354 449 276 0
-1354 -449 -276 0
1354 -449 276 0
1354 449 -276 0
-1355 -850 1218 0
-1355 850 -1218 0
1355 850 1218 0
1355 -850 -1218 0
-1356 738 0
-1356 171 0
1356 -738 -171 0
-1357 1327 -994 0
-1357 -1327 994 0
1357 -1327 -994 0
1357 1327 994 0
-1358 -1185 647 0
-1358 1185 -647 0
1358 1185 647 0
1358 -1185 -647 0
-1359 -138 323 0
-1359 138 -323 0
1359 138 323 0
1359 -138 -323 0
-1360 -149 -190 0
-1360 149 190 0
1360 149 -190 0
1360 -149 190 0
-1361 259 -1257 0
-1361 -259 1257 0
1361 -259 -1257 0
1361 259 1257 0
-1362 -334 -1241 0
-1362 334 1241 0
1362 334 -1241 0
1362 -334 1241 0
-1363 -1261 -1335 0
-1363 1261 1335 0
1363 1261 -1335 0
1363 -1261 1335 0
-1364 1270 833 0
-1364 -1270 -833 0
1364 -1270 833 0
1364 1270 -833 0
-1365 926 -428 0
-1365 -926 428 0
1365 -926 -428 0
1365 926 428 0
-1366 282 -1161 0
-1366 -282 1161 0
1366 -282 -1161 0
1366 282 1161 0
-1367 -973 -340 0
-1367 973 340 0
1367 973 -340 0
1367 -973 340 0
-1368 -142 870 0
-1368 142 -870 0
1368 142 870 0
1368 -142 -870 0
-1369 217 0
-1369 63 0
1369 -217 -63 0
-1370 -780 -482 0
-1370 780 482 0
1370 780 -482 0
1370 -780 482 0
-1371 -748 -171 0
-1371 748 171 0
1371 748 -171 0
1371 -748 171 0
-1372 -792 0
-1372 -1236 0
1372 792 1236 0
-1373 311 -584 0
-1373 -311 584 0
1373 -311 -584 0
1373 311 584 0
-1374 -434 0
-1374 -245 0
1374 434 245 0
-1375 -906 1036 0
-1375 906 -1036 0
1375 906 1036 0
1375 -906 -1036 0
-1376 877 -917 0
-1376 -877 917 0
1376 -877 -917 0
1376 877 917 0
-1377 -305 0
-1377 807 0
1377 305 -807 0
-1378 10 -1134 0
-1378 -10 1134 0
1378 -10 -1134 0
1378 10 1134 0
-1379 -1223 -725 0
-1379 1223 725 0
1379 1223 -725 0
1379 -1223 725 0
-1380 -289 303 0
-1380 289 -303 0
1380 289 303 0
1380 -289 -303 0
-1381 -52 -790 0
-1381 52 790 0
1381 52 -790 0
1381 -52 790 0
-1382 586 190 0
-1382 -586 -190 0
1382 -586 190 0
1382 586 -190 0
-1383 451 0
-1383 -447 0
1383 -451 447 0
-1384 593 -120 0
-1384 -593 120 0
1384 -593 -120 0
1384 593 120 0
-1385 -946 -633 0
-1385 946 633 0
1385 946 -633 0
1385 -946 633 0
-1386 405 782 0
-1386 -405 -782 0
1386 -405 782 0
1386 405 -782 0
-1387 -177 0
-1387 -766 0
1387 177 766 0
-1388 -792 1231 0
-1388 792 -1231 0
1388 792 1231 0
1388 -792 -1231 0
-1389 1079 0
-1389 -255 0
1389 -1079 255 0
-1390 -852 66 0
-1390 852 -66 0
1390 852 66 0
1390 -852 -66 0
-1391 -868 -1277 0
-1391 868 1277 0
1391 868 -1277 0
1391 -868 1277 0
-1392 1147 1210 0
-1392 -1147 -1210 0
1392 -1147 1210 0
1392 1147 -1210 0
-1393 577 757 0
-1393 -577 -757 0
1393 -577 757 0
1393 577 -757 0
-1394 -469 724 0
-1394 469 -724 0
1394 469 724 0
1394 -469 -724 0
-1395 -626 0
-1395 -773 0
1395 626 773 0
-1396 -823 0
-1396 -375 0
1396 823 375 0
-1397 -987 1202 0
-1397 987 -1202 0
1397 987 1202 0
1397 -987 -1202 0
-1398 -1111 1268 0
-1398 1111 -1268 0
1398 1111 1268 0
1398 -1111 -1268 0
-1399 -317 -702 0
-1399 317 702 0
1399 317 -702 0
1399 -317 702 0
-1400 543 1098 0
-1400 -543 -1098 0
1400 -543 1098 0
1400 543 -1098 0
-1401 666 957 0
-1401 -666 -957 0
1401 -666 957 0
1401 666 -957 0
-1402 -1144 -1313 0
-1402 1144 1313 0
1402 1144 -1313 0
1402 -1144 1313 0
-1403 -693 -1232 0
-1403 693 1232 0
1403 693 -1232 0
1403 -693 1232 0
-1404 287 0
-1404 -1181 0
1404 -287 1181 0
-1405 -519 0
-1405 -22 0
1405 519 22 0
-1406 -1233 -450 0
-1406 1233 450 0
1406 1233 -450 0
1406 -1233 450 0
-1407 636 0
-1407 -477 0
1407 -636 477 0
-1408 -162 0
-1408 961 0
1408 162 -961 0
-1409 -186 954 0
-1409 186 -954 0
1409 186 954 0
1409 -186 -954 0
-1410 246 -989 0
-1410 -246 989 0
1410 -246 -989 0
1410 246 989 0
-1411 -1077 -668 0
-1411 1077 668 0
1411 1077 -668 0
1411 -1077 668 0
-1412 863 -614 0
-1412 -863 614 0
1412 -863 -614 0
1412 863 614 0
-1413 1398 0
-1413 812 0
1413 -1398 -812 0
-1414 -1211 -1262 0
-1414 1211 1262 0
1414 1211 -1262 0
1414 -1211 1262 0
-1415 759 0
-1415 -960 0
1415 -759 960 0
-1416 1157 0
-1416 -289 0
1416 -1157 289 0
-1417 794 655 0
-1417 -794 -655 0
1417 -794 655 0
1417 794 -655 0
-1418 -100 1236 0
-1418 100 -1236 0
1418 100 1236 0
1418 -100 -1236 0
-1419 -465 -1095 0
-1419 465 1095 0
1419 465 -1095 0
1419 -465 1095 0
-1420 183 -981 0
-1420 -183 981 0
1420 -183 -981 0
1420 183 981 0
-1421 851 -849 0
-1421 -851 849 0
1421 -851 -849 0
1421 851 849 0
-1422 359 1357 0
-1422 -359 -1357 0
1422 -359 1357 0
1422 359 -1357 0
-1423 1351 -1385 0
-1423 -1351 1385 0
1423 -1351 -1385 0
1423 1351 1385 0
-1424 387 -1205 0
-1424 -387 1205 0
1424 -387 -1205 0
1424 387 1205 0
-1425 -254 424 0
-1425 254 -424 0
1425 254 424 0
1425 -254 -424 0
-1426 -169 -265 0
-1426 169 265 0
1426 169 -265 0
1426 -169 265 0
-1427 -1413 -612 0
-1427 1413 612 0
1427 1413 -612 0
1427 -1413 612 0
-1428 62 1195 0
-1428 -62 -1195 0
1428 -62 1195 0
1428 62 -1195 0
-1429 748 -918 0
-1429 -748 918 0
1429 -748 -918 0
1429 748 918 0
-1430 535 0
-1430 -899 0
1430 -535 899 0
-1431 968 1267 0
-1431 -968 -1267 0
1431 -968 1267 0
1431 968 -1267 0
-1432 363 -1017 0
-1432 -363 1017 0
1432 -363 -1017 0
1432 363 1017 0
-1433 1168 833 0
-1433 -1168 -833 0
1433 -1168 833 0
1433 1168 -833 0
-1434 588 -901 0
-1434 -588 901 0
1434 -588 -901 0
1434 588 901 0
-1435 -833 486 0
-1435 833 -486 0
1435 833 486 0
1435 -833 -486 0
-1436 -311 0
-1436 -1294 0
1436 311 1294 0
-1437 110 750 0
-1437 -110 -750 0
1437 -110 750 0
1437 110 -750 0
-1438 -360 459 0
-1438 360 -459 0
1438 360 459 0
1438 -360 -459 0
-1439 -299 -776 0
-1439 299 776 0
1439 299 -776 0
1439 -299 776 0
-1440 -704 -818 0
-1440 704 818 0
1440 704 -818 0
1440 -704 818 0
-1441 -211 -919 0
-1441 211 919 0
1441 211 -919 0
1441 -211 919 0
-1442 -289 1036 0
-1442 289 -1036 0
1442 289 1036 0
1442 -289 -1036 0
-1443 537 890 0
-1443 -537 -890 0
1443 -537 890 0
1443 537 -890 0
-1444 532 -96 0
-1444 -532 96 0
1444 -532 -96 0
1444 532 96 0
-1445 -951 -271 0
-1445 951 271 0
1445 951 -271 0
1445 -951 271 0
-1446 1317 0
-1446 829 0
1446 -1317 -829 0
-1447 351 0
-1447 157 0
1447 -351 -157 0
-1448 1358 -1050 0
-1448 -1358 1050 0
1448 -1358 -1050 0
1448 1358 1050 0
-1449 -692 885 0
-1449 692 -885 0
1449 692 885 0
1449 -692 -885 0
-1450 -836 504 0
-1450 836 -504 0
1450 836 504 0
1450 -836 -504 0
-1451 -833 1226 0
-1451 833 -1226 0
1451 833 1226 0
1451 -833 -1226 0
-1452 -1236 144 0
-1452 1236 -144 0
1452 1236 144 0
1452 -1236 -144 0
-1453 729 -744 0
-1453 -729 744 0
1453 -729 -744 0
1453 729 744 0
-1454 1265 0
-1454 1029 0
1454 -1265 -1029 0
-1455 296 938 0
-1455 -296 -938 0
1455 -296 938 0
1455 296 -938 0
-1456 -1091 -866 0
-1456 1091 866 0
1456 1091 -866 0
1456 -1091 866 0
-1457 1401 1397 0
-1457 -1401 -1397 0
1457 -1401 1397 0
1457 1401 -1397 0
-1458 -904 324 0
-1458 904 -324 0
1458 904 324 0
1458 -904 -324 0
-1459 -668 139 0
-1459 668 -139 0
1459 668 139 0
1459 -668 -139 0
-1460 954 355 0
-1460 -954 -355 0
1460 -954 355 0
1460 954 -355 0
-1461 -895 0
-1461 988 0
1461 895 -988 0
-1462 -6 -793 0
-1462 6 793 0
1462 6 -793 0
1462 -6 793 0
-1463 191 0
-1463 517 0
1463 -191 -517 0
-1464 682 -978 0
-1464 -682 978 0
1464 -682 -978 0
1464 682 978 0
-1465 -84 -1158 0
-1465 84 1158 0
1465 84 -1158 0
1465 -84 1158 0
-1466 472 -109 0
-1466 -472 109 0
1466 -472 -109 0
1466 472 109 0
-1467 757 485 0
-1467 -757 -485 0
1467 -757 485 0
1467 757 -485 0
-1468 -939 716 0
-1468 939 -716 0
1468 939 716 0
1468 -939 -716 0
-1469 1260 282 0
-1469 -1260 -282 0
1469 -1260 282 0
1469 1260 -282 0
-1470 1291 710 0
-1470 -1291 -710 0
1470 -1291 710 0
1470 1291 -710 0
-1471 215 -1054 0
-1471 -215 1054 0
1471 -215 -1054 0
1471 215 1054 0
-1472 697 0
-1472 596 0
1472 -697 -596 0
-1473 1333 0
-1473 -784 0
1473 -1333 784 0
-1474 -114 0
-1474 885 0
1474 114 -885 0
-1475 -69 -683 0
-1475 69 683 0
1475 69 -683 0
1475 -69 683 0
-1476 -1005 273 0
-1476 1005 -273 0
1476 1005 273 0
1476 -1005 -273 0
-1477 40 -1159 0
-1477 -40 1159 0
1477 -40 -1159 0
1477 40 1159 0
-1478 1171 1191 0
-1478 -1171 -1191 0
1478 -1171 1191 0
1478 1171 -1191 0
-1479 1334 327 0
-1479 -1334 -327 0
1479 -1334 327 0
1479 1334 -327 0
-1480 -985 -888 0
-1480 985 888 0
1480 985 -888 0
1480 -985 888 0
-1481 1144 -1055 0
-1481 -1144 1055 0
1481 -1144 -1055 0
1481 1144 1055 0
-1482 -307 0
-1482 987 0
1482 307 -987 0
-1483 1123 0
-1483 264 0
1483 -1123 -264 0
-1484 962 -541 0
-1484 -962 541 0
1484 -962 -541 0
1484 962 541 0
-1485 -141 990 0
-1485 141 -990 0
1485 141 990 0
1485 -141 -990 0
-1486 1305 0
-1486 733 0
1486 -1305 -733 0
-1487 -291 -1191 0
-1487 291 1191 0
1487 291 -1191 0
1487 -291 1191 0
-1488 1248 0
-1488 -383 0
1488 -1248 383 0
-1489 275 -645 0
-1489 -275 645 0
1489 -275 -645 0
1489 275 645 0
-1490 -1073 12 0
-1490 1073 -12 0
1490 1073 12 0
1490 -1073 -12 0
-1491 71 0
-1491 284 0
1491 -71 -284 0
-1492 801 -965 0
-1492 -801 965 0
1492 -801 -965 0
1492 801 965 0
-1493 1447 53 0
-1493 -1447 -53 0
1493 -1447 53 0
1493 1447 -53 0
-1494 -1364 1101 0
-1494 1364 -1101 0
1494 1364 1101 0
1494 -1364 -1101 0
-1495 -1111 -1411 0
-1495 1111 1411 0
1495 1111 -1411 0
1495 -1111 1411 0
-1496 -820 -879 0
-1496 820 879 0
1496 820 -879 0
1496 -820 879 0
-1497 -1096 0
-1497 -566 0
1497 1096 566 0
-1498 849 0
-1498 477 0
1498 -849 -477 0
-1499 77 765 0
-1499 -77 -765 0
1499 -77 765 0
1499 77 -765 0
-1500 1020 -1288 0
-1500 -1020 1288 0
1500 -1020 -1288 0
1500 1020 1288 0
-1501 -1356 233 0
-1501 1356 -233 0
1501 1356 233 0
1501 -1356 -233 0
-1502 547 985 0
-1502 -547 -985 0
1502 -547 985 0
1502 547 -985 0
-1503 1334 0
-1503 -653 0
1503 -1334 653 0
-1504 1199 0
-1504 -538 0
1504 -1199 538 0
-1505 -1387 1171 0
-1505 1387 -1171 0
1505 1387 1171 0
1505 -1387 -1171 0
-1506 -839 0
-1506 -611 0
1506 839 611 0
-1507 -574 -1141 0
-1507 574 1141 0
1507 574 -1141 0
1507 -574 1141 0
-1508 -402 0
-1508 904 0
1508 402 -904 0
-1509 114 347 0
-1509 -114 -347 0
1509 -114 347 0
1509 114 -347 0
-1510 215 -719 0
-1510 -215 719 0
1510 -215 -719 0
1510 215 719 0
-1511 1480 815 0
-1511 -1480 -815 0
1511 -1480 815 0
1511 1480 -815 0
-1512 -1139 0
-1512 -107 0
1512 1139 107 0
-1513 1468 0
-1513 157 0
1513 -1468 -157 0
-1514 -212 -908 0
-1514 212 908 0
1514 212 -908 0
1514 -212 908 0
-1515 1403 0
-1515 399 0
1515 -1403 -399 0
-1516 -1264 0
-1516 -73 0
1516 1264 73 0
-1517 -1418 -763 0
-1517 1418 763 0
1517 1418 -763 0
1517 -1418 763 0
-1518 -738 0
-1518 1435 0
1518 738 -1435 0
-1519 -1171 -1163 0
-1519 1171 1163 0
1519 1171 -1163 0
1519 -1171 1163 0
-1520 -1506 0
-1520 985 0
1520 1506 -985 0
-1521 -883 -1406 0
-1521 883 1406 0
1521 883 -1406 0
1521 -883 1406 0
-1522 -210 1230 0
-1522 210 -1230 0
1522 210 1230 0
1522 -210 -1230 0
-1523 -1019 777 0
-1523 1019 -777 0
1523 1019 777 0
1523 -1019 -777 0
-1524 1510 -135 0
-1524 -1510 135 0
1524 -1510 -135 0
1524 1510 135 0
-1525 -378 726 0
-1525 378 -726 0
1525 378 726 0
1525 -378 -726 0
-1526 -611 -768 0
-1526 611 768 0
1526 611 -768 0
1526 -611 768 0
-1527 80 -1319 0
-1527 -80 1319 0
1527 -80 -1319 0
1527 80 1319 0
-1528 1023 1457 0
-1528 -1023 -1457 0
1528 -1023 1457 0
1528 1023 -1457 0
-1529 -1255 1157 0
-1529 1255 -1157 0
1529 1255 1157 0
1529 -1255 -1157 0
-1530 -1305 984 0
-1530 1305 -984 0
1530 1305 984 0
1530 -1305 -984 0
-1531 1498 870 0
-1531 -1498 -870 0
1531 -1498 870 0
1531 1498 -870 0
-1532 -51 -967 0
-1532 51 967 0
1532 51 -967 0
1532 -51 967 0
-1533 -1095 0
-1533 -160 0
1533 1095 160 0
-1534 1002 -22 0
-1534 -1002 22 0
1534 -1002 -22 0
1534 1002 22 0
-1535 -542 740 0
-1535 542 -740 0
1535 542 740 0
1535 -542 -740 0
-1536 -651 0
-1536 -1421 0
1536 651 1421 0
-1537 506 1230 0
-1537 -506 -1230 0
1537 -506 1230 0
1537 506 -1230 0
-1538 -434 0
-1538 -683 0
1538 434 683 0
-1539 -1172 1141 0
-1539 1172 -1141 0
1539 1172 1141 0
1539 -1172 -1141 0
-1540 -436 -1307 0
-1540 436 1307 0
1540 436 -1307 0
1540 -436 1307 0
-1541 684 831 0
-1541 -684 -831 0
1541 -684 831 0
1541 684 -831 0
-1542 -472 0
-1542 1381 0
1542 472 -1381 0
-1543 -1006 0
-1543 -767 0
1543 1006 767 0
-1544 -75 0
-1544 1418 0
1544 75 -1418 0
-1545 1151 0
-1545 1277 0
1545 -1151 -1277 0
-1546 -353 -299 0
-1546 353 299 0
1546 353 -299 0
1546 -353 299 0
-1547 406 -658 0
-1547 -406 658 0
1547 -406 -658 0
1547 406 658 0
-1548 -1007 1455 0
-1548 1007 -1455 0
1548 1007 1455 0
1548 -1007 -1455 0
-1549 1477 -791 0
-1549 -1477 791 0
1549 -1477 -791 0
1549 1477 791 0
-1550 885 430 0
-1550 -885 -430 0
1550 -885 430 0
1550 885 -430 0
-1551 1307 -160 0
-1551 -1307 160 0
1551 -1307 -160 0
1551 1307 160 0
-1552 314 -596 0
-1552 -314 596 0
1552 -314 -596 0
1552 314 596 0
-1553 -186 -783 0
-1553 186 783 0
1553 186 -783 0
1553 -186 783 0
-1554 210 -22 0
-1554 -210 22 0
1554 -210 -22 0
1554 210 22 0
-1555 -33 161 0
-1555 33 -161 0
1555 33 161 0
1555 -33 -161 0
-1556 -758 0
-1556 979 0
1556 758 -979 0
-1557 -496 -157 0
-1557 496 157 0
1557 496 -157 0
1557 -496 157 0
-1558 1428 0
-1558 1543 0
1558 -1428 -1543 0
-1559 -1043 -1107 0
-1559 1043 1107 0
1559 1043 -1107 0
1559 -1043 1107 0
-1560 319 0
-1560 734 0
1560 -319 -734 0
-1561 -725 -1306 0
-1561 725 1306 0
1561 725 -1306 0
1561 -725 1306 0
-1562 1278 0
-1562 -1290 0
1562 -1278 1290 0
-1563 909 -420 0
-1563 -909 420 0
1563 -909 -420 0
1563 909 420 0
-1564 -1287 246 0
-1564 1287 -246 0
1564 1287 246 0
1564 -1287 -246 0
-1565 -82 0
-1565 -702 0
1565 82 702 0
-1566 923 0
-1566 716 0
1566 -923 -716 0
-1567 -1046 -1115 0
-1567 1046 1115 0
1567 1046 -1115 0
1567 -1046 1115 0
-1568 399 -1258 0
-1568 -399 1258 0
1568 -399 -1258 0
1568 399 1258 0
-1569 -896 162 0
-1569 896 -162 0
1569 896 162 0
1569 -896 -162 0
-1570 312 16 0
-1570 -312 -16 0
1570 -312 16 0
1570 312 -16 0
-1571 181 0
-1571 -23 0
1571 -181 23 0
-1572 -989 69 0
-1572 989 -69 0
1572 989 69 0
1572 -989 -69 0
-1573 892 0
-1573 1024 0
1573 -892 -1024 0
-1574 47 -863 0
-1574 -47 863 0
1574 -47 -863 0
1574 47 863 0
-1575 -387 -1017 0
-1575 387 1017 0
1575 387 -1017 0
1575 -387 1017 0
-1576 -1190 -179 0
-1576 1190 179 0
1576 1190 -179 0
1576 -1190 179 0
-1577 -485 0
-1577 739 0
1577 485 -739 0
-1578 6 -1573 0
-1578 -6 1573 0
1578 -6 -1573 0
1578 6 1573 0
-1579 1440 -1443 0
-1579 -1440 1443 0
1579 -1440 -1443 0
1579 1440 1443 0
-1580 611 -876 0
-1580 -611 876 0
1580 -611 -876 0
1580 611 876 0
-1581 -1372 -258 0
-1581 1372 258 0
1581 1372 -258 0
1581 -1372 258 0
-1582 352 -1102 0
-1582 -352 1102 0
1582 -352 -1102 0
1582 352 1102 0
-1583 356 -337 0
-1583 -356 337 0
1583 -356 -337 0
1583 356 337 0
-1584 353 -147 0
-1584 -353 147 0
1584 -353 -147 0
1584 353 147 0
-1585 -1122 0
-1585 59 0
1585 1122 -59 0
-1586 387 -188 0
-1586 -387 188 0
1586 -387 -188 0
1586 387 188 0
-1587 -1096 -434 0
-1587 1096 434 0
1587 1096 -434 0
1587 -1096 434 0
-1588 740 -351 0
-1588 -740 351 0
1588 -740 -351 0
1588 740 351 0
-1589 -157 744 0
-1589 157 -744 0
1589 157 744 0
1589 -157 -744 0
-1590 -1009 0
-1590 -390 0
1590 1009 390 0
-1591 -118 -787 0
-1591 118 787 0
1591 118 -787 0
1591 -118 787 0
-1592 671 -1315 0
-1592 -671 1315 0
1592 -671 -1315 0
1592 671 1315 0
-1593 594 0
-1593 -1549 0
1593 -594 1549 0
-1594 -668 0
-1594 515 0
1594 668 -515 0
-1595 1368 0
-1595 1353 0
1595 -1368 -1353 0
-1596 -567 0
-1596 -977 0
1596 567 977 0
-1597 -415 0
-1597 343 0
1597 415 -343 0
-1598 -617 1177 0
-1598 617 -1177 0
1598 617 1177 0
1598 -617 -1177 0
-1599 458 786 0
-1599 -458 -786 0
1599 -458 786 0
1599 458 -786 0
-1600 -612 282 0
-1600 612 -282 0
1600 612 282 0
1600 -612 -282 0
-1601 -216 0
-1601 1577 0
1601 216 -1577 0
-1602 968 -995 0
-1602 -968 995 0
1602 -968 -995 0
1602 968 995 0
-1603 -1485 -9 0
-1603 1485 9 0
1603 1485 -9 0
1603 -1485 9 0
-1604 363 -995 0
-1604 -363 995 0
1604 -363 -995 0
1604 363 995 0
-1605 -326 0
-1605 1346 0
1605 326 -1346 0
-1606 -627 0
-1606 704 0
1606 627 -704 0
-1607 -166 0
-1607 -508 0
1607 166 508 0
-1608 930 -1086 0
-1608 -930 1086 0
1608 -930 -1086 0
1608 930 1086 0
-1609 -1373 -741 0
-1609 1373 741 0
1609 1373 -741 0
1609 -1373 741 0
-1610 902 -1089 0
-1610 -902 1089 0
1610 -902 -1089 0
1610 902 1089 0
-1611 202 108 0
-1611 -202 -108 0
1611 -202 108 0
1611 202 -108 0
-1612 -1562 397 0
-1612 1562 -397 0
1612 1562 397 0
1612 -1562 -397 0
-1613 1079 -739 0
-1613 -1079 739 0
1613 -1079 -739 0
1613 1079 739 0
-1614 564 0
-1614 -22 0
1614 -564 22 0
-1615 -1064 654 0
-1615 1064 -654 0
1615 1064 654 0
1615 -1064 -654 0
-1616 -1180 0
-1616 1471 0
1616 1180 -1471 0
-1617 -250 757 0
-1617 250 -757 0
1617 250 757 0
1617 -250 -757 0
-1618 -1616 136 0
-1618 1616 -136 0
1618 1616 136 0
1618 -1616 -136 0
-1619 1615 -1425 0
-1619 -1615 1425 0
1619 -1615 -1425 0
1619 1615 1425 0
-1620 886 -709 0
-1620 -886 709 0
1620 -886 -709 0
1620 886 709 0
-1621 1343 0
-1621 183 0
1621 -1343 -183 0
-1622 -1242 -1049 0
-1622 1242 1049 0
1622 1242 -1049 0
1622 -1242 1049 0
-1623 1358 -1232 0
-1623 -1358 1232 0
1623 -1358 -1232 0
1623 1358 1232 0
-1624 528 711 0
-1624 -528 -711 0
1624 -528 711 0
1624 528 -711 0
-1625 1405 494 0
-1625 -1405 -494 0
1625 -1405 494 0
1625 1405 -494 0
-1626 -34 -113 0
-1626 34 113 0
1626 34 -113 0
1626 -34 113 0
-1627 -1107 1539 0
-1627 1107 -1539 0
1627 1107 1539 0
1627 -1107 -1539 0
-1628 1050 0
-1628 169 0
1628 -1050 -169 0
-1629 -424 -2 0
-1629 424 2 0
1629 424 -2 0
1629 -424 2 0
-1630 -103 1490 0
-1630 103 -1490 0
1630 103 1490 0
1630 -103 -1490 0
-1631 1320 0
-1631 -1030 0
1631 -1320 1030 0
-1632 1268 1305 0
-1632 -1268 -1305 0
1632 -1268 1305 0
1632 1268 -1305 0
-1633 1508 0
-1633 444 0
1633 -1508 -444 0
-1634 375 -262 0
-1634 -375 262 0
1634 -375 -262 0
1634 375 262 0
-1635 -612 0
-1635 -1441 0
1635 612 1441 0
-1636 -195 236 0
-1636 195 -236 0
1636 195 236 0
1636 -195 -236 0
-1637 645 0
-1637 -839 0
1637 -645 839 0
-1638 183 560 0
-1638 -183 -560 0
1638 -183 560 0
1638 183 -560 0
-1639 -597 -1207 0
-1639 597 1207 0
1639 597 -1207 0
1639 -597 1207 0
-1640 -334 -629 0
-1640 334 629 0
1640 334 -629 0
1640 -334 629 0
-1641 -239 1543 0
-1641 239 -1543 0
1641 239 1543 0
1641 -239 -1543 0
-1642 -143 -841 0
-1642 143 841 0
1642 143 -841 0
1642 -143 841 0
-1643 841 125 0
-1643 -841 -125 0
1643 -841 125 0
1643 841 -125 0
-1644 -834 416 0
-1644 834 -416 0
1644 834 416 0
1644 -834 -416 0
-1645 1305 0
-1645 -1452 0
1645 -1305 1452 0
-1646 -1280 -1564 0
-1646 1280 1564 0
1646 1280 -1564 0
1646 -1280 1564 0
-1647 137 0
-1647 -1159 0
1647 -137 1159 0
-1648 1261 0
-1648 -883 0
1648 -1261 883 0
-1649 766 0
-1649 -1393 0
1649 -766 1393 0
-1650 381 -1199 0
-1650 -381 1199 0
1650 -381 -1199 0
1650 381 1199 0
-1651 -1458 -820 0
-1651 1458 820 0
1651 1458 -820 0
1651 -1458 820 0
-1652 1205 1313 0
-1652 -1205 -1313 0
1652 -1205 1313 0
1652 1205 -1313 0
-1653 790 244 0
-1653 -790 -244 0
1653 -790 244 0
1653 790 -244 0
-1654 405 0
-1654 -760 0
1654 -405 760 0
-1655 -452 199 0
-1655 452 -199 0
1655 452 199 0
1655 -452 -199 0
-1656 382 807 0
-1656 -382 -807 0
1656 -382 807 0
1656 382 -807 0
-1657 547 256 0
-1657 -547 -256 0
1657 -547 256 0
1657 547 -256 0
-1658 564 -428 0
-1658 -564 428 0
1658 -564 -428 0
1658 564 428 0
-1659 290 -1423 0
-1659 -290 1423 0
1659 -290 -1423 0
1659 290 1423 0
-1660 1456 286 0
-1660 -1456 -286 0
1660 -1456 286 0
1660 1456 -286 0
-1661 1296 -726 0
-1661 -1296 726 0
1661 -1296 -726 0
1661 1296 726 0
-1662 -208 -951 0
-1662 208 951 0
1662 208 -951 0
1662 -208 951 0
-1663 538 -388 0
-1663 -538 388 0
1663 -538 -388 0
1663 538 388 0
-1664 99 -1227 0
-1664 -99 1227 0
1664 -99 -1227 0
1664 99 1227 0
-1665 -990 -433 0
-1665 990 433 0
1665 990 -433 0
1665 -990 433 0
-1666 -1389 0
-1666 736 0
1666 1389 -736 0
-1667 570 -1307 0
-1667 -570 1307 0
1667 -570 -1307 0
1667 570 1307 0
-1668 1079 0
-1668 1366 0
1668 -1079 -1366 0
-1669 -646 0
-1669 241 0
1669 646 -241 0
-1670 187 0
-1670 1059 0
1670 -187 -1059 0
-1671 -1450 0
-1671 1162 0
1671 1450 -1162 0
-1672 -1144 563 0
-1672 1144 -563 0
1672 1144 563 0
1672 -1144 -563 0
-1673 1431 -218 0
-1673 -1431 218 0
1673 -1431 -218 0
1673 1431 218 0
-1674 133 0
-1674 -60 0
1674 -133 60 0
-1675 -1670 -569 0
-1675 1670 569 0
1675 1670 -569 0
1675 -1670 569 0
-1676 -1395 -919 0
-1676 1395 919 0
1676 1395 -919 0
1676 -1395 919 0
-1677 874 1632 0
-1677 -874 -1632 0
1677 -874 1632 0
1677 874 -1632 0
-1678 -1273 1004 0
-1678 1273 -1004 0
1678 1273 1004 0
1678 -1273 -1004 0
-1679 -520 625 0
-1679 520 -625 0
1679 520 625 0
1679 -520 -625 0
-1680 -1475 -1184 0
-1680 1475 1184 0
1680 1475 -1184 0
1680 -1475 1184 0
-1681 825 -1180 0
-1681 -825 1180 0
1681 -825 -1180 0
1681 825 1180 0
-1682 156 782 0
-1682 -156 -782 0
1682 -156 782 0
1682 156 -782 0
-1683 -1376 -58 0
-1683 1376 58 0
1683 1376 -58 0
1683 -1376 58 0
-1684 1372 236 0
-1684 -1372 -236 0
1684 -1372 236 0
1684 1372 -236 0
-1685 -335 109 0
-1685 335 -109 0
1685 335 109 0
1685 -335 -109 0
-1686 1336 -1561 0
-1686 -1336 1561 0
1686 -1336 -1561 0
1686 1336 1561 0
-1687 -40 -1044 0
-1687 40 1044 0
1687 40 -1044 0
1687 -40 1044 0
-1688 356 0
-1688 294 0
1688 -356 -294 0
-1689 790 187 0
-1689 -790 -187 0
1689 -790 187 0
1689 790 -187 0
-1690 -651 985 0
-1690 651 -985 0
1690 651 985 0
1690 -651 -985 0
-1691 -1135 0
-1691 709 0
1691 1135 -709 0
-1692 597 1403 0
-1692 -597 -1403 0
1692 -597 1403 0
1692 597 -1403 0
-1693 -267 -154 0
-1693 267 154 0
1693 267 -154 0
1693 -267 154 0
-1694 1461 -375 0
-1694 -1461 375 0
1694 -1461 -375 0
1694 1461 375 0
-1695 332 0
-1695 -43 0
1695 -332 43 0
-1696 174 0
-1696 -1158 0
1696 -174 1158 0
-1697 -422 740 0
-1697 422 -740 0
1697 422 740 0
1697 -422 -740 0
-1698 -744 0
-1698 -1344 0
1698 744 1344 0
-1699 -543 193 0
-1699 543 -193 0
1699 543 193 0
1699 -543 -193 0
-1700 -1604 -962 0
-1700 1604 962 0
1700 1604 -962 0
1700 -1604 962 0
-1701 -1209 -1216 0
-1701 1209 1216 0
1701 1209 -1216 0
1701 -1209 1216 0
-1702 1003 233 0
-1702 -1003 -233 0
1702 -1003 233 0
1702 1003 -233 0
-1703 1695 0
-1703 -140 0
1703 -1695 140 0
-1704 -745 1702 0
-1704 745 -1702 0
1704 745 1702 0
1704 -745 -1702 0
-1705 -1666 1079 0
-1705 1666 -1079 0
1705 1666 1079 0
1705 -1666 -1079 0
-1706 1517 0
-1706 -143 0
1706 -1517 143 0
-1707 -714 0
-1707 1290 0
1707 714 -1290 0
-1708 1380 185 0
-1708 -1380 -185 0
1708 -1380 185 0
1708 1380 -185 0
-1709 1182 1023 0
-1709 -1182 -1023 0
1709 -1182 1023 0
1709 1182 -1023 0
-1710 979 0
-1710 44 0
1710 -979 -44 0
-1711 735 -522 0
-1711 -735 522 0
1711 -735 -522 0
1711 735 522 0
-1712 1463 1349 0
-1712 -1463 -1349 0
1712 -1463 1349 0
1712 1463 -1349 0
-1713 597 0
-1713 1198 0
1713 -597 -1198 0
-1714 -1463 0
-1714 1017 0
1714 1463 -1017 0
-1715 -892 -900 0
-1715 892 900 0
1715 892 -900 0
1715 -892 900 0
-1716 -829 1052 0
-1716 829 -1052 0
1716 829 1052 0
1716 -829 -1052 0
-1717 -86 -1162 0
-1717 86 1162 0
1717 86 -1162 0
1717 -86 1162 0
-1718 -848 297 0
-1718 848 -297 0
1718 848 297 0
1718 -848 -297 0
-1719 -608 0
-1719 69 0
1719 608 -69 0
-1720 -120 1257 0
-1720 120 -1257 0
1720 120 1257 0
1720 -120 -1257 0
-1721 -1564 199 0
-1721 1564 -199 0
1721 1564 199 0
1721 -1564 -199 0
-1722 -1449 -645 0
-1722 1449 645 0
1722 1449 -645 0
1722 -1449 645 0
-1723 697 -92 0
-1723 -697 92 0
1723 -697 -92 0
1723 697 92 0
-1724 -366 -695 0
-1724 366 695 0
1724 366 -695 0
1724 -366 695 0
-1725 1271 492 0
-1725 -1271 -492 0
1725 -1271 492 0
1725 1271 -492 0
-1726 -1641 0
-1726 1025 0
1726 1641 -1025 0
-1727 -581 -114 0
-1727 581 114 0
1727 581 -114 0
1727 -581 114 0
-1728 650 607 0
-1728 -650 -607 0
1728 -650 607 0
1728 650 -607 0
-1729 -1540 0
-1729 -464 0
1729 1540 464 0
-1730 396 -302 0
-1730 -396 302 0
1730 -396 -302 0
1730 396 302 0
-1731 1554 0
-1731 -72 0
1731 -1554 72 0
-1732 1592 1608 0
-1732 -1592 -1608 0
1732 -1592 1608 0
1732 1592 -1608 0
-1733 1037 361 0
-1733 -1037 -361 0
1733 -1037 361 0
1733 1037 -361 0
-1734 1459 812 0
-1734 -1459 -812 0
1734 -1459 812 0
1734 1459 -812 0
-1735 -998 0
-1735 1586 0
1735 998 -1586 0
-1736 -287 0
-1736 1135 0
1736 287 -1135 0
-1737 -1596 0
-1737 -366 0
1737 1596 366 0
-1738 923 -241 0
-1738 -923 241 0
1738 -923 -241 0
1738 923 241 0
-1739 785 0
-1739 1165 0
1739 -785 -1165 0
-1740 -708 -34 0
-1740 708 34 0
1740 708 -34 0
1740 -708 34 0
-1741 835 -1611 0
-1741 -835 1611 0
1741 -835 -1611 0
1741 835 1611 0
-1742 1143 360 0
-1742 -1143 -360 0
1742 -1143 360 0
1742 1143 -360 0
-1743 999 0
-1743 -415 0
1743 -999 415 0
-1744 463 -351 0
-1744 -463 351 0
1744 -463 -351 0
1744 463 351 0
-1745 -1460 0
-1745 862 0
1745 1460 -862 0
-1746 -1079 -813 0
-1746 1079 813 0
1746 1079 -813 0
1746 -1079 813 0
-1747 1254 0
-1747 190 0
1747 -1254 -190 0
-1748 -1477 997 0
-1748 1477 -997 0
1748 1477 997 0
1748 -1477 -997 0
-1749 -1412 859 0
-1749 1412 -859 0
1749 1412 859 0
1749 -1412 -859 0
-1750 793 0
-1750 440 0
1750 -793 -440 0
-1751 525 -324 0
-1751 -525 324 0
1751 -525 -324 0
1751 525 324 0
-1752 418 -558 0
-1752 -418 558 0
1752 -418 -558 0
1752 418 558 0
-1753 -676 0
-1753 434 0
1753 676 -434 0
-1754 185 -547 0
-1754 -185 547 0
1754 -185 -547 0
1754 185 547 0
-1755 -671 0
-1755 -1413 0
1755 671 1413 0
-1756 -1626 0
-1756 1061 0
1756 1626 -1061 0
-1757 -1635 726 0
-1757 1635 -726 0
1757 1635 726 0
1757 -1635 -726 0
-1758 -1176 0
-1758 139 0
1758 1176 -139 0
-1759 1581 45 0
-1759 -1581 -45 0
1759 -1581 45 0
1759 1581 -45 0
-1760 544 -598 0
-1760 -544 598 0
1760 -544 -598 0
1760 544 598 0
-1761 -167 321 0
-1761 167 -321 0
1761 167 321 0
1761 -167 -321 0
-1762 -1053 1490 0
-1762 1053 -1490 0
1762 1053 1490 0
1762 -1053 -1490 0
-1763 1407 -1090 0
-1763 -1407 1090 0
1763 -1407 -1090 0
1763 1407 1090 0
-1764 1621 0
-1764 -293 0
1764 -1621 293 0
-1765 -323 -1585 0
-1765 323 1585 0
1765 323 -1585 0
1765 -323 1585 0
-1766 -447 867 0
-1766 447 -867 0
1766 447 867 0
1766 -447 -867 0
-1767 -89 989 0
-1767 89 -989 0
1767 89 989 0
1767 -89 -989 0
-1768 960 0
-1768 88 0
1768 -960 -88 0
-1769 965 -263 0
-1769 -965 263 0
1769 -965 -263 0
1769 965 263 0
-1770 1431 0
-1770 1139 0
1770 -1431 -1139 0
-1771 -373 -1249 0
-1771 373 1249 0
1771 373 -1249 0
1771 -373 1249 0
-1772 1380 0
-1772 -216 0
1772 -1380 216 0
-1773 145 474 0
-1773 -145 -474 0
1773 -145 474 0
1773 145 -474 0
-1774 1028 923 0
-1774 -1028 -923 0
1774 -1028 923 0
1774 1028 -923 0
-1775 563 1642 0
-1775 -563 -1642 0
1775 -563 1642 0
1775 563 -1642 0
-1776 -1618 0
-1776 -98 0
1776 1618 98 0
-1777 342 0
-1777 365 0
1777 -342 -365 0
-1778 323 -597 0
-1778 -323 597 0
1778 -323 -597 0
1778 323 597 0
-1779 638 -931 0
-1779 -638 931 0
1779 -638 -931 0
1779 638 931 0
-1780 505 0
-1780 295 0
1780 -505 -295 0
-1781 -614 0
-1781 975 0
1781 614 -975 0
-1782 1175 0
-1782 -507 0
1782 -1175 507 0
-1783 -500 392 0
-1783 500 -392 0
1783 500 392 0
1783 -500 -392 0
-1784 -253 0
-1784 -92 0
1784 253 92 0
-1785 -1641 0
-1785 -94 0
1785 1641 94 0
-1786 -1614 -858 0
-1786 1614 858 0
1786 1614 -858 0
1786 -1614 858 0
-1787 -1538 -344 0
-1787 1538 344 0
1787 1538 -344 0
1787 -1538 344 0
-1788 -1082 -894 0
-1788 1082 894 0
1788 1082 -894 0
1788 -1082 894 0
-1789 -1108 0
-1789 -813 0
1789 1108 813 0
-1790 -1070 0
-1790 1105 0
1790 1070 -1105 0
-1791 -1083 843 0
-1791 1083 -843 0
1791 1083 843 0
1791 -1083 -843 0
-1792 1482 0
-1792 564 0
1792 -1482 -564 0
-1793 533 1162 0
-1793 -533 -1162 0
1793 -533 1162 0
1793 533 -1162 0
-1794 629 -962 0
-1794 -629 962 0
1794 -629 -962 0
1794 629 962 0
-1795 -148 1105 0
-1795 148 -1105 0
1795 148 1105 0
1795 -148 -1105 0
-1796 1384 174 0
-1796 -1384 -174 0
1796 -1384 174 0
1796 1384 -174 0
-1797 767 0
-1797 -197 0
1797 -767 197 0
-1798 -314 0
-1798 -1759 0
1798 314 1759 0
-1799 218 1210 0
-1799 -218 -1210 0
1799 -218 1210 0
1799 218 -1210 0
-1800 1731 0
-1800 -1077 0
1800 -1731 1077 0
-1801 -688 1342 0
-1801 688 -1342 0
1801 688 1342 0
1801 -688 -1342 0
-1802 1320 0
-1802 671 0
1802 -1320 -671 0
-1803 270 0
-1803 722 0
1803 -270 -722 0
-1804 -956 -115 0
-1804 956 115 0
1804 956 -115 0
1804 -956 115 0
-1805 -390 -127 0
-1805 390 127 0
1805 390 -127 0
1805 -390 127 0
-1806 139 -1306 0
-1806 -139 1306 0
1806 -139 -1306 0
1806 139 1306 0
-1807 516 -1609 0
-1807 -516 1609 0
1807 -516 -1609 0
1807 516 1609 0
-1808 95 -578 0
-1808 -95 578 0
1808 -95 -578 0
1808 95 578 0
-1809 974 1254 0
-1809 -974 -1254 0
1809 -974 1254 0
1809 974 -1254 0
-1810 545 0
-1810 -1786 0
1810 -545 1786 0
-1811 1026 873 0
-1811 -1026 -873 0
1811 -1026 873 0
1811 1026 -873 0
-1812 -1458 1418 0
-1812 1458 -1418 0
1812 1458 1418 0
1812 -1458 -1418 0
-1813 -1407 0
-1813 -369 0
1813 1407 369 0
-1814 871 -554 0
-1814 -871 554 0
1814 -871 -554 0
1814 871 554 0
-1815 -252 0
-1815 1232 0
1815 252 -1232 0
-1816 -278 -1442 0
-1816 278 1442 0
1816 278 -1442 0
1816 -278 1442 0
-1817 1772 -734 0
-1817 -1772 734 0
1817 -1772 -734 0
1817 1772 734 0
-1818 -832 995 0
-1818 832 -995 0
1818 832 995 0
1818 -832 -995 0
-1819 1340 -932 0
-1819 -1340 932 0
1819 -1340 -932 0
1819 1340 932 0
-1820 1540 0
-1820 1580 0
1820 -1540 -1580 0
-1821 925 -1681 0
-1821 -925 1681 0
1821 -925 -1681 0
1821 925 1681 0
-1822 1270 0
-1822 1220 0
1822 -1270 -1220 0
-1823 519 0
-1823 321 0
1823 -519 -321 0
-1824 -1129 0
-1824 1487 0
1824 1129 -1487 0
-1825 -1057 753 0
-1825 1057 -753 0
1825 1057 753 0
1825 -1057 -753 0
-1826 -527 -1302 0
-1826 527 1302 0
1826 527 -1302 0
1826 -527 1302 0
-1827 -1731 -250 0
-1827 1731 250 0
1827 1731 -250 0
1827 -1731 250 0
-1828 716 0
-1828 1072 0
1828 -716 -1072 0
-1829 -155 -1645 0
-1829 155 1645 0
1829 155 -1645 0
1829 -155 1645 0
-1830 1472 0
-1830 -1477 0
1830 -1472 1477 0
-1831 772 0
-1831 1046 0
1831 -772 -1046 0
-1832 973 1079 0
-1832 -973 -1079 0
1832 -973 1079 0
1832 973 -1079 0
-1833 -65 1162 0
-1833 65 -1162 0
1833 65 1162 0
1833 -65 -1162 0
-1834 1757 810 0
-1834 -1757 -810 0
1834 -1757 810 0
1834 1757 -810 0
-1835 1309 0
-1835 148 0
1835 -1309 -148 0
-1836 -997 845 0
-1836 997 -845 0
1836 997 845 0
1836 -997 -845 0
-1837 -1534 -1603 0
-1837 1534 1603 0
1837 1534 -1603 0
1837 -1534 1603 0
-1838 1178 -647 0
-1838 -1178 647 0
1838 -1178 -647 0
1838 1178 647 0
-1839 1365 -575 0
-1839 -1365 575 0
1839 -1365 -575 0
1839 1365 575 0
-1840 1292 -1048 0
-1840 -1292 1048 0
1840 -1292 -1048 0
1840 1292 1048 0
-1841 1207 460 0
-1841 -1207 -460 0
1841 -1207 460 0
1841 1207 -460 0
-1842 355 1287 0
-1842 -355 -1287 0
1842 -355 1287 0
1842 355 -1287 0
-1843 1073 629 0
-1843 -1073 -629 0
1843 -1073 629 0
1843 1073 -629 0
-1844 -1458 -1010 0
-1844 1458 1010 0
1844 1458 -1010 0
1844 -1458 1010 0
-1845 -1299 -867 0
-1845 1299 867 0
1845 1299 -867 0
1845 -1299 867 0
-1846 -475 0
-1846 1082 0
1846 475 -1082 0
-1847 -441 -1015 0
-1847 441 1015 0
1847 441 -1015 0
1847 -441 1015 0
-1848 -270 0
-1848 687 0
1848 270 -687 0
-1849 -155 0
-1849 -240 0
1849 155 240 0
-1850 252 874 0
-1850 -252 -874 0
1850 -252 874 0
1850 252 -874 0
-1851 -980 1716 0
-1851 980 -1716 0
1851 980 1716 0
1851 -980 -1716 0
-1852 -870 -134 0
-1852 870 134 0
1852 870 -134 0
1852 -870 134 0
-1853 -287 0
-1853 1528 0
1853 287 -1528 0
-1854 310 -1240 0
-1854 -310 1240 0
1854 -310 -1240 0
1854 310 1240 0
-1855 -928 -483 0
-1855 928 483 0
1855 928 -483 0
1855 -928 483 0
-1856 104 145 0
-1856 -104 -145 0
1856 -104 145 0
1856 104 -145 0
-1857 832 -613 0
-1857 -832 613 0
1857 -832 -613 0
1857 832 613 0
-1858 1652 981 0
-1858 -1652 -981 0
1858 -1652 981 0
1858 1652 -981 0
-1859 -1470 0
-1859 1531 0
1859 1470 -1531 0
-1860 1388 976 0
-1860 -1388 -976 0
1860 -1388 976 0
1860 1388 -976 0
-1861 -1011 0
-1861 -1798 0
1861 1011 1798 0
-1862 1020 578 0
-1862 -1020 -578 0
1862 -1020 578 0
1862 1020 -578 0
-1863 -585 0
-1863 1386 0
1863 585 -1386 0
-1864 -94 1108 0
-1864 94 -1108 0
1864 94 1108 0
1864 -94 -1108 0
-1865 -815 20 0
-1865 815 -20 0
1865 815 20 0
1865 -815 -20 0
-1866 1795 -689 0
-1866 -1795 689 0
1866 -1795 -689 0
1866 1795 689 0
-1867 712 -575 0
-1867 -712 575 0
1867 -712 -575 0
1867 712 575 0
-1868 -75 0
-1868 1376 0
1868 75 -1376 0
-1869 835 509 0
-1869 -835 -509 0
1869 -835 509 0
1869 835 -509 0
-1870 1591 -238 0
-1870 -1591 238 0
1870 -1591 -238 0
1870 1591 238 0
-1871 659 0
-1871 1742 0
1871 -659 -1742 0
-1872 1309 714 0
-1872 -1309 -714 0
1872 -1309 714 0
1872 1309 -714 0
-1873 262 0
-1873 1362 0
1873 -262 -1362 0
-1874 1827 445 0
-1874 -1827 -445 0
1874 -1827 445 0
1874 1827 -445 0
-1875 -1655 391 0
-1875 1655 -391 0
1875 1655 391 0
1875 -1655 -391 0
-1876 -247 0
-1876 800 0
1876 247 -800 0
-1877 215 -1289 0
-1877 -215 1289 0
1877 -215 -1289 0
1877 215 1289 0
-1878 1508 -471 0
-1878 -1508 471 0
1878 -1508 -471 0
1878 1508 471 0
-1879 -629 1435 0
-1879 629 -1435 0
1879 629 1435 0
1879 -629 -1435 0
-1880 94 255 0
-1880 -94 -255 0
1880 -94 255 0
1880 94 -255 0
-1881 -1168 1666 0
-1881 1168 -1666 0
1881 1168 1666 0
1881 -1168 -1666 0
-1882 1565 1534 0
-1882 -1565 -1534 0
1882 -1565 1534 0
1882 1565 -1534 0
-1883 -418 0
-1883 1639 0
1883 418 -1639 0
-1884 -844 264 0
-1884 844 -264 0
1884 844 264 0
1884 -844 -264 0
-1885 -936 0
-1885 -1877 0
1885 936 1877 0
-1886 -569 -1411 0
-1886 569 1411 0
1886 569 -1411 0
1886 -569 1411 0
-1887 -1084 611 0
-1887 1084 -611 0
1887 1084 611 0
1887 -1084 -611 0
-1888 339 1369 0
-1888 -339 -1369 0
1888 -339 1369 0
1888 339 -1369 0
-1889 1277 -31 0
-1889 -1277 31 0
1889 -1277 -31 0
1889 1277 31 0
-1890 -664 491 0
-1890 664 -491 0
1890 664 491 0
1890 -664 -491 0
-1891 332 -1073 0
-1891 -332 1073 0
1891 -332 -1073 0
1891 332 1073 0
-1892 1812 0
-1892 956 0
1892 -1812 -956 0
-1893 -1604 -1210 0
-1893 1604 1210 0
1893 1604 -1210 0
1893 -1604 1210 0
-1894 908 -826 0
-1894 -908 826 0
1894 -908 -826 0
1894 908 826 0
-1895 785 0
-1895 -202 0
1895 -785 202 0
-1896 -1514 0
-1896 610 0
1896 1514 -610 0
-1897 -1283 179 0
-1897 1283 -179 0
1897 1283 179 0
1897 -1283 -179 0
-1898 980 0
-1898 -1663 0
1898 -980 1663 0
-1899 -954 -1618 0
-1899 954 1618 0
1899 954 -1618 0
1899 -954 1618 0
-1900 -682 0
-1900 1202 0
1900 682 -1202 0
-1901 -378 0
-1901 1667 0
1901 378 -1667 0
-1902 -336 -370 0
-1902 336 370 0
1902 336 -370 0
1902 -336 370 0
-1903 898 -406 0
-1903 -898 406 0
1903 -898 -406 0
1903 898 406 0
-1904 1064 -1792 0
-1904 -1064 1792 0
1904 -1064 -1792 0
1904 1064 1792 0
-1905 -576 -1666 0
-1905 576 1666 0
1905 576 -1666 0
1905 -576 1666 0
-1906 -256 674 0
-1906 256 -674 0
1906 256 674 0
1906 -256 -674 0
-1907 1847 1699 0
-1907 -1847 -1699 0
1907 -1847 1699 0
1907 1847 -1699 0
-1908 -36 885 0
-1908 36 -885 0
1908 36 885 0
1908 -36 -885 0
-1909 -1825 1483 0
-1909 1825 -1483 0
1909 1825 1483 0
1909 -1825 -1483 0
-1910 -1144 -1773 0
-1910 1144 1773 0
1910 1144 -1773 0
1910 -1144 1773 0
-1911 379 -1694 0
-1911 -379 1694 0
1911 -379 -1694 0
1911 379 1694 0
-1912 -119 -772 0
-1912 119 772 0
1912 119 -772 0
1912 -119 772 0
-1913 -44 -169 0
-1913 44 169 0
1913 44 -169 0
1913 -44 169 0
-1914 1113 -266 0
-1914 -1113 266 0
1914 -1113 -266 0
1914 1113 266 0
-1915 201 -65 0
-1915 -201 65 0
1915 -201 -65 0
1915 201 65 0
-1916 1695 0
-1916 816 0
1916 -1695 -816 0
-1917 -286 -705 0
-1917 286 705 0
1917 286 -705 0
1917 -286 705 0
-1918 731 198 0
-1918 -731 -198 0
1918 -731 198 0
1918 731 -198 0
-1919 1752 -1803 0
-1919 -1752 1803 0
1919 -1752 -1803 0
1919 1752 1803 0
-1920 427 1306 0
-1920 -427 -1306 0
1920 -427 1306 0
1920 427 -1306 0
-1921 -356 0
-1921 1816 0
1921 356 -1816 0
-1922 -419 0
-1922 1068 0
1922 419 -1068 0
-1923 296 -874 0
-1923 -296 874 0
1923 -296 -874 0
1923 296 874 0
-1924 1360 -49 0
-1924 -1360 49 0
1924 -1360 -49 0
1924 1360 49 0
-1925 402 0
-1925 -483 0
1925 -402 483 0
-1926 65 675 0
-1926 -65 -675 0
1926 -65 675 0
1926 65 -675 0
-1927 -369 716 0
-1927 369 -716 0
1927 369 716 0
1927 -369 -716 0
-1928 716 1363 0
-1928 -716 -1363 0
1928 -716 1363 0
1928 716 -1363 0
-1929 235 1170 0
-1929 -235 -1170 0
1929 -235 1170 0
1929 235 -1170 0
-1930 -399 183 0
-1930 399 -183 0
1930 399 183 0
1930 -399 -183 0
-1931 -708 -1635 0
-1931 708 1635 0
1931 708 -1635 0
1931 -708 1635 0
-1932 -1688 -1078 0
-1932 1688 1078 0
1932 1688 -1078 0
1932 -1688 1078 0
-1933 -1112 0
-1933 384 0
1933 1112 -384 0
-1934 -50 0
-1934 -1109 0
1934 50 1109 0
-1935 -250 -976 0
-1935 250 976 0
1935 250 -976 0
1935 -250 976 0
-1936 -846 0
-1936 1017 0
1936 846 -1017 0
-1937 1774 0
-1937 115 0
1937 -1774 -115 0
-1938 -1739 -397 0
-1938 1739 397 0
1938 1739 -397 0
1938 -1739 397 0
-1939 -123 67 0
-1939 123 -67 0
1939 123 67 0
1939 -123 -67 0
-1940 -1087 1267 0
-1940 1087 -1267 0
1940 1087 1267 0
1940 -1087 -1267 0
-1941 687 54 0
-1941 -687 -54 0
1941 -687 54 0
1941 687 -54 0
-1942 -436 944 0
-1942 436 -944 0
1942 436 944 0
1942 -436 -944 0
-1943 -1065 -1758 0
-1943 1065 1758 0
1943 1065 -1758 0
1943 -1065 1758 0
-1944 1327 -554 0
-1944 -1327 554 0
1944 -1327 -554 0
1944 1327 554 0
-1945 1874 -1623 0
-1945 -1874 1623 0
1945 -1874 -1623 0
1945 1874 1623 0
-1946 200 -780 0
-1946 -200 780 0
1946 -200 -780 0
1946 200 780 0
-1947 993 1368 0
-1947 -993 -1368 0
1947 -993 1368 0
1947 993 -1368 0
-1948 921 1021 0
-1948 -921 -1021 0
1948 -921 1021 0
1948 921 -1021 0
-1949 413 -182 0
-1949 -413 182 0
1949 -413 -182 0
1949 413 182 0
-1950 -1824 0
-1950 -1835 0
1950 1824 1835 0
-1951 1267 -1692 0
-1951 -1267 1692 0
1951 -1267 -1692 0
1951 1267 1692 0
-1952 1134 0
-1952 -1196 0
1952 -1134 1196 0
-1953 1536 0
-1953 -1154 0
1953 -1536 1154 0
-1954 1671 69 0
-1954 -1671 -69 0
1954 -1671 69 0
1954 1671 -69 0
-1955 -542 0
-1955 -1196 0
1955 542 1196 0
-1956 -354 0
-1956 1432 0
1956 354 -1432 0
-1957 -1682 0
-1957 -1623 0
1957 1682 1623 0
-1958 358 810 0
-1958 -358 -810 0
1958 -358 810 0
1958 358 -810 0
-1959 -1434 -842 0
-1959 1434 842 0
1959 1434 -842 0
1959 -1434 842 0
-1960 -636 0
-1960 91 0
1960 636 -91 0
-1961 1556 -363 0
-1961 -1556 363 0
1961 -1556 -363 0
1961 1556 363 0
-1962 -467 -1505 0
-1962 467 1505 0
1962 467 -1505 0
1962 -467 1505 0
-1963 -1270 0
-1963 -1344 0
1963 1270 1344 0
-1964 911 678 0
-1964 -911 -678 0
1964 -911 678 0
1964 911 -678 0
-1965 1000 1583 0
-1965 -1000 -1583 0
1965 -1000 1583 0
1965 1000 -1583 0
-1966 -720 1594 0
-1966 720 -1594 0
1966 720 1594 0
1966 -720 -1594 0
-1967 -168 -687 0
-1967 168 687 0
1967 168 -687 0
1967 -168 687 0
-1968 1675 0
-1968 733 0
1968 -1675 -733 0
-1969 -1180 -1493 0
-1969 1180 1493 0
1969 1180 -1493 0
1969 -1180 1493 0
-1970 1225 1179 0
-1970 -1225 -1179 0
1970 -1225 1179 0
1970 1225 -1179 0
-1971 -542 322 0
-1971 542 -322 0
1971 542 322 0
1971 -542 -322 0
-1972 -271 -912 0
-1972 271 912 0
1972 271 -912 0
1972 -271 912 0
-1973 485 1284 0
-1973 -485 -1284 0
1973 -485 1284 0
1973 485 -1284 0
-1974 -1896 0
-1974 534 0
1974 1896 -534 0
-1975 46 0
-1975 -647 0
1975 -46 647 0
-1976 320 -282 0
-1976 -320 282 0
1976 -320 -282 0
1976 320 282 0
-1977 1185 0
-1977 -1120 0
1977 -1185 1120 0
-1978 1079 -1279 0
-1978 -1079 1279 0
1978 -1079 -1279 0
1978 1079 1279 0
-1979 -1711 0
-1979 -1617 0
1979 1711 1617 0
-1980 401 0
-1980 1212 0
1980 -401 -1212 0
-1981 -1516 -1786 0
-1981 1516 1786 0
1981 1516 -1786 0
1981 -1516 1786 0
-1982 -141 0
-1982 653 0
1982 141 -653 0
-1983 912 -959 0
-1983 -912 959 0
1983 -912 -959 0
1983 912 959 0
-1984 -106 1505 0
-1984 106 -1505 0
1984 106 1505 0
1984 -106 -1505 0
-1985 -994 0
-1985 1104 0
1985 994 -1104 0
-1986 1397 -95 0
-1986 -1397 95 0
1986 -1397 -95 0
1986 1397 95 0
-1987 1783 0
-1987 888 0
1987 -1783 -888 0
-1988 -519 761 0
-1988 519 -761 0
1988 519 761 0
1988 -519 -761 0
-1989 -1125 -628 0
-1989 1125 628 0
1989 1125 -628 0
1989 -1125 628 0
-1990 1897 284 0
-1990 -1897 -284 0
1990 -1897 284 0
1990 1897 -284 0
-1991 1038 0
-1991 498 0
1991 -1038 -498 0
-1992 -1127 -1758 0
-1992 1127 1758 0
1992 1127 -1758 0
1992 -1127 1758 0
-1993 -1898 -979 0
-1993 1898 979 0
1993 1898 -979 0
1993 -1898 979 0
-1994 1322 -78 0
-1994 -1322 78 0
1994 -1322 -78 0
1994 1322 78 0
-1995 805 -82 0
-1995 -805 82 0
1995 -805 -82 0
1995 805 82 0
-1996 1735 0
-1996 1705 0
1996 -1735 -1705 0
-1997 -769 1797 0
-1997 769 -1797 0
1997 769 1797 0
1997 -769 -1797 0
-1998 1127 0
-1998 -753 0
1998 -1127 753 0
-1999 1670 -421 0
-1999 -1670 421 0
1999 -1670 -421 0
1999 1670 421 0
-2000 433 568 0
-2000 -433 -568 0
2000 -433 568 0
2000 433 -568 0
-2001 1174 1614 0
-2001 -1174 -1614 0
2001 -1174 1614 0
2001 1174 -1614 0
-2002 1846 692 0
-2002 -1846 -692 0
2002 -1846 692 0
2002 1846 -692 0
-2003 1926 -1026 0
-2003 -1926 1026 0
2003 -1926 -1026 0
2003 1926 1026 0
-2004 92 796 0
-2004 -92 -796 0
2004 -92 796 0
2004 92 -796 0
-2005 -1607 -634 0
-2005 1607 634 0
2005 1607 -634 0
2005 -1607 634 0
-2006 -1898 -1320 0
-2006 1898 1320 0
2006 1898 -1320 0
2006 -1898 1320 0
-2007 -425 -26 0
-2007 425 26 0
2007 425 -26 0
2007 -425 26 0
-2008 -749 1572 0
-2008 749 -1572 0
2008 749 1572 0
2008 -749 -1572 0
-2009 1239 -1780 0
-2009 -1239 1780 0
2009 -1239 -1780 0
2009 1239 1780 0
-2010 1740 -1984 0
-2010 -1740 1984 0
2010 -1740 -1984 0
2010 1740 1984 0
-2011 -374 0
-2011 -752 0
2011 374 752 0
-2012 -386 0
-2012 -315 0
2012 386 315 0
-2013 -542 1033 0
-2013 542 -1033 0
2013 542 1033 0
2013 -542 -1033 0
-2014 -26 -522 0
-2014 26 522 0
2014 26 -522 0
2014 -26 522 0
-2015 607 0
-2015 152 0
2015 -607 -152 0
-2016 1518 -1100 0
-2016 -1518 1100 0
2016 -1518 -1100 0
2016 1518 1100 0
-2017 -1116 -1839 0
-2017 1116 1839 0
2017 1116 -1839 0
2017 -1116 1839 0
-2018 -863 1296 0
-2018 863 -1296 0
2018 863 1296 0
2018 -863 -1296 0
-2019 1431 1968 0
-2019 -1431 -1968 0
2019 -1431 1968 0
2019 1431 -1968 0
-2020 1667 0
-2020 -1362 0
2020 -1667 1362 0
-2021 -1414 -1405 0
-2021 1414 1405 0
2021 1414 -1405 0
2021 -1414 1405 0
-2022 729 0
-2022 -1692 0
2022 -729 1692 0
-2023 -963 1090 0
-2023 963 -1090 0
2023 963 1090 0
2023 -963 -1090 0
-2024 333 -176 0
-2024 -333 176 0
2024 -333 -176 0
2024 333 176 0
-2025 994 1216 0
-2025 -994 -1216 0
2025 -994 1216 0
2025 994 -1216 0
-2026 1340 -170 0
-2026 -1340 170 0
2026 -1340 -170 0
2026 1340 170 0
-2027 -1081 -1312 0
-2027 1081 1312 0
2027 1081 -1312 0
2027 -1081 1312 0
-2028 1577 -1385 0
-2028 -1577 1385 0
2028 -1577 -1385 0
2028 1577 1385 0
-2029 1839 0
-2029 467 0
2029 -1839 -467 0
-2030 508 1169 0
-2030 -508 -1169 0
2030 -508 1169 0
2030 508 -1169 0
-2031 -193 0
-2031 -934 0
2031 193 934 0
-2032 -481 477 0
-2032 481 -477 0
2032 481 477 0
2032 -481 -477 0
-2033 1057 381 0
-2033 -1057 -381 0
2033 -1057 381 0
2033 1057 -381 0
-2034 1923 0
-2034 409 0
2034 -1923 -409 0
-2035 -1951 -1817 0
-2035 1951 1817 0
2035 1951 -1817 0
2035 -1951 1817 0
-2036 -1850 -882 0
-2036 1850 882 0
2036 1850 -882 0
2036 -1850 882 0
-2037 123 1325 0
-2037 -123 -1325 0
2037 -123 1325 0
2037 123 -1325 0
-2038 -837 -245 0
-2038 837 245 0
2038 837 -245 0
2038 -837 245 0
-2039 -64 0
-2039 -282 0
2039 64 282 0
-2040 -1346 590 0
-2040 1346 -590 0
2040 1346 590 0
2040 -1346 -590 0
-2041 -1476 0
-2041 -353 0
2041 1476 353 0
-2042 -1506 104 0
-2042 1506 -104 0
2042 1506 104 0
2042 -1506 -104 0
-2043 1923 0
-2043 1509 0
2043 -1923 -1509 0
-2044 -1039 -1359 0
-2044 1039 1359 0
2044 1039 -1359 0
2044 -1039 1359 0
-2045 368 172 0
-2045 -368 -172 0
2045 -368 172 0
2045 368 -172 0
-2046 -1824 1704 0
-2046 1824 -1704 0
2046 1824 1704 0
2046 -1824 -1704 0
-2047 1136 -949 0
-2047 -1136 949 0
2047 -1136 -949 0
2047 1136 949 0
-2048 1463 -1679 0
-2048 -1463 1679 0
2048 -1463 -1679 0
2048 1463 1679 0
-2049 -753 -831 0
-2049 753 831 0
2049 753 -831 0
2049 -753 831 0
-2050 -922 0
-2050 1002 0
2050 922 -1002 0
-2051 906 -650 0
-2051 -906 650 0
2051 -906 -650 0
2051 906 650 0
-2052 -57 -1036 0
-2052 57 1036 0
2052 57 -1036 0
2052 -57 1036 0
-2053 1315 -852 0
-2053 -1315 852 0
2053 -1315 -852 0
2053 1315 852 0
-2054 -1347 0
-2054 1606 0
2054 1347 -1606 0
-2055 -1704 -581 0
-2055 1704 581 0
2055 1704 -581 0
2055 -1704 581 0
-2056 592 1591 0
-2056 -592 -1591 0
2056 -592 1591 0
2056 592 -1591 0
-2057 1125 -650 0
-2057 -1125 650 0
2057 -1125 -650 0
2057 1125 650 0
-2058 -1006 791 0
-2058 1006 -791 0
2058 1006 791 0
2058 -1006 -791 0
-2059 -396 117 0
-2059 396 -117 0
2059 396 117 0
2059 -396 -117 0
-2060 1238 1250 0
-2060 -1238 -1250 0
2060 -1238 1250 0
2060 1238 -1250 0
-2061 366 297 0
-2061 -366 -297 0
2061 -366 297 0
2061 366 -297 0
-2062 -1434 1083 0
-2062 1434 -1083 0
2062 1434 1083 0
2062 -1434 -1083 0
-2063 453 -1467 0
-2063 -453 1467 0
2063 -453 -1467 0
2063 453 1467 0
-2064 -1733 698 0
-2064 1733 -698 0
2064 1733 698 0
2064 -1733 -698 0
-2065 1814 676 0
-2065 -1814 -676 0
2065 -1814 676 0
2065 1814 -676 0
-2066 1917 -1811 0
-2066 -1917 1811 0
2066 -1917 -1811 0
2066 1917 1811 0
-2067 -1291 279 0
-2067 1291 -279 0
2067 1291 279 0
2067 -1291 -279 0
-2068 -729 -1622 0
-2068 729 1622 0
2068 729 -1622 0
2068 -729 1622 0
-2069 1629 1880 0
-2069 -1629 -1880 0
2069 -1629 1880 0
2069 1629 -1880 0
-2070 -1672 0
-2070 375 0
2070 1672 -375 0
-2071 1478 0
-2071 -1575 0
2071 -1478 1575 0
-2072 -567 1940 0
-2072 567 -1940 0
2072 567 1940 0
2072 -567 -1940 0
-2073 -1489 499 0
-2073 1489 -499 0
2073 1489 499 0
2073 -1489 -499 0
-2074 1397 0
-2074 795 0
2074 -1397 -795 0
-2075 -1765 0
-2075 -514 0
2075 1765 514 0
-2076 -233 1891 0
-2076 233 -1891 0
2076 233 1891 0
2076 -233 -1891 0
-2077 209 779 0
-2077 -209 -779 0
2077 -209 779 0
2077 209 -779 0
-2078 -288 -1658 0
-2078 288 1658 0
2078 288 -1658 0
2078 -288 1658 0
-2079 1896 1477 0
-2079 -1896 -1477 0
2079 -1896 1477 0
2079 1896 -1477 0
-2080 1774 1889 0
-2080 -1774 -1889 0
2080 -1774 1889 0
2080 1774 -1889 0
-2081 1447 0
-2081 1521 0
2081 -1447 -1521 0
-2082 -1354 0
-2082 2039 0
2082 1354 -2039 0
-2083 1148 34 0
-2083 -1148 -34 0
2083 -1148 34 0
2083 1148 -34 0
-2084 2064 0
-2084 955 0
2084 -2064 -955 0
-2085 -872 1610 0
-2085 872 -1610 0
2085 872 1610 0
2085 -872 -1610 0
-2086 366 1517 0
-2086 -366 -1517 0
2086 -366 1517 0
2086 366 -1517 0
-2087 -1649 -810 0
-2087 1649 810 0
2087 1649 -810 0
2087 -1649 810 0
-2088 -415 0
-2088 -1225 0
2088 415 1225 0
-2089 1919 0
-2089 1845 0
2089 -1919 -1845 0
-2090 369 0
-2090 1118 0
2090 -369 -1118 0
-2091 -272 0
-2091 797 0
2091 272 -797 0
-2092 1460 -444 0
-2092 -1460 444 0
2092 -1460 -444 0
2092 1460 444 0
-2093 -604 -308 0
-2093 604 308 0
2093 604 -308 0
2093 -604 308 0
-2094 -839 946 0
-2094 839 -946 0
2094 839 946 0
2094 -839 -946 0
-2095 -1704 0
-2095 -1465 0
2095 1704 1465 0
-2096 -186 1881 0
-2096 186 -1881 0
2096 186 1881 0
2096 -186 -1881 0
-2097 1313 580 0
-2097 -1313 -580 0
2097 -1313 580 0
2097 1313 -580 0
-2098 434 -931 0
-2098 -434 931 0
2098 -434 -931 0
2098 434 931 0
-2099 572 0
-2099 366 0
2099 -572 -366 0
-2100 -2082 -526 0
-2100 2082 526 0
2100 2082 -526 0
2100 -2082 526 0
-2101 68 -1301 0
-2101 -68 1301 0
2101 -68 -1301 0
2101 68 1301 0
-2102 1403 -896 0
-2102 -1403 896 0
2102 -1403 -896 0
2102 1403 896 0
-2103 1417 1313 0
-2103 -1417 -1313 0
2103 -1417 1313 0
2103 1417 -1313 0
-2104 -1607 -1954 0
-2104 1607 1954 0
2104 1607 -1954 0
2104 -1607 1954 0
-2105 -333 -518 0
-2105 333 518 0
2105 333 -518 0
2105 -333 518 0
-2106 1013 -248 0
-2106 -1013 248 0
2106 -1013 -248 0
2106 1013 248 0
-2107 2034 0
-2107 1610 0
2107 -2034 -1610 0
-2108 67 0
-2108 -78 0
2108 -67 78 0
-2109 -1139 0
-2109 1659 0
2109 1139 -1659 0
-2110 1982 -880 0
-2110 -1982 880 0
2110 -1982 -880 0
2110 1982 880 0
-2111 -1788 0
-2111 1358 0
2111 1788 -1358 0
-2112 966 -2057 0
-2112 -966 2057 0
2112 -966 -2057 0
2112 966 2057 0
-2113 -1635 -1430 0
-2113 1635 1430 0
2113 1635 -1430 0
2113 -1635 1430 0
-2114 1772 -1607 0
-2114 -1772 1607 0
2114 -1772 -1607 0
2114 1772 1607 0
-2115 -1625 316 0
-2115 1625 -316 0
2115 1625 316 0
2115 -1625 -316 0
-2116 1955 -804 0
-2116 -1955 804 0
2116 -1955 -804 0
2116 1955 804 0
-2117 511 -136 0
-2117 -511 136 0
2117 -511 -136 0
2117 511 136 0
-2118 1249 309 0
-2118 -1249 -309 0
2118 -1249 309 0
2118 1249 -309 0
-2119 13 1138 0
-2119 -13 -1138 0
2119 -13 1138 0
2119 13 -1138 0
-2120 -1261 0
-2120 1870 0
2120 1261 -1870 0
-2121 1566 1593 0
-2121 -1566 -1593 0
2121 -1566 1593 0
2121 1566 -1593 0
-2122 131 901 0
-2122 -131 -901 0
2122 -131 901 0
2122 131 -901 0
-2123 1578 0
-2123 1142 0
2123 -1578 -1142 0
-2124 1441 0
-2124 -935 0
2124 -1441 935 0
-2125 -1732 954 0
-2125 1732 -954 0
2125 1732 954 0
2125 -1732 -954 0
-2126 1805 314 0
-2126 -1805 -314 0
2126 -1805 314 0
2126 1805 -314 0
-2127 -613 0
-2127 -862 0
2127 613 862 0
-2128 577 0
-2128 648 0
2128 -577 -648 0
-2129 1733 -2021 0
-2129 -1733 2021 0
2129 -1733 -2021 0
2129 1733 2021 0
-2130 -1595 253 0
-2130 1595 -253 0
2130 1595 253 0
2130 -1595 -253 0
-2131 1820 -416 0
-2131 -1820 416 0
2131 -1820 -416 0
2131 1820 416 0
-2132 -407 0
-2132 1305 0
2132 407 -1305 0
-2133 353 1321 0
-2133 -353 -1321 0
2133 -353 1321 0
2133 353 -1321 0
-2134 -1269 -569 0
-2134 1269 569 0
2134 1269 -569 0
2134 -1269 569 0
-2135 488 -1286 0
-2135 -488 1286 0
2135 -488 -1286 0
2135 488 1286 0
-2136 511 -923 0
-2136 -511 923 0
2136 -511 -923 0
2136 511 923 0
-2137 1391 1455 0
-2137 -1391 -1455 0
2137 -1391 1455 0
2137 1391 -1455 0
-2138 1482 1147 0
-2138 -1482 -1147 0
2138 -1482 1147 0
2138 1482 -1147 0
-2139 -446 0
-2139 271 0
2139 446 -271 0
-2140 482 -382 0
-2140 -482 382 0
2140 -482 -382 0
2140 482 382 0
-2141 1244 1443 0
-2141 -1244 -1443 0
2141 -1244 1443 0
2141 1244 -1443 0
-2142 1296 0
-2142 -1482 0
2142 -1296 1482 0
-2143 1140 -1225 0
-2143 -1140 1225 0
2143 -1140 -1225 0
2143 1140 1225 0
-2144 -1878 0
-2144 667 0
2144 1878 -667 0
-2145 2042 0
-2145 1888 0
2145 -2042 -1888 0
-2146 1039 600 0
-2146 -1039 -600 0
2146 -1039 600 0
2146 1039 -600 0
-2147 1785 -451 0
-2147 -1785 451 0
2147 -1785 -451 0
2147 1785 451 0
-2148 992 758 0
-2148 -992 -758 0
2148 -992 758 0
2148 992 -758 0
-2149 -239 331 0
-2149 239 -331 0
2149 239 331 0
2149 -239 -331 0
-2150 1784 -572 0
-2150 -1784 572 0
2150 -1784 -572 0
2150 1784 572 0
-2151 -1221 0
-2151 120 0
2151 1221 -120 0
-2152 -1887 0
-2152 -168 0
2152 1887 168 0
-2153 741 0
-2153 -1390 0
2153 -741 1390 0
-2154 40 170 0
-2154 -40 -170 0
2154 -40 170 0
2154 40 -170 0
-2155 1278 0
-2155 1016 0
2155 -1278 -1016 0
-2156 1123 -1894 0
-2156 -1123 1894 0
2156 -1123 -1894 0
2156 1123 1894 0
-2157 1289 -433 0
-2157 -1289 433 0
2157 -1289 -433 0
2157 1289 433 0
-2158 224 1507 0
-2158 -224 -1507 0
2158 -224 1507 0
2158 224 -1507 0
-2159 477 -527 0
-2159 -477 527 0
2159 -477 -527 0
2159 477 527 0
-2160 -1821 0
-2160 951 0
2160 1821 -951 0
-2161 2039 1700 0
-2161 -2039 -1700 0
2161 -2039 1700 0
2161 2039 -1700 0
-2162 194 922 0
-2162 -194 -922 0
2162 -194 922 0
2162 194 -922 0
-2163 -1127 1010 0
-2163 1127 -1010 0
2163 1127 1010 0
2163 -1127 -1010 0
-2164 1472 0
-2164 -506 0
2164 -1472 506 0
-2165 -31 1792 0
-2165 31 -1792 0
2165 31 1792 0
2165 -31 -1792 0
-2166 -343 -1069 0
-2166 343 1069 0
2166 343 -1069 0
2166 -343 1069 0
-2167 -1395 -1672 0
-2167 1395 1672 0
2167 1395 -1672 0
2167 -1395 1672 0
-2168 1422 0
-2168 -2085 0
2168 -1422 2085 0
-2169 -1444 54 0
-2169 1444 -54 0
2169 1444 54 0
2169 -1444 -54 0
-2170 -1020 0
-2170 -732 0
2170 1020 732 0
-2171 1245 1346 0
-2171 -1245 -1346 0
2171 -1245 1346 0
2171 1245 -1346 0
-2172 705 1328 0
-2172 -705 -1328 0
2172 -705 1328 0
2172 705 -1328 0
-2173 1791 -1116 0
-2173 -1791 1116 0
2173 -1791 -1116 0
2173 1791 1116 0
-2174 1178 0
-2174 1665 0
2174 -1178 -1665 0
-2175 933 1277 0
-2175 -933 -1277 0
2175 -933 1277 0
2175 933 -1277 0
-2176 -100 1045 0
-2176 100 -1045 0
2176 100 1045 0
2176 -100 -1045 0
-2177 176 1726 0
-2177 -176 -1726 0
2177 -176 1726 0
2177 176 -1726 0
-2178 -102 -1302 0
-2178 102 1302 0
2178 102 -1302 0
2178 -102 1302 0
-2179 -743 -923 0
-2179 743 923 0
2179 743 -923 0
2179 -743 923 0
-2180 1048 1598 0
-2180 -1048 -1598 0
2180 -1048 1598 0
2180 1048 -1598 0
-2181 -1541 -2065 0
-2181 1541 2065 0
2181 1541 -2065 0
2181 -1541 2065 0
-2182 1331 0
-2182 -1430 0
2182 -1331 1430 0
-2183 -1845 0
-2183 -1275 0
2183 1845 1275 0
-2184 930 -902 0
-2184 -930 902 0
2184 -930 -902 0
2184 930 902 0
-2185 -1252 0
-2185 6 0
2185 1252 -6 0
-2186 -1607 0
-2186 1416 0
2186 1607 -1416 0
-2187 -539 0
-2187 1632 0
2187 539 -1632 0
-2188 531 1820 0
-2188 -531 -1820 0
2188 -531 1820 0
2188 531 -1820 0
-2189 -2188 -838 0
-2189 2188 838 0
2189 2188 -838 0
2189 -2188 838 0
-2190 -1958 485 0
-2190 1958 -485 0
2190 1958 485 0
2190 -1958 -485 0
-2191 779 0
-2191 1299 0
2191 -779 -1299 0
-2192 1324 -1088 0
-2192 -1324 1088 0
2192 -1324 -1088 0
2192 1324 1088 0
-2193 -1918 0
-2193 180 0
2193 1918 -180 0
-2194 1396 -438 0
-2194 -1396 438 0
2194 -1396 -438 0
2194 1396 438 0
-2195 -1426 -1672 0
-2195 1426 1672 0
2195 1426 -1672 0
2195 -1426 1672 0
-2196 796 2033 0
-2196 -796 -2033 0
2196 -796 2033 0
2196 796 -2033 0
-2197 -153 0
-2197 -1416 0
2197 153 1416 0
-2198 -318 0
-2198 722 0
2198 318 -722 0
-2199 -430 -290 0
-2199 430 290 0
2199 430 -290 0
2199 -430 290 0
-2200 48 0
-2200 1175 0
2200 -48 -1175 0
-2201 1392 0
-2201 -1521 0
2201 -1392 1521 0
-2202 -1941 0
-2202 -1415 0
2202 1941 1415 0
-2203 -1983 349 0
-2203 1983 -349 0
2203 1983 349 0
2203 -1983 -349 0
-2204 -2155 0
-2204 -16 0
2204 2155 16 0
-2205 -1473 0
-2205 -491 0
2205 1473 491 0
-2206 -1285 -304 0
-2206 1285 304 0
2206 1285 -304 0
2206 -1285 304 0
-2207 1320 0
-2207 1929 0
2207 -1320 -1929 0
-2208 2109 -1254 0
-2208 -2109 1254 0
2208 -2109 -1254 0
2208 2109 1254 0
-2209 944 -1612 0
-2209 -944 1612 0
2209 -944 -1612 0
2209 944 1612 0
-2210 -1492 1559 0
-2210 1492 -1559 0
2210 1492 1559 0
2210 -1492 -1559 0
-2211 930 462 0
-2211 -930 -462 0
2211 -930 462 0
2211 930 -462 0
-2212 1447 1833 0
-2212 -1447 -1833 0
2212 -1447 1833 0
2212 1447 -1833 0
-2213 1780 0
-2213 304 0
2213 -1780 -304 0
-2214 -992 -2206 0
-2214 992 2206 0
2214 992 -2206 0
2214 -992 2206 0
-2215 -1113 0
-2215 504 0
2215 1113 -504 0
-2216 -1914 -1896 0
-2216 1914 1896 0
2216 1914 -1896 0
2216 -1914 1896 0
-2217 -1008 0
-2217 705 0
2217 1008 -705 0
-2218 -1293 1399 0
-2218 1293 -1399 0
2218 1293 1399 0
2218 -1293 -1399 0
-2219 -1073 -1610 0
-2219 1073 1610 0
2219 1073 -1610 0
2219 -1073 1610 0
-2220 -553 2003 0
-2220 553 -2003 0
2220 553 2003 0
2220 -553 -2003 0
-2221 -1140 1242 0
-2221 1140 -1242 0
2221 1140 1242 0
2221 -1140 -1242 0
-2222 2096 -35 0
-2222 -2096 35 0
2222 -2096 -35 0
2222 2096 35 0
-2223 -141 478 0
-2223 141 -478 0
2223 141 478 0
2223 -141 -478 0
-2224 344 0
-2224 -757 0
2224 -344 757 0
-2225 -1144 0
-2225 -2095 0
2225 1144 2095 0
-2226 -1864 0
-2226 -727 0
2226 1864 727 0
-2227 -1750 -314 0
-2227 1750 314 0
2227 1750 -314 0
2227 -1750 314 0
-2228 -1394 1379 0
-2228 1394 -1379 0
2228 1394 1379 0
2228 -1394 -1379 0
-2229 -1492 0
-2229 1676 0
2229 1492 -1676 0
-2230 1088 58 0
-2230 -1088 -58 0
2230 -1088 58 0
2230 1088 -58 0
-2231 2132 -681 0
-2231 -2132 681 0
2231 -2132 -681 0
2231 2132 681 0
-2232 770 -1931 0
-2232 -770 1931 0
2232 -770 -1931 0
2232 770 1931 0
-2233 -445 0
-2233 662 0
2233 445 -662 0
-2234 -1865 353 0
-2234 1865 -353 0
2234 1865 353 0
2234 -1865 -353 0
-2235 -995 456 0
-2235 995 -456 0
2235 995 456 0
2235 -995 -456 0
-2236 1784 0
-2236 1381 0
2236 -1784 -1381 0
-2237 2169 0
-2237 989 0
2237 -2169 -989 0
-2238 59 0
-2238 -577 0
2238 -59 577 0
-2239 -1575 1462 0
-2239 1575 -1462 0
2239 1575 1462 0
2239 -1575 -1462 0
-2240 -2183 0
-2240 1569 0
2240 2183 -1569 0
-2241 432 -763 0
-2241 -432 763 0
2241 -432 -763 0
2241 432 763 0
-2242 1301 2202 0
-2242 -1301 -2202 0
2242 -1301 2202 0
2242 1301 -2202 0
-2243 136 0
-2243 2226 0
2243 -136 -2226 0
-2244 -1502 0
-2244 1232 0
2244 1502 -1232 0
-2245 793 0
-2245 -1872 0
2245 -793 1872 0
-2246 -1011 0
-2246 -709 0
2246 1011 709 0
-2247 -1011 203 0
-2247 1011 -203 0
2247 1011 203 0
2247 -1011 -203 0
-2248 735 -705 0
-2248 -735 705 0
2248 -735 -705 0
2248 735 705 0
-2249 377 258 0
-2249 -377 -258 0
2249 -377 258 0
2249 377 -258 0
-2250 -627 -2034 0
-2250 627 2034 0
2250 627 -2034 0
2250 -627 2034 0
-2251 388 1875 0
-2251 -388 -1875 0
2251 -388 1875 0
2251 388 -1875 0
-2252 2191 2001 0
-2252 -2191 -2001 0
2252 -2191 2001 0
2252 2191 -2001 0
-2253 1294 0
-2253 -1209 0
2253 -1294 1209 0
-2254 -2126 1689 0
-2254 2126 -1689 0
2254 2126 1689 0
2254 -2126 -1689 0
-2255 1539 0
-2255 428 0
2255 -1539 -428 0
-2256 1813 188 0
-2256 -1813 -188 0
2256 -1813 188 0
2256 1813 -188 0
-2257 1351 1281 0
-2257 -1351 -1281 0
2257 -1351 1281 0
2257 1351 -1281 0
-2258 477 -1660 0
-2258 -477 1660 0
2258 -477 -1660 0
2258 477 1660 0
-2259 992 -986 0
-2259 -992 986 0
2259 -992 -986 0
2259 992 986 0
-2260 -2245 -60 0
-2260 2245 60 0
2260 2245 -60 0
2260 -2245 60 0
-2261 -96 0
-2261 -1476 0
2261 96 1476 0
-2262 -585 -1983 0
-2262 585 1983 0
2262 585 -1983 0
2262 -585 1983 0
-2263 1191 663 0
-2263 -1191 -663 0
2263 -1191 663 0
2263 1191 -663 0
-2264 -833 -1687 0
-2264 833 1687 0
2264 833 -1687 0
2264 -833 1687 0
-2265 1435 -1342 0
-2265 -1435 1342 0
2265 -1435 -1342 0
2265 1435 1342 0
-2266 703 0
-2266 1476 0
2266 -703 -1476 0
-2267 -1852 0
-2267 6 0
2267 1852 -6 0
-2268 -2085 1935 0
-2268 2085 -1935 0
2268 2085 1935 0
2268 -2085 -1935 0
-2269 -1517 1423 0
-2269 1517 -1423 0
2269 1517 1423 0
2269 -1517 -1423 0
-2270 2065 0
-2270 -1699 0
2270 -2065 1699 0
-2271 -11 0
-2271 -631 0
2271 11 631 0
-2272 -2196 -2038 0
-2272 2196 2038 0
2272 2196 -2038 0
2272 -2196 2038 0
-2273 -1619 1380 0
-2273 1619 -1380 0
2273 1619 1380 0
2273 -1619 -1380 0
-2274 675 -125 0
-2274 -675 125 0
2274 -675 -125 0
2274 675 125 0
-2275 -246 0
-2275 726 0
2275 246 -726 0
-2276 -878 -1930 0
-2276 878 1930 0
2276 878 -1930 0
2276 -878 1930 0
-2277 -119 0
-2277 836 0
2277 119 -836 0
-2278 -1595 -1466 0
-2278 1595 1466 0
2278 1595 -1466 0
2278 -1595 1466 0
-2279 563 1422 0
-2279 -563 -1422 0
2279 -563 1422 0
2279 563 -1422 0
-2280 222 -288 0
-2280 -222 288 0
2280 -222 -288 0
2280 222 288 0
-2281 2090 -521 0
-2281 -2090 521 0
2281 -2090 -521 0
2281 2090 521 0
-2282 2213 0
-2282 690 0
2282 -2213 -690 0
-2283 -452 867 0
-2283 452 -867 0
2283 452 867 0
2283 -452 -867 0
-2284 -421 -1165 0
-2284 421 1165 0
2284 421 -1165 0
2284 -421 1165 0
-2285 -2158 480 0
-2285 2158 -480 0
2285 2158 480 0
2285 -2158 -480 0
-2286 1472 1800 0
-2286 -1472 -1800 0
2286 -1472 1800 0
2286 1472 -1800 0
-2287 -790 757 0
-2287 790 -757 0
2287 790 757 0
2287 -790 -757 0
-2288 1991 1363 0
-2288 -1991 -1363 0
2288 -1991 1363 0
2288 1991 -1363 0
-2289 486 -1455 0
-2289 -486 1455 0
2289 -486 -1455 0
2289 486 1455 0
-2290 -926 0
-2290 -2087 0
2290 926 2087 0
-2291 -2247 0
-2291 699 0
2291 2247 -699 0
-2292 -1880 -803 0
-2292 1880 803 0
2292 1880 -803 0
2292 -1880 803 0
-2293 1458 -351 0
-2293 -1458 351 0
2293 -1458 -351 0
2293 1458 351 0
-2294 1159 691 0
-2294 -1159 -691 0
2294 -1159 691 0
2294 1159 -691 0
-2295 -123 -491 0
-2295 123 491 0
2295 123 -491 0
2295 -123 491 0
-2296 1020 -811 0
-2296 -1020 811 0
2296 -1020 -811 0
2296 1020 811 0
-2297 -1449 -546 0
-2297 1449 546 0
2297 1449 -546 0
2297 -1449 546 0
-2298 615 150 0
-2298 -615 -150 0
2298 -615 150 0
2298 615 -150 0
-2299 843 -608 0
-2299 -843 608 0
2299 -843 -608 0
2299 843 608 0
-2300 -1957 594 0
-2300 1957 -594 0
2300 1957 594 0
2300 -1957 -594 0
-2301 5 0
-2301 1795 0
2301 -5 -1795 0
-2302 -2085 0
-2302 157 0
2302 2085 -157 0
-2303 504 588 0
-2303 -504 -588 0
2303 -504 588 0
2303 504 -588 0
-2304 1279 -1662 0
-2304 -1279 1662 0
2304 -1279 -1662 0
2304 1279 1662 0
-2305 -1092 -1883 0
-2305 1092 1883 0
2305 1092 -1883 0
2305 -1092 1883 0
-2306 1215 -105 0
-2306 -1215 105 0
2306 -1215 -105 0
2306 1215 105 0
-2307 -412 0
-2307 363 0
2307 412 -363 0
-2308 1006 -895 0
-2308 -1006 895 0
2308 -1006 -895 0
2308 1006 895 0
-2309 529 -645 0
-2309 -529 645 0
2309 -529 -645 0
2309 529 645 0
-2310 -1324 0
-2310 -2016 0
2310 1324 2016 0
-2311 -1915 -151 0
-2311 1915 151 0
2311 1915 -151 0
2311 -1915 151 0
-2312 2258 642 0
-2312 -2258 -642 0
2312 -2258 642 0
2312 2258 -642 0
-2313 2274 0
-2313 -1615 0
2313 -2274 1615 0
-2314 -2008 136 0
-2314 2008 -136 0
2314 2008 136 0
2314 -2008 -136 0
-2315 -1924 0
-2315 -2215 0
2315 1924 2215 0
-2316 -110 0
-2316 -1190 0
2316 110 1190 0
-2317 -1051 -1563 0
-2317 1051 1563 0
2317 1051 -1563 0
2317 -1051 1563 0
-2318 -1056 1871 0
-2318 1056 -1871 0
2318 1056 1871 0
2318 -1056 -1871 0
-2319 230 405 0
-2319 -230 -405 0
2319 -230 405 0
2319 230 -405 0
-2320 669 1640 0
-2320 -669 -1640 0
2320 -669 1640 0
2320 669 -1640 0
-2321 1108 1476 0
-2321 -1108 -1476 0
2321 -1108 1476 0
2321 1108 -1476 0
-2322 -597 0
-2322 975 0
2322 597 -975 0
-2323 -69 -11 0
-2323 69 11 0
2323 69 -11 0
2323 -69 11 0
-2324 -3 1730 0
-2324 3 -1730 0
2324 3 1730 0
2324 -3 -1730 0
-2325 2053 -1817 0
-2325 -2053 1817 0
2325 -2053 -1817 0
2325 2053 1817 0
-2326 440 1876 0
-2326 -440 -1876 0
2326 -440 1876 0
2326 440 -1876 0
-2327 121 2296 0
-2327 -121 -2296 0
2327 -121 2296 0
2327 121 -2296 0
-2328 -730 0
-2328 2018 0
2328 730 -2018 0
-2329 -1282 682 0
-2329 1282 -682 0
2329 1282 682 0
2329 -1282 -682 0
-2330 2236 0
-2330 1345 0
2330 -2236 -1345 0
-2331 -2220 2239 0
-2331 2220 -2239 0
2331 2220 2239 0
2331 -2220 -2239 0
-2332 1983 459 0
-2332 -1983 -459 0
2332 -1983 459 0
2332 1983 -459 0
-2333 -1291 0
-2333 2090 0
2333 1291 -2090 0
-2334 -1931 1935 0
-2334 1931 -1935 0
2334 1931 1935 0
2334 -1931 -1935 0
-2335 -2201 2267 0
-2335 2201 -2267 0
2335 2201 2267 0
2335 -2201 -2267 0
-2336 -2217 0
-2336 -29 0
2336 2217 29 0
-2337 2044 -1947 0
-2337 -2044 1947 0
2337 -2044 -1947 0
2337 2044 1947 0
-2338 313 -647 0
-2338 -313 647 0
2338 -313 -647 0
2338 313 647 0
-2339 -583 420 0
-2339 583 -420 0
2339 583 420 0
2339 -583 -420 0
-2340 -498 2101 0
-2340 498 -2101 0
2340 498 2101 0
2340 -498 -2101 0
-2341 2100 0
-2341 1296 0
2341 -2100 -1296 0
-2342 -2140 -2116 0
-2342 2140 2116 0
2342 2140 -2116 0
2342 -2140 2116 0
-2343 58 258 0
-2343 -58 -258 0
2343 -58 258 0
2343 58 -258 0
-2344 -1440 28 0
-2344 1440 -28 0
2344 1440 28 0
2344 -1440 -28 0
-2345 300 -408 0
-2345 -300 408 0
2345 -300 -408 0
2345 300 408 0
-2346 -1877 0
-2346 -2315 0
2346 1877 2315 0
-2347 -1963 1834 0
-2347 1963 -1834 0
2347 1963 1834 0
2347 -1963 -1834 0
-2348 -2110 -606 0
-2348 2110 606 0
2348 2110 -606 0
2348 -2110 606 0
-2349 -1563 0
-2349 -1759 0
2349 1563 1759 0
-2350 -965 0
-2350 728 0
2350 965 -728 0
-2351 48 0
-2351 -1831 0
2351 -48 1831 0
-2352 -1807 0
-2352 1432 0
2352 1807 -1432 0
-2353 2059 -2239 0
-2353 -2059 2239 0
2353 -2059 -2239 0
2353 2059 2239 0
-2354 -2308 1009 0
-2354 2308 -1009 0
2354 2308 1009 0
2354 -2308 -1009 0
-2355 -1691 1345 0
-2355 1691 -1345 0
2355 1691 1345 0
2355 -1691 -1345 0
-2356 1639 -959 0
-2356 -1639 959 0
2356 -1639 -959 0
2356 1639 959 0
-2357 378 -335 0
-2357 -378 335 0
2357 -378 -335 0
2357 378 335 0
-2358 1992 0
-2358 1901 0
2358 -1992 -1901 0
-2359 -1002 876 0
-2359 1002 -876 0
2359 1002 876 0
2359 -1002 -876 0
-2360 1883 -566 0
-2360 -1883 566 0
2360 -1883 -566 0
2360 1883 566 0
-2361 -865 536 0
-2361 865 -536 0
2361 865 536 0
2361 -865 -536 0
-2362 2263 0
-2362 1128 0
2362 -2263 -1128 0
-2363 1386 -1799 0
-2363 -1386 1799 0
2363 -1386 -1799 0
2363 1386 1799 0
-2364 2125 0
-2364 1522 0
2364 -2125 -1522 0
-2365 -1855 185 0
-2365 1855 -185 0
2365 1855 185 0
2365 -1855 -185 0
-2366 403 1210 0
-2366 -403 -1210 0
2366 -403 1210 0
2366 403 -1210 0
-2367 -2298 966 0
-2367 2298 -966 0
2367 2298 966 0
2367 -2298 -966 0
-2368 297 -1307 0
-2368 -297 1307 0
2368 -297 -1307 0
2368 297 1307 0
-2369 1439 0
-2369 -1053 0
2369 -1439 1053 0
-2370 2065 0
-2370 -2298 0
2370 -2065 2298 0
-2371 2289 -8 0
-2371 -2289 8 0
2371 -2289 -8 0
2371 2289 8 0
-2372 801 0
-2372 -1936 0
2372 -801 1936 0
-2373 -639 -683 0
-2373 639 683 0
2373 639 -683 0
2373 -639 683 0
-2374 1899 0
-2374 1122 0
2374 -1899 -1122 0
-2375 1792 0
-2375 -2222 0
2375 -1792 2222 0
-2376 -1333 1616 0
-2376 1333 -1616 0
2376 1333 1616 0
2376 -1333 -1616 0
-2377 937 180 0
-2377 -937 -180 0
2377 -937 180 0
2377 937 -180 0
-2378 -1683 -52 0
-2378 1683 52 0
2378 1683 -52 0
2378 -1683 52 0
-2379 857 0
-2379 2048 0
2379 -857 -2048 0
-2380 1780 -677 0
-2380 -1780 677 0
2380 -1780 -677 0
2380 1780 677 0
-2381 355 -1774 0
-2381 -355 1774 0
2381 -355 -1774 0
2381 355 1774 0
-2382 -1435 -889 0
-2382 1435 889 0
2382 1435 -889 0
2382 -1435 889 0
-2383 2185 1179 0
-2383 -2185 -1179 0
2383 -2185 1179 0
2383 2185 -1179 0
-2384 787 2008 0
-2384 -787 -2008 0
2384 -787 2008 0
2384 787 -2008 0
-2385 781 0
-2385 2350 0
2385 -781 -2350 0
-2386 1991 2213 0
-2386 -1991 -2213 0
2386 -1991 2213 0
2386 1991 -2213 0
-2387 -1103 429 0
-2387 1103 -429 0
2387 1103 429 0
2387 -1103 -429 0
-2388 -142 0
-2388 477 0
2388 142 -477 0
-2389 2156 0
-2389 -413 0
2389 -2156 413 0
-2390 -1551 0
-2390 1461 0
2390 1551 -1461 0
-2391 903 1286 0
-2391 -903 -1286 0
2391 -903 1286 0
2391 903 -1286 0
-2392 -1854 -1715 0
-2392 1854 1715 0
2392 1854 -1715 0
2392 -1854 1715 0
-2393 1876 1498 0
-2393 -1876 -1498 0
2393 -1876 1498 0
2393 1876 -1498 0
-2394 374 -2043 0
-2394 -374 2043 0
2394 -374 -2043 0
2394 374 2043 0
-2395 -1076 -2160 0
-2395 1076 2160 0
2395 1076 -2160 0
2395 -1076 2160 0
-2396 784 -1318 0
-2396 -784 1318 0
2396 -784 -1318 0
2396 784 1318 0
-2397 -1166 -881 0
-2397 1166 881 0
2397 1166 -881 0
2397 -1166 881 0
-2398 -2348 0
-2398 -892 0
2398 2348 892 0
-2399 1441 0
-2399 -489 0
2399 -1441 489 0
-2400 388 0
-2400 84 0
2400 -388 -84 0
-2401 -2299 1176 0
-2401 2299 -1176 0
2401 2299 1176 0
2401 -2299 -1176 0
-2402 1377 643 0
-2402 -1377 -643 0
2402 -1377 643 0
2402 1377 -643 0
-2403 1859 0
-2403 -2174 0
2403 -1859 2174 0
-2404 -2196 -2365 0
-2404 2196 2365 0
2404 2196 -2365 0
2404 -2196 2365 0
-2405 2242 1762 0
-2405 -2242 -1762 0
2405 -2242 1762 0
2405 2242 -1762 0
-2406 -1928 -2264 0
-2406 1928 2264 0
2406 1928 -2264 0
2406 -1928 2264 0
-2407 1715 -616 0
-2407 -1715 616 0
2407 -1715 -616 0
2407 1715 616 0
-2408 1908 0
-2408 -944 0
2408 -1908 944 0
-2409 127 0
-2409 2074 0
2409 -127 -2074 0
-2410 528 0
-2410 -1491 0
2410 -528 1491 0
-2411 -419 -1836 0
-2411 419 1836 0
2411 419 -1836 0
2411 -419 1836 0
-2412 -374 0
-2412 1970 0
2412 374 -1970 0
-2413 1131 0
-2413 959 0
2413 -1131 -959 0
-2414 -1948 -1251 0
-2414 1948 1251 0
2414 1948 -1251 0
2414 -1948 1251 0
-2415 -2181 -637 0
-2415 2181 637 0
2415 2181 -637 0
2415 -2181 637 0
-2416 -1593 -1652 0
-2416 1593 1652 0
2416 1593 -1652 0
2416 -1593 1652 0
-2417 1464 -2095 0
-2417 -1464 2095 0
2417 -1464 -2095 0
2417 1464 2095 0
-2418 144 -180 0
-2418 -144 180 0
2418 -144 -180 0
2418 144 180 0
-2419 594 -1252 0
-2419 -594 1252 0
2419 -594 -1252 0
2419 594 1252 0
-2420 -1395 -990 0
-2420 1395 990 0
2420 1395 -990 0
2420 -1395 990 0
-2421 -221 940 0
-2421 221 -940 0
2421 221 940 0
2421 -221 -940 0
-2422 -2306 0
-2422 1052 0
2422 2306 -1052 0
-2423 -936 0
-2423 -2161 0
2423 936 2161 0
-2424 -1237 -352 0
-2424 1237 352 0
2424 1237 -352 0
2424 -1237 352 0
-2425 640 -1685 0
-2425 -640 1685 0
2425 -640 -1685 0
2425 640 1685 0
-2426 -1302 -1540 0
-2426 1302 1540 0
2426 1302 -1540 0
2426 -1302 1540 0
-2427 1450 0
-2427 2383 0
2427 -1450 -2383 0
-2428 507 0
-2428 -1415 0
2428 -507 1415 0
-2429 510 683 0
-2429 -510 -683 0
2429 -510 683 0
2429 510 -683 0
-2430 -1 -1726 0
-2430 1 1726 0
2430 1 -1726 0
2430 -1 1726 0
-2431 1530 0
-2431 -763 0
2431 -1530 763 0
-2432 -2356 -814 0
-2432 2356 814 0
2432 2356 -814 0
2432 -2356 814 0
-2433 -1877 -1456 0
-2433 1877 1456 0
2433 1877 -1456 0
2433 -1877 1456 0
-2434 643 -1418 0
-2434 -643 1418 0
2434 -643 -1418 0
2434 643 1418 0
-2435 1151 -420 0
-2435 -1151 420 0
2435 -1151 -420 0
2435 1151 420 0
-2436 -1931 371 0
-2436 1931 -371 0
2436 1931 371 0
2436 -1931 -371 0
-2437 -9 -1461 0
-2437 9 1461 0
2437 9 -1461 0
2437 -9 1461 0
-2438 -925 0
-2438 -2179 0
2438 925 2179 0
-2439 -292 -329 0
-2439 292 329 0
2439 292 -329 0
2439 -292 329 0
-2440 2076 2200 0
-2440 -2076 -2200 0
2440 -2076 2200 0
2440 2076 -2200 0
-2441 1881 1726 0
-2441 -1881 -1726 0
2441 -1881 1726 0
2441 1881 -1726 0
-2442 1874 2079 0
-2442 -1874 -2079 0
2442 -1874 2079 0
2442 1874 -2079 0
-2443 -472 0
-2443 -1112 0
2443 472 1112 0
-2444 1551 0
-2444 -2225 0
2444 -1551 2225 0
-2445 2236 0
-2445 1505 0
2445 -2236 -1505 0
-2446 -2184 1143 0
-2446 2184 -1143 0
2446 2184 1143 0
2446 -2184 -1143 0
-2447 465 -2143 0
-2447 -465 2143 0
2447 -465 -2143 0
2447 465 2143 0
-2448 -2164 0
-2448 13 0
2448 2164 -13 0
-2449 2313 0
-2449 1817 0
2449 -2313 -1817 0
-2450 88 0
-2450 -170 0
2450 -88 170 0
-2451 -1581 -918 0
-2451 1581 918 0
2451 1581 -918 0
2451 -1581 918 0
-2452 -928 0
-2452 -234 0
2452 928 234 0
-2453 -1243 0
-2453 -1054 0
2453 1243 1054 0
-2454 912 -1432 0
-2454 -912 1432 0
2454 -912 -1432 0
2454 912 1432 0
-2455 812 739 0
-2455 -812 -739 0
2455 -812 739 0
2455 812 -739 0
-2456 1888 1908 0
-2456 -1888 -1908 0
2456 -1888 1908 0
2456 1888 -1908 0
-2457 1848 -1985 0
-2457 -1848 1985 0
2457 -1848 -1985 0
2457 1848 1985 0
-2458 2282 -2426 0
-2458 -2282 2426 0
2458 -2282 -2426 0
2458 2282 2426 0
-2459 1059 1733 0
-2459 -1059 -1733 0
2459 -1059 1733 0
2459 1059 -1733 0
-2460 2315 -532 0
-2460 -2315 532 0
2460 -2315 -532 0
2460 2315 532 0
-2461 -2103 1915 0
-2461 2103 -1915 0
2461 2103 1915 0
2461 -2103 -1915 0
-2462 1704 135 0
-2462 -1704 -135 0
2462 -1704 135 0
2462 1704 -135 0
-2463 1993 1530 0
-2463 -1993 -1530 0
2463 -1993 1530 0
2463 1993 -1530 0
-2464 41 74 0
-2464 -41 -74 0
2464 -41 74 0
2464 41 -74 0
-2465 -2449 0
-2465 -102 0
2465 2449 102 0
-2466 900 1983 0
-2466 -900 -1983 0
2466 -900 1983 0
2466 900 -1983 0
-2467 2447 1027 0
-2467 -2447 -1027 0
2467 -2447 1027 0
2467 2447 -1027 0
-2468 -1635 -1930 0
-2468 1635 1930 0
2468 1635 -1930 0
2468 -1635 1930 0
-2469 2335 -83 0
-2469 -2335 83 0
2469 -2335 -83 0
2469 2335 83 0
-2470 -2437 732 0
-2470 2437 -732 0
2470 2437 732 0
2470 -2437 -732 0
-2471 -1747 0
-2471 -2396 0
2471 1747 2396 0
-2472 2359 2444 0
-2472 -2359 -2444 0
2472 -2359 2444 0
2472 2359 -2444 0
-2473 -2114 1658 0
-2473 2114 -1658 0
2473 2114 1658 0
2473 -2114 -1658 0
-2474 2241 0
-2474 1977 0
2474 -2241 -1977 0
-2475 1963 0
-2475 -600 0
2475 -1963 600 0
-2476 176 -2181 0
-2476 -176 2181 0
2476 -176 -2181 0
2476 176 2181 0
-2477 -1969 0
-2477 1063 0
2477 1969 -1063 0
-2478 1409 333 0
-2478 -1409 -333 0
2478 -1409 333 0
2478 1409 -333 0
-2479 2296 1353 0
-2479 -2296 -1353 0
2479 -2296 1353 0
2479 2296 -1353 0
-2480 -979 833 0
-2480 979 -833 0
2480 979 833 0
2480 -979 -833 0
-2481 -1666 0
-2481 -1422 0
2481 1666 1422 0
-2482 -1356 0
-2482 -1821 0
2482 1356 1821 0
-2483 1190 0
-2483 2412 0
2483 -1190 -2412 0
-2484 -2255 0
-2484 -11 0
2484 2255 11 0
-2485 -1051 0
-2485 -913 0
2485 1051 913 0
-2486 -1788 0
-2486 1575 0
2486 1788 -1575 0
-2487 -757 2183 0
-2487 757 -2183 0
2487 757 2183 0
2487 -757 -2183 0
-2488 191 0
-2488 -1041 0
2488 -191 1041 0
-2489 -1791 0
-2489 1940 0
2489 1791 -1940 0
-2490 913 -843 0
-2490 -913 843 0
2490 -913 -843 0
2490 913 843 0
-2491 -1899 2374 0
-2491 1899 -2374 0
2491 1899 2374 0
2491 -1899 -2374 0
-2492 1397 387 0
-2492 -1397 -387 0
2492 -1397 387 0
2492 1397 -387 0
-2493 941 593 0
-2493 -941 -593 0
2493 -941 593 0
2493 941 -593 0
-2494 -967 0
-2494 950 0
2494 967 -950 0
-2495 240 3 0
-2495 -240 -3 0
2495 -240 3 0
2495 240 -3 0
-2496 1931 1824 0
-2496 -1931 -1824 0
2496 -1931 1824 0
2496 1931 -1824 0
-2497 -424 554 0
-2497 424 -554 0
2497 424 554 0
2497 -424 -554 0
-2498 -563 0
-2498 -1240 0
2498 563 1240 0
-2499 -129 92 0
-2499 129 -92 0
2499 129 92 0
2499 -129 -92 0
-2500 1976 -815 0
-2500 -1976 815 0
2500 -1976 -815 0
2500 1976 815 0
-2501 -1674 -1243 0
-2501 1674 1243 0
2501 1674 -1243 0
2501 -1674 1243 0
-2502 -1818 1061 0
-2502 1818 -1061 0
2502 1818 1061 0
2502 -1818 -1061 0
-2503 -2423 0
-2503 -1845 0
2503 2423 1845 0
-2504 -564 805 0
-2504 564 -805 0
2504 564 805 0
2504 -564 -805 0
-2505 -529 0
-2505 993 0
2505 529 -993 0
-2506 -168 0
-2506 1120 0
2506 168 -1120 0
-2507 1755 -210 0
-2507 -1755 210 0
2507 -1755 -210 0
2507 1755 210 0
-2508 -1954 0
-2508 -741 0
2508 1954 741 0
-2509 2406 0
-2509 1894 0
2509 -2406 -1894 0
-2510 1626 0
-2510 2378 0
2510 -1626 -2378 0
-2511 2432 2483 0
-2511 -2432 -2483 0
2511 -2432 2483 0
2511 2432 -2483 0
-2512 1528 916 0
-2512 -1528 -916 0
2512 -1528 916 0
2512 1528 -916 0
-2513 2413 -220 0
-2513 -2413 220 0
2513 -2413 -220 0
2513 2413 220 0
-2514 -724 -1182 0
-2514 724 1182 0
2514 724 -1182 0
2514 -724 1182 0
-2515 752 0
-2515 -1521 0
2515 -752 1521 0
-2516 1 1683 0
-2516 -1 -1683 0
2516 -1 1683 0
2516 1 -1683 0
-2517 -1859 0
-2517 -1098 0
2517 1859 1098 0
-2518 2487 705 0
-2518 -2487 -705 0
2518 -2487 705 0
2518 2487 -705 0
-2519 -954 0
-2519 2432 0
2519 954 -2432 0
-2520 -577 -2215 0
-2520 577 2215 0
2520 577 -2215 0
2520 -577 2215 0
-2521 2309 -2069 0
-2521 -2309 2069 0
2521 -2309 -2069 0
2521 2309 2069 0
-2522 462 1355 0
-2522 -462 -1355 0
2522 -462 1355 0
2522 462 -1355 0
-2523 -888 -483 0
-2523 888 483 0
2523 888 -483 0
2523 -888 483 0
-2524 -490 0
-2524 -2061 0
2524 490 2061 0
-2525 1483 0
-2525 2066 0
2525 -1483 -2066 0
-2526 -1583 2269 0
-2526 1583 -2269 0
2526 1583 2269 0
2526 -1583 -2269 0
-2527 466 -1189 0
-2527 -466 1189 0
2527 -466 -1189 0
2527 466 1189 0
-2528 -1907 1755 0
-2528 1907 -1755 0
2528 1907 1755 0
2528 -1907 -1755 0
-2529 1087 -1787 0
-2529 -1087 1787 0
2529 -1087 -1787 0
2529 1087 1787 0
-2530 1505 0
-2530 -1522 0
2530 -1505 1522 0
-2531 2467 93 0
-2531 -2467 -93 0
2531 -2467 93 0
2531 2467 -93 0
-2532 -598 -2502 0
-2532 598 2502 0
2532 598 -2502 0
2532 -598 2502 0
-2533 -470 -25 0
-2533 470 25 0
2533 470 -25 0
2533 -470 25 0
-2534 1738 1747 0
-2534 -1738 -1747 0
2534 -1738 1747 0
2534 1738 -1747 0
-2535 -1651 0
-2535 905 0
2535 1651 -905 0
-2536 908 -1484 0
-2536 -908 1484 0
2536 -908 -1484 0
2536 908 1484 0
-2537 2381 0
-2537 -1518 0
2537 -2381 1518 0
-2538 -1010 0
-2538 -387 0
2538 1010 387 0
-2539 21 -1127 0
-2539 -21 1127 0
2539 -21 -1127 0
2539 21 1127 0
-2540 255 0
-2540 263 0
2540 -255 -263 0
-2541 -2514 0
-2541 -2283 0
2541 2514 2283 0
-2542 -1164 -339 0
-2542 1164 339 0
2542 1164 -339 0
2542 -1164 339 0
-2543 -288 -684 0
-2543 288 684 0
2543 288 -684 0
2543 -288 684 0
-2544 1051 0
-2544 -2046 0
2544 -1051 2046 0
-2545 -1443 69 0
-2545 1443 -69 0
2545 1443 69 0
2545 -1443 -69 0
-2546 -104 0
-2546 2489 0
2546 104 -2489 0
-2547 1794 467 0
-2547 -1794 -467 0
2547 -1794 467 0
2547 1794 -467 0
-2548 2352 2066 0
-2548 -2352 -2066 0
2548 -2352 2066 0
2548 2352 -2066 0
-2549 -77 -501 0
-2549 77 501 0
2549 77 -501 0
2549 -77 501 0
-2550 -2408 2308 0
-2550 2408 -2308 0
2550 2408 2308 0
2550 -2408 -2308 0
-2551 -811 1775 0
-2551 811 -1775 0
2551 811 1775 0
2551 -811 -1775 0
-2552 -901 0
-2552 -594 0
2552 901 594 0
-2553 1864 -951 0
-2553 -1864 951 0
2553 -1864 -951 0
2553 1864 951 0
-2554 -2177 568 0
-2554 2177 -568 0
2554 2177 568 0
2554 -2177 -568 0
-2555 -1713 -1554 0
-2555 1713 1554 0
2555 1713 -1554 0
2555 -1713 1554 0
-2556 -1484 -2135 0
-2556 1484 2135 0
2556 1484 -2135 0
2556 -1484 2135 0
-2557 2093 20 0
-2557 -2093 -20 0
2557 -2093 20 0
2557 2093 -20 0
-2558 2148 -266 0
-2558 -2148 266 0
2558 -2148 -266 0
2558 2148 266 0
-2559 1966 0
-2559 2093 0
2559 -1966 -2093 0
-2560 -1129 -262 0
-2560 1129 262 0
2560 1129 -262 0
2560 -1129 262 0
-2561 2375 -555 0
-2561 -2375 555 0
2561 -2375 -555 0
2561 2375 555 0
-2562 -296 -2293 0
-2562 296 2293 0
2562 296 -2293 0
2562 -296 2293 0
-2563 1425 1744 0
-2563 -1425 -1744 0
2563 -1425 1744 0
2563 1425 -1744 0
-2564 173 -908 0
-2564 -173 908 0
2564 -173 -908 0
2564 173 908 0
-2565 1604 1380 0
-2565 -1604 -1380 0
2565 -1604 1380 0
2565 1604 -1380 0
-2566 2079 0
-2566 1408 0
2566 -2079 -1408 0
-2567 782 0
-2567 67 0
2567 -782 -67 0
-2568 -1108 -1016 0
-2568 1108 1016 0
2568 1108 -1016 0
2568 -1108 1016 0
-2569 -348 0
-2569 644 0
2569 348 -644 0
-2570 -894 0
-2570 1024 0
2570 894 -1024 0
-2571 -304 -1302 0
-2571 304 1302 0
2571 304 -1302 0
2571 -304 1302 0
-2572 306 -1506 0
-2572 -306 1506 0
2572 -306 -1506 0
2572 306 1506 0
-2573 1881 -2488 0
-2573 -1881 2488 0
2573 -1881 -2488 0
2573 1881 2488 0
-2574 299 0
-2574 -1908 0
2574 -299 1908 0
-2575 -2332 -570 0
-2575 2332 570 0
2575 2332 -570 0
2575 -2332 570 0
-2576 799 -1265 0
-2576 -799 1265 0
2576 -799 -1265 0
2576 799 1265 0
-2577 2507 1919 0
-2577 -2507 -1919 0
2577 -2507 1919 0
2577 2507 -1919 0
-2578 1458 -1294 0
-2578 -1458 1294 0
2578 -1458 -1294 0
2578 1458 1294 0
-2579 1058 -1476 0
-2579 -1058 1476 0
2579 -1058 -1476 0
2579 1058 1476 0
-2580 1894 643 0
-2580 -1894 -643 0
2580 -1894 643 0
2580 1894 -643 0
-2581 -1529 0
-2581 -2326 0
2581 1529 2326 0
-2582 -2505 -1385 0
-2582 2505 1385 0
2582 2505 -1385 0
2582 -2505 1385 0
-2583 521 0
-2583 -784 0
2583 -521 784 0
-2584 2583 0
-2584 -2329 0
2584 -2583 2329 0
-2585 -2096 2253 0
-2585 2096 -2253 0
2585 2096 2253 0
2585 -2096 -2253 0
-2586 -949 0
-2586 2146 0
2586 949 -2146 0
-2587 1929 0
-2587 1108 0
2587 -1929 -1108 0
-2588 1441 0
-2588 -2168 0
2588 -1441 2168 0
-2589 1519 0
-2589 1230 0
2589 -1519 -1230 0
-2590 -198 0
-2590 -477 0
2590 198 477 0
-2591 -2523 1289 0
-2591 2523 -1289 0
2591 2523 1289 0
2591 -2523 -1289 0
-2592 -2225 0
-2592 1718 0
2592 2225 -1718 0
-2593 -789 0
-2593 -1721 0
2593 789 1721 0
-2594 -2149 -1535 0
-2594 2149 1535 0
2594 2149 -1535 0
2594 -2149 1535 0
-2595 -1867 -2363 0
-2595 1867 2363 0
2595 1867 -2363 0
2595 -1867 2363 0
-2596 2000 0
-2596 -958 0
2596 -2000 958 0
-2597 -1880 -403 0
-2597 1880 403 0
2597 1880 -403 0
2597 -1880 403 0
-2598 -1378 -360 0
-2598 1378 360 0
2598 1378 -360 0
2598 -1378 360 0
-2599 1078 0
-2599 808 0
2599 -1078 -808 0
-2600 2178 1565 0
-2600 -2178 -1565 0
2600 -2178 1565 0
2600 2178 -1565 0
-2601 -1393 -2062 0
-2601 1393 2062 0
2601 1393 -2062 0
2601 -1393 2062 0
-2602 -1378 1024 0
-2602 1378 -1024 0
2602 1378 1024 0
2602 -1378 -1024 0
-2603 -2122 319 0
-2603 2122 -319 0
2603 2122 319 0
2603 -2122 -319 0
-2604 2600 0
-2604 2134 0
2604 -2600 -2134 0
-2605 44 -2143 0
-2605 -44 2143 0
2605 -44 -2143 0
2605 44 2143 0
-2606 126 0
-2606 302 0
2606 -126 -302 0
-2607 2225 -1411 0
-2607 -2225 1411 0
2607 -2225 -1411 0
2607 2225 1411 0
-2608 -2117 0
-2608 2140 0
2608 2117 -2140 0
-2609 1882 0
-2609 1634 0
2609 -1882 -1634 0
-2610 2296 0
-2610 586 0
2610 -2296 -586 0
-2611 2129 629 0
-2611 -2129 -629 0
2611 -2129 629 0
2611 2129 -629 0
-2612 1931 1867 0
-2612 -1931 -1867 0
2612 -1931 1867 0
2612 1931 -1867 0
-2613 2521 1297 0
-2613 -2521 -1297 0
2613 -2521 1297 0
2613 2521 -1297 0
-2614 -2079 1484 0
-2614 2079 -1484 0
2614 2079 1484 0
2614 -2079 -1484 0
-2615 -2220 -2318 0
-2615 2220 2318 0
2615 2220 -2318 0
2615 -2220 2318 0
-2616 -1899 1206 0
-2616 1899 -1206 0
2616 1899 1206 0
2616 -1899 -1206 0
-2617 -1206 957 0
-2617 1206 -957 0
2617 1206 957 0
2617 -1206 -957 0
-2618 932 1347 0
-2618 -932 -1347 0
2618 -932 1347 0
2618 932 -1347 0
-2619 246 811 0
-2619 -246 -811 0
2619 -246 811 0
2619 246 -811 0
-2620 -1439 1863 0
-2620 1439 -1863 0
2620 1439 1863 0
2620 -1439 -1863 0
-2621 -1413 2163 0
-2621 1413 -2163 0
2621 1413 2163 0
2621 -1413 -2163 0
-2622 1828 1702 0
-2622 -1828 -1702 0
2622 -1828 1702 0
2622 1828 -1702 0
-2623 -314 -1465 0
-2623 314 1465 0
2623 314 -1465 0
2623 -314 1465 0
-2624 -1283 -649 0
-2624 1283 649 0
2624 1283 -649 0
2624 -1283 649 0
-2625 -2128 -702 0
-2625 2128 702 0
2625 2128 -702 0
2625 -2128 702 0
-2626 1335 935 0
-2626 -1335 -935 0
2626 -1335 935 0
2626 1335 -935 0
-2627 2104 2040 0
-2627 -2104 -2040 0
2627 -2104 2040 0
2627 2104 -2040 0
-2628 1788 -35 0
-2628 -1788 35 0
2628 -1788 -35 0
2628 1788 35 0
-2629 -2006 -886 0
-2629 2006 886 0
2629 2006 -886 0
2629 -2006 886 0
-2630 -951 825 0
-2630 951 -825 0
2630 951 825 0
2630 -951 -825 0
-2631 1672 0
-2631 2255 0
2631 -1672 -2255 0
-2632 -1226 0
-2632 2277 0
2632 1226 -2277 0
-2633 423 0
-2633 -1384 0
2633 -423 1384 0
-2634 -676 1081 0
-2634 676 -1081 0
2634 676 1081 0
2634 -676 -1081 0
-2635 -1340 2631 0
-2635 1340 -2631 0
2635 1340 2631 0
2635 -1340 -2631 0
-2636 -593 -1257 0
-2636 593 1257 0
2636 593 -1257 0
2636 -593 1257 0
-2637 -884 0
-2637 -1224 0
2637 884 1224 0
-2638 804 2030 0
-2638 -804 -2030 0
2638 -804 2030 0
2638 804 -2030 0
-2639 -1782 -2077 0
-2639 1782 2077 0
2639 1782 -2077 0
2639 -1782 2077 0
-2640 -2540 1184 0
-2640 2540 -1184 0
2640 2540 1184 0
2640 -2540 -1184 0
-2641 1933 -503 0
-2641 -1933 503 0
2641 -1933 -503 0
2641 1933 503 0
-2642 -1950 2568 0
-2642 1950 -2568 0
2642 1950 2568 0
2642 -1950 -2568 0
-2643 -2359 -1969 0
-2643 2359 1969 0
2643 2359 -1969 0
2643 -2359 1969 0
-2644 1474 -1062 0
-2644 -1474 1062 0
2644 -1474 -1062 0
2644 1474 1062 0
-2645 2146 0
-2645 2071 0
2645 -2146 -2071 0
-2646 1369 -1492 0
-2646 -1369 1492 0
2646 -1369 -1492 0
2646 1369 1492 0
-2647 -1389 0
-2647 670 0
2647 1389 -670 0
-2648 -2277 357 0
-2648 2277 -357 0
2648 2277 357 0
2648 -2277 -357 0
-2649 -335 163 0
-2649 335 -163 0
2649 335 163 0
2649 -335 -163 0
-2650 75 -773 0
-2650 -75 773 0
2650 -75 -773 0
2650 75 773 0
-2651 -170 -1420 0
-2651 170 1420 0
2651 170 -1420 0
2651 -170 1420 0
-2652 -1233 -262 0
-2652 1233 262 0
2652 1233 -262 0
2652 -1233 262 0
-2653 -477 -503 0
-2653 477 503 0
2653 477 -503 0
2653 -477 503 0
-2654 1239 0
-2654 -2233 0
2654 -1239 2233 0
-2655 272 899 0
-2655 -272 -899 0
2655 -272 899 0
2655 272 -899 0
-2656 -1261 1355 0
-2656 1261 -1355 0
2656 1261 1355 0
2656 -1261 -1355 0
-2657 -1873 -1061 0
-2657 1873 1061 0
2657 1873 -1061 0
2657 -1873 1061 0
-2658 878 187 0
-2658 -878 -187 0
2658 -878 187 0
2658 878 -187 0
-2659 -1957 835 0
-2659 1957 -835 0
2659 1957 835 0
2659 -1957 -835 0
-2660 101 0
-2660 1371 0
2660 -101 -1371 0
-2661 -1137 -1459 0
-2661 1137 1459 0
2661 1137 -1459 0
2661 -1137 1459 0
-2662 1636 2156 0
-2662 -1636 -2156 0
2662 -1636 2156 0
2662 1636 -2156 0
-2663 1384 2103 0
-2663 -1384 -2103 0
2663 -1384 2103 0
2663 1384 -2103 0
-2664 -2575 -564 0
-2664 2575 564 0
2664 2575 -564 0
2664 -2575 564 0
-2665 575 -565 0
-2665 -575 565 0
2665 -575 -565 0
2665 575 565 0
-2666 -1614 626 0
-2666 1614 -626 0
2666 1614 626 0
2666 -1614 -626 0
-2667 -496 0
-2667 -1268 0
2667 496 1268 0
-2668 346 0
-2668 2300 0
2668 -346 -2300 0
-2669 346 0
-2669 1963 0
2669 -346 -1963 0
-2670 531 -1923 0
-2670 -531 1923 0
2670 -531 -1923 0
2670 531 1923 0
-2671 -1990 0
-2671 830 0
2671 1990 -830 0
-2672 870 37 0
-2672 -870 -37 0
2672 -870 37 0
2672 870 -37 0
-2673 -1959 0
-2673 -521 0
2673 1959 521 0
-2674 -158 1101 0
-2674 158 -1101 0
2674 158 1101 0
2674 -158 -1101 0
-2675 -435 295 0
-2675 435 -295 0
2675 435 295 0
2675 -435 -295 0
-2676 -70 -2186 0
-2676 70 2186 0
2676 70 -2186 0
2676 -70 2186 0
-2677 -1047 -1665 0
-2677 1047 1665 0
2677 1047 -1665 0
2677 -1047 1665 0
-2678 -307 2619 0
-2678 307 -2619 0
2678 307 2619 0
2678 -307 -2619 0
-2679 1793 -474 0
-2679 -1793 474 0
2679 -1793 -474 0
2679 1793 474 0
-2680 -2660 0
-2680 248 0
2680 2660 -248 0
-2681 2221 0
-2681 1629 0
2681 -2221 -1629 0
-2682 -1852 741 0
-2682 1852 -741 0
2682 1852 741 0
2682 -1852 -741 0
-2683 -1940 -1720 0
-2683 1940 1720 0
2683 1940 -1720 0
2683 -1940 1720 0
-2684 -683 0
-2684 2057 0
2684 683 -2057 0
-2685 86 1571 0
-2685 -86 -1571 0
2685 -86 1571 0
2685 86 -1571 0
-2686 1879 -947 0
-2686 -1879 947 0
2686 -1879 -947 0
2686 1879 947 0
-2687 2061 1573 0
-2687 -2061 -1573 0
2687 -2061 1573 0
2687 2061 -1573 0
-2688 -2613 -2316 0
-2688 2613 2316 0
2688 2613 -2316 0
2688 -2613 2316 0
-2689 -700 1430 0
-2689 700 -1430 0
2689 700 1430 0
2689 -700 -1430 0
-2690 -1065 0
-2690 2436 0
2690 1065 -2436 0
-2691 -207 0
-2691 758 0
2691 207 -758 0
-2692 1371 -2287 0
-2692 -1371 2287 0
2692 -1371 -2287 0
2692 1371 2287 0
-2693 -2173 -1183 0
-2693 2173 1183 0
2693 2173 -1183 0
2693 -2173 1183 0
-2694 1957 -1916 0
-2694 -1957 1916 0
2694 -1957 -1916 0
2694 1957 1916 0
-2695 1975 430 0
-2695 -1975 -430 0
2695 -1975 430 0
2695 1975 -430 0
-2696 -1757 0
-2696 -670 0
2696 1757 670 0
-2697 -2069 0
-2697 -1461 0
2697 2069 1461 0
-2698 -2047 0
-2698 -1881 0
2698 2047 1881 0
-2699 304 1253 0
-2699 -304 -1253 0
2699 -304 1253 0
2699 304 -1253 0
-2700 -409 951 0
-2700 409 -951 0
2700 409 951 0
2700 -409 -951 0
-2701 840 0
-2701 708 0
2701 -840 -708 0
-2702 1154 1452 0
-2702 -1154 -1452 0
2702 -1154 1452 0
2702 1154 -1452 0
-2703 1419 0
-2703 -77 0
2703 -1419 77 0
-2704 -2301 0
-2704 615 0
2704 2301 -615 0
-2705 -412 -607 0
-2705 412 607 0
2705 412 -607 0
2705 -412 607 0
-2706 1810 0
-2706 -2446 0
2706 -1810 2446 0
-2707 -2069 1812 0
-2707 2069 -1812 0
2707 2069 1812 0
2707 -2069 -1812 0
-2708 2565 -2604 0
-2708 -2565 2604 0
2708 -2565 -2604 0
2708 2565 2604 0
-2709 -2162 -1716 0
-2709 2162 1716 0
2709 2162 -1716 0
2709 -2162 1716 0
-2710 921 0
-2710 2041 0
2710 -921 -2041 0
-2711 -518 2144 0
-2711 518 -2144 0
2711 518 2144 0
2711 -518 -2144 0
-2712 -216 -2050 0
-2712 216 2050 0
2712 216 -2050 0
2712 -216 2050 0
-2713 -1420 0
-2713 -2596 0
2713 1420 2596 0
-2714 -2503 0
-2714 -752 0
2714 2503 752 0
-2715 2341 0
-2715 199 0
2715 -2341 -199 0
-2716 -910 0
-2716 175 0
2716 910 -175 0
-2717 1585 0
-2717 -2067 0
2717 -1585 2067 0
-2718 1614 1844 0
-2718 -1614 -1844 0
2718 -1614 1844 0
2718 1614 -1844 0
-2719 -2680 2412 0
-2719 2680 -2412 0
2719 2680 2412 0
2719 -2680 -2412 0
-2720 2623 2432 0
-2720 -2623 -2432 0
2720 -2623 2432 0
2720 2623 -2432 0
-2721 2525 -1585 0
-2721 -2525 1585 0
2721 -2525 -1585 0
2721 2525 1585 0
-2722 -663 0
-2722 -1233 0
2722 663 1233 0
-2723 -2514 0
-2723 201 0
2723 2514 -201 0
-2724 237 -2377 0
-2724 -237 2377 0
2724 -237 -2377 0
2724 237 2377 0
-2725 1454 0
-2725 -342 0
2725 -1454 342 0
-2726 2546 -2485 0
-2726 -2546 2485 0
2726 -2546 -2485 0
2726 2546 2485 0
-2727 201 -158 0
-2727 -201 158 0
2727 -201 -158 0
2727 201 158 0
-2728 -1447 0
-2728 -1123 0
2728 1447 1123 0
-2729 -2616 0
-2729 -2365 0
2729 2616 2365 0
-2730 1240 -722 0
-2730 -1240 722 0
2730 -1240 -722 0
2730 1240 722 0
-2731 284 -1836 0
-2731 -284 1836 0
2731 -284 -1836 0
2731 284 1836 0
-2732 -2272 -1162 0
-2732 2272 1162 0
2732 2272 -1162 0
2732 -2272 1162 0
-2733 1119 125 0
-2733 -1119 -125 0
2733 -1119 125 0
2733 1119 -125 0
-2734 -2500 2086 0
-2734 2500 -2086 0
2734 2500 2086 0
2734 -2500 -2086 0
-2735 1880 -35 0
-2735 -1880 35 0
2735 -1880 -35 0
2735 1880 35 0
-2736 -537 540 0
-2736 537 -540 0
2736 537 540 0
2736 -537 -540 0
-2737 854 1719 0
-2737 -854 -1719 0
2737 -854 1719 0
2737 854 -1719 0
-2738 -1149 700 0
-2738 1149 -700 0
2738 1149 700 0
2738 -1149 -700 0
-2739 -1695 2378 0
-2739 1695 -2378 0
2739 1695 2378 0
2739 -1695 -2378 0
-2740 1216 0
-2740 -389 0
2740 -1216 389 0
-2741 1775 -832 0
-2741 -1775 832 0
2741 -1775 -832 0
2741 1775 832 0
-2742 -1856 1773 0
-2742 1856 -1773 0
2742 1856 1773 0
2742 -1856 -1773 0
-2743 -122 347 0
-2743 122 -347 0
2743 122 347 0
2743 -122 -347 0
-2744 1706 651 0
-2744 -1706 -651 0
2744 -1706 651 0
2744 1706 -651 0
-2745 -678 2636 0
-2745 678 -2636 0
2745 678 2636 0
2745 -678 -2636 0
-2746 2589 1053 0
-2746 -2589 -1053 0
2746 -2589 1053 0
2746 2589 -1053 0
-2747 -658 153 0
-2747 658 -153 0
2747 658 153 0
2747 -658 -153 0
-2748 1228 0
-2748 2729 0
2748 -1228 -2729 0
-2749 2037 -2473 0
-2749 -2037 2473 0
2749 -2037 -2473 0
2749 2037 2473 0
-2750 -195 -2412 0
-2750 195 2412 0
2750 195 -2412 0
2750 -195 2412 0
-2751 2008 410 0
-2751 -2008 -410 0
2751 -2008 410 0
2751 2008 -410 0
-2752 2161 428 0
-2752 -2161 -428 0
2752 -2161 428 0
2752 2161 -428 0
-2753 1273 755 0
-2753 -1273 -755 0
2753 -1273 755 0
2753 1273 -755 0
-2754 1527 2523 0
-2754 -1527 -2523 0
2754 -1527 2523 0
2754 1527 -2523 0
-2755 925 -1950 0
-2755 -925 1950 0
2755 -925 -1950 0
2755 925 1950 0
-2756 1920 0
-2756 -391 0
2756 -1920 391 0
-2757 803 -1587 0
-2757 -803 1587 0
2757 -803 -1587 0
2757 803 1587 0
-2758 -1712 376 0
-2758 1712 -376 0
2758 1712 376 0
2758 -1712 -376 0
-2759 2434 -1160 0
-2759 -2434 1160 0
2759 -2434 -1160 0
2759 2434 1160 0
-2760 -2325 0
-2760 1012 0
2760 2325 -1012 0
-2761 511 0
-2761 756 0
2761 -511 -756 0
-2762 -1339 826 0
-2762 1339 -826 0
2762 1339 826 0
2762 -1339 -826 0
-2763 1573 -529 0
-2763 -1573 529 0
2763 -1573 -529 0
2763 1573 529 0
-2764 -1702 -1597 0
-2764 1702 1597 0
2764 1702 -1597 0
2764 -1702 1597 0
-2765 -1793 -458 0
-2765 1793 458 0
2765 1793 -458 0
2765 -1793 458 0
-2766 -1429 2661 0
-2766 1429 -2661 0
2766 1429 2661 0
2766 -1429 -2661 0
-2767 -162 0
-2767 2028 0
2767 162 -2028 0
-2768 724 -439 0
-2768 -724 439 0
2768 -724 -439 0
2768 724 439 0
-2769 1151 0
-2769 633 0
2769 -1151 -633 0
-2770 2569 -697 0
-2770 -2569 697 0
2770 -2569 -697 0
2770 2569 697 0
-2771 -2033 2447 0
-2771 2033 -2447 0
2771 2033 2447 0
2771 -2033 -2447 0
-2772 2130 1127 0
-2772 -2130 -1127 0
2772 -2130 1127 0
2772 2130 -1127 0
-2773 316 814 0
-2773 -316 -814 0
2773 -316 814 0
2773 316 -814 0
-2774 46 0
-2774 -136 0
2774 -46 136 0
-2775 568 -1474 0
-2775 -568 1474 0
2775 -568 -1474 0
2775 568 1474 0
-2776 -216 0
-2776 1909 0
2776 216 -1909 0
-2777 -208 0
-2777 -777 0
2777 208 777 0
-2778 -2369 2252 0
-2778 2369 -2252 0
2778 2369 2252 0
2778 -2369 -2252 0
-2779 -831 0
-2779 -420 0
2779 831 420 0
-2780 -799 666 0
-2780 799 -666 0
2780 799 666 0
2780 -799 -666 0
-2781 -1649 -2372 0
-2781 1649 2372 0
2781 1649 -2372 0
2781 -1649 2372 0
-2782 1272 0
-2782 2609 0
2782 -1272 -2609 0
-2783 -2305 -2099 0
-2783 2305 2099 0
2783 2305 -2099 0
2783 -2305 2099 0
-2784 2597 0
-2784 1019 0
2784 -2597 -1019 0
-2785 -4 -1093 0
-2785 4 1093 0
2785 4 -1093 0
2785 -4 1093 0
-2786 2210 0
-2786 -1762 0
2786 -2210 1762 0
-2787 -1449 1173 0
-2787 1449 -1173 0
2787 1449 1173 0
2787 -1449 -1173 0
-2788 -2175 0
-2788 2251 0
2788 2175 -2251 0
-2789 -2165 443 0
-2789 2165 -443 0
2789 2165 443 0
2789 -2165 -443 0
-2790 -2108 1685 0
-2790 2108 -1685 0
2790 2108 1685 0
2790 -2108 -1685 0
-2791 -818 1504 0
-2791 818 -1504 0
2791 818 1504 0
2791 -818 -1504 0
-2792 -1474 0
-2792 -1525 0
2792 1474 1525 0
-2793 -1091 0
-2793 -590 0
2793 1091 590 0
-2794 -549 2634 0
-2794 549 -2634 0
2794 549 2634 0
2794 -549 -2634 0
-2795 875 653 0
-2795 -875 -653 0
2795 -875 653 0
2795 875 -653 0
-2796 -1642 8 0
-2796 1642 -8 0
2796 1642 8 0
2796 -1642 -8 0
-2797 -2176 0
-2797 2400 0
2797 2176 -2400 0
-2798 1098 1599 0
-2798 -1098 -1599 0
2798 -1098 1599 0
2798 1098 -1599 0
-2799 1826 -1132 0
-2799 -1826 1132 0
2799 -1826 -1132 0
2799 1826 1132 0
-2800 -392 693 0
-2800 392 -693 0
2800 392 693 0
2800 -392 -693 0
-2801 1924 -1741 0
-2801 -1924 1741 0
2801 -1924 -1741 0
2801 1924 1741 0
-2802 -329 0
-2802 2122 0
2802 329 -2122 0
-2803 745 1 0
-2803 -745 -1 0
2803 -745 1 0
2803 745 -1 0
-2804 -923 -1469 0
-2804 923 1469 0
2804 923 -1469 0
2804 -923 1469 0
-2805 618 -452 0
-2805 -618 452 0
2805 -618 -452 0
2805 618 452 0
-2806 -1274 -2576 0
-2806 1274 2576 0
2806 1274 -2576 0
2806 -1274 2576 0
-2807 -1778 0
-2807 113 0
2807 1778 -113 0
-2808 -2219 0
-2808 531 0
2808 2219 -531 0
-2809 1647 -262 0
-2809 -1647 262 0
2809 -1647 -262 0
2809 1647 262 0
-2810 81 0
-2810 -2497 0
2810 -81 2497 0
-2811 1033 2707 0
-2811 -1033 -2707 0
2811 -1033 2707 0
2811 1033 -2707 0
-2812 6 1496 0
-2812 -6 -1496 0
2812 -6 1496 0
2812 6 -1496 0
-2813 -1940 -1510 0
-2813 1940 1510 0
2813 1940 -1510 0
2813 -1940 1510 0
-2814 -1394 1648 0
-2814 1394 -1648 0
2814 1394 1648 0
2814 -1394 -1648 0
-2815 -2779 1717 0
-2815 2779 -1717 0
2815 2779 1717 0
2815 -2779 -1717 0
-2816 1957 1848 0
-2816 -1957 -1848 0
2816 -1957 1848 0
2816 1957 -1848 0
-2817 -1776 536 0
-2817 1776 -536 0
2817 1776 536 0
2817 -1776 -536 0
-2818 1805 -1146 0
-2818 -1805 1146 0
2818 -1805 -1146 0
2818 1805 1146 0
-2819 1450 0
-2819 2079 0
2819 -1450 -2079 0
-2820 1594 0
-2820 -682 0
2820 -1594 682 0
-2821 -625 2659 0
-2821 625 -2659 0
2821 625 2659 0
2821 -625 -2659 0
-2822 -1183 -1891 0
-2822 1183 1891 0
2822 1183 -1891 0
2822 -1183 1891 0
-2823 668 0
-2823 173 0
2823 -668 -173 0
-2824 949 -1211 0
-2824 -949 1211 0
2824 -949 -1211 0
2824 949 1211 0
-2825 -1976 2146 0
-2825 1976 -2146 0
2825 1976 2146 0
2825 -1976 -2146 0
-2826 -2645 -2077 0
-2826 2645 2077 0
2826 2645 -2077 0
2826 -2645 2077 0
-2827 622 1196 0
-2827 -622 -1196 0
2827 -622 1196 0
2827 622 -1196 0
-2828 727 576 0
-2828 -727 -576 0
2828 -727 576 0
2828 727 -576 0
-2829 437 -1924 0
-2829 -437 1924 0
2829 -437 -1924 0
2829 437 1924 0
-2830 306 -1069 0
-2830 -306 1069 0
2830 -306 -1069 0
2830 306 1069 0
-2831 209 -2405 0
-2831 -209 2405 0
2831 -209 -2405 0
2831 209 2405 0
-2832 -2458 -1841 0
-2832 2458 1841 0
2832 2458 -1841 0
2832 -2458 1841 0
-2833 1263 0
-2833 1600 0
2833 -1263 -1600 0
-2834 -375 1545 0
-2834 375 -1545 0
2834 375 1545 0
2834 -375 -1545 0
-2835 809 -1759 0
-2835 -809 1759 0
2835 -809 -1759 0
2835 809 1759 0
-2836 2229 1820 0
-2836 -2229 -1820 0
2836 -2229 1820 0
2836 2229 -1820 0
-2837 -809 -702 0
-2837 809 702 0
2837 809 -702 0
2837 -809 702 0
-2838 -828 -1146 0
-2838 828 1146 0
2838 828 -1146 0
2838 -828 1146 0
-2839 225 -2153 0
-2839 -225 2153 0
2839 -225 -2153 0
2839 225 2153 0
-2840 -1258 1820 0
-2840 1258 -1820 0
2840 1258 1820 0
2840 -1258 -1820 0
-2841 -559 -211 0
-2841 559 211 0
2841 559 -211 0
2841 -559 211 0
-2842 1159 306 0
-2842 -1159 -306 0
2842 -1159 306 0
2842 1159 -306 0
-2843 2678 -358 0
-2843 -2678 358 0
2843 -2678 -358 0
2843 2678 358 0
-2844 -656 0
-2844 1781 0
2844 656 -1781 0
-2845 1398 -268 0
-2845 -1398 268 0
2845 -1398 -268 0
2845 1398 268 0
-2846 624 485 0
-2846 -624 -485 0
2846 -624 485 0
2846 624 -485 0
-2847 -297 0
-2847 -817 0
2847 297 817 0
-2848 2637 1871 0
-2848 -2637 -1871 0
2848 -2637 1871 0
2848 2637 -1871 0
-2849 -29 1383 0
-2849 29 -1383 0
2849 29 1383 0
2849 -29 -1383 0
-2850 613 40 0
-2850 -613 -40 0
2850 -613 40 0
2850 613 -40 0
-2851 805 884 0
-2851 -805 -884 0
2851 -805 884 0
2851 805 -884 0
-2852 -523 0
-2852 -1935 0
2852 523 1935 0
-2853 -1358 -997 0
-2853 1358 997 0
2853 1358 -997 0
2853 -1358 997 0
-2854 904 -1415 0
-2854 -904 1415 0
2854 -904 -1415 0
2854 904 1415 0
-2855 2699 0
-2855 -636 0
2855 -2699 636 0
-2856 343 -2120 0
-2856 -343 2120 0
2856 -343 -2120 0
2856 343 2120 0
-2857 1049 218 0
-2857 -1049 -218 0
2857 -1049 218 0
2857 1049 -218 0
-2858 -447 -201 0
-2858 447 201 0
2858 447 -201 0
2858 -447 201 0
-2859 -1228 970 0
-2859 1228 -970 0
2859 1228 970 0
2859 -1228 -970 0
-2860 2296 0
-2860 -1987 0
2860 -2296 1987 0
-2861 397 2248 0
-2861 -397 -2248 0
2861 -397 2248 0
2861 397 -2248 0
-2862 -271 2045 0
-2862 271 -2045 0
2862 271 2045 0
2862 -271 -2045 0
-2863 1908 -2342 0
-2863 -1908 2342 0
2863 -1908 -2342 0
2863 1908 2342 0
-2864 2302 -950 0
-2864 -2302 950 0
2864 -2302 -950 0
2864 2302 950 0
-2865 -2175 -1032 0
-2865 2175 1032 0
2865 2175 -1032 0
2865 -2175 1032 0
-2866 -1842 -369 0
-2866 1842 369 0
2866 1842 -369 0
2866 -1842 369 0
-2867 996 509 0
-2867 -996 -509 0
2867 -996 509 0
2867 996 -509 0
-2868 -2001 1283 0
-2868 2001 -1283 0
2868 2001 1283 0
2868 -2001 -1283 0
-2869 -2808 0
-2869 2852 0
2869 2808 -2852 0
-2870 -2559 0
-2870 2230 0
2870 2559 -2230 0
-2871 1239 0
-2871 -2361 0
2871 -1239 2361 0
-2872 2172 -1313 0
-2872 -2172 1313 0
2872 -2172 -1313 0
2872 2172 1313 0
-2873 520 300 0
-2873 -520 -300 0
2873 -520 300 0
2873 520 -300 0
-2874 -64 -1947 0
-2874 64 1947 0
2874 64 -1947 0
2874 -64 1947 0
-2875 -1609 352 0
-2875 1609 -352 0
2875 1609 352 0
2875 -1609 -352 0
-2876 1865 2604 0
-2876 -1865 -2604 0
2876 -1865 2604 0
2876 1865 -2604 0
-2877 2805 81 0
-2877 -2805 -81 0
2877 -2805 81 0
2877 2805 -81 0
-2878 314 -2378 0
-2878 -314 2378 0
2878 -314 -2378 0
2878 314 2378 0
-2879 2445 340 0
-2879 -2445 -340 0
2879 -2445 340 0
2879 2445 -340 0
-2880 1623 -51 0
-2880 -1623 51 0
2880 -1623 -51 0
2880 1623 51 0
-2881 -2063 0
-2881 428 0
2881 2063 -428 0
-2882 2874 0
-2882 1225 0
2882 -2874 -1225 0
-2883 -2876 1897 0
-2883 2876 -1897 0
2883 2876 1897 0
2883 -2876 -1897 0
-2884 2239 -1310 0
-2884 -2239 1310 0
2884 -2239 -1310 0
2884 2239 1310 0
-2885 1608 -164 0
-2885 -1608 164 0
2885 -1608 -164 0
2885 1608 164 0
-2886 -1526 -2548 0
-2886 1526 2548 0
2886 1526 -2548 0
2886 -1526 2548 0
-2887 615 -635 0
-2887 -615 635 0
2887 -615 -635 0
2887 615 635 0
-2888 173 -2001 0
-2888 -173 2001 0
2888 -173 -2001 0
2888 173 2001 0
-2889 1259 0
-2889 -2646 0
2889 -1259 2646 0
-2890 -1879 1153 0
-2890 1879 -1153 0
2890 1879 1153 0
2890 -1879 -1153 0
-2891 2213 -1747 0
-2891 -2213 1747 0
2891 -2213 -1747 0
2891 2213 1747 0
-2892 -1258 1023 0
-2892 1258 -1023 0
2892 1258 1023 0
2892 -1258 -1023 0
-2893 443 0
-2893 -2731 0
2893 -443 2731 0
-2894 801 0
-2894 -2281 0
2894 -801 2281 0
-2895 2555 0
-2895 2191 0
2895 -2555 -2191 0
-2896 -1129 0
-2896 2200 0
2896 1129 -2200 0
-2897 2506 -385 0
-2897 -2506 385 0
2897 -2506 -385 0
2897 2506 385 0
-2898 551 0
-2898 2128 0
2898 -551 -2128 0
-2899 121 0
-2899 1430 0
2899 -121 -1430 0
-2900 1255 0
-2900 460 0
2900 -1255 -460 0
-2901 -2069 -2563 0
-2901 2069 2563 0
2901 2069 -2563 0
2901 -2069 2563 0
-2902 702 -1282 0
-2902 -702 1282 0
2902 -702 -1282 0
2902 702 1282 0
-2903 -1981 529 0
-2903 1981 -529 0
2903 1981 529 0
2903 -1981 -529 0
-2904 -1862 -994 0
-2904 1862 994 0
2904 1862 -994 0
2904 -1862 994 0
-2905 -1499 -2789 0
-2905 1499 2789 0
2905 1499 -2789 0
2905 -1499 2789 0
-2906 -2858 1995 0
-2906 2858 -1995 0
2906 2858 1995 0
2906 -2858 -1995 0
-2907 -1540 1702 0
-2907 1540 -1702 0
2907 1540 1702 0
2907 -1540 -1702 0
-2908 -2754 1722 0
-2908 2754 -1722 0
2908 2754 1722 0
2908 -2754 -1722 0
-2909 788 0
-2909 2503 0
2909 -788 -2503 0
-2910 740 1833 0
-2910 -740 -1833 0
2910 -740 1833 0
2910 740 -1833 0
-2911 615 664 0
-2911 -615 -664 0
2911 -615 664 0
2911 615 -664 0
-2912 2437 2178 0
-2912 -2437 -2178 0
2912 -2437 2178 0
2912 2437 -2178 0
-2913 -2587 -1339 0
-2913 2587 1339 0
2913 2587 -1339 0
2913 -2587 1339 0
-2914 2081 1930 0
-2914 -2081 -1930 0
2914 -2081 1930 0
2914 2081 -1930 0
-2915 -1967 -2880 0
-2915 1967 2880 0
2915 1967 -2880 0
2915 -1967 2880 0
-2916 -2056 -457 0
-2916 2056 457 0
2916 2056 -457 0
2916 -2056 457 0
-2917 663 2733 0
-2917 -663 -2733 0
2917 -663 2733 0
2917 663 -2733 0
-2918 2112 0
-2918 -168 0
2918 -2112 168 0
-2919 1235 0
-2919 -1013 0
2919 -1235 1013 0
-2920 2314 -1151 0
-2920 -2314 1151 0
2920 -2314 -1151 0
2920 2314 1151 0
-2921 2246 942 0
-2921 -2246 -942 0
2921 -2246 942 0
2921 2246 -942 0
-2922 2451 0
-2922 1925 0
2922 -2451 -1925 0
-2923 977 -693 0
-2923 -977 693 0
2923 -977 -693 0
2923 977 693 0
-2924 -457 765 0
-2924 457 -765 0
2924 457 765 0
2924 -457 -765 0
-2925 2389 2128 0
-2925 -2389 -2128 0
2925 -2389 2128 0
2925 2389 -2128 0
-2926 -1589 0
-2926 2336 0
2926 1589 -2336 0
-2927 2812 -215 0
-2927 -2812 215 0
2927 -2812 -215 0
2927 2812 215 0
-2928 384 0
-2928 -2016 0
2928 -384 2016 0
-2929 -1604 0
-2929 -1997 0
2929 1604 1997 0
-2930 1963 2803 0
-2930 -1963 -2803 0
2930 -1963 2803 0
2930 1963 -2803 0
-2931 1596 0
-2931 15 0
2931 -1596 -15 0
-2932 29 0
-2932 138 0
2932 -29 -138 0
-2933 -2917 -2099 0
-2933 2917 2099 0
2933 2917 -2099 0
2933 -2917 2099 0
-2934 2431 -868 0
-2934 -2431 868 0
2934 -2431 -868 0
2934 2431 868 0
-2935 696 2059 0
-2935 -696 -2059 0
2935 -696 2059 0
2935 696 -2059 0
-2936 2595 -1750 0
-2936 -2595 1750 0
2936 -2595 -1750 0
2936 2595 1750 0
-2937 -2245 -1422 0
-2937 2245 1422 0
2937 2245 -1422 0
2937 -2245 1422 0
-2938 -1762 -1937 0
-2938 1762 1937 0
2938 1762 -1937 0
2938 -1762 1937 0
-2939 2156 1928 0
-2939 -2156 -1928 0
2939 -2156 1928 0
2939 2156 -1928 0
-2940 -829 -201 0
-2940 829 201 0
2940 829 -201 0
2940 -829 201 0
-2941 -465 0
-2941 806 0
2941 465 -806 0
-2942 -13 -2806 0
-2942 13 2806 0
2942 13 -2806 0
2942 -13 2806 0
-2943 -923 0
-2943 -2048 0
2943 923 2048 0
-2944 340 0
-2944 -1685 0
2944 -340 1685 0
-2945 -1017 0
-2945 1260 0
2945 1017 -1260 0
-2946 2513 2607 0
-2946 -2513 -2607 0
2946 -2513 2607 0
2946 2513 -2607 0
-2947 -661 283 0
-2947 661 -283 0
2947 661 283 0
2947 -661 -283 0
-2948 2113 0
-2948 -1087 0
2948 -2113 1087 0
-2949 1306 -2564 0
-2949 -1306 2564 0
2949 -1306 -2564 0
2949 1306 2564 0
-2950 1979 -1039 0
-2950 -1979 1039 0
2950 -1979 -1039 0
2950 1979 1039 0
-2951 619 2645 0
-2951 -619 -2645 0
2951 -619 2645 0
2951 619 -2645 0
-2952 916 836 0
-2952 -916 -836 0
2952 -916 836 0
2952 916 -836 0
-2953 -340 1746 0
-2953 340 -1746 0
2953 340 1746 0
2953 -340 -1746 0
-2954 1024 -2343 0
-2954 -1024 2343 0
2954 -1024 -2343 0
2954 1024 2343 0
-2955 -1266 -2424 0
-2955 1266 2424 0
2955 1266 -2424 0
2955 -1266 2424 0
-2956 1728 0
-2956 -1159 0
2956 -1728 1159 0
-2957 1673 1748 0
-2957 -1673 -1748 0
2957 -1673 1748 0
2957 1673 -1748 0
-2958 1833 1578 0
-2958 -1833 -1578 0
2958 -1833 1578 0
2958 1833 -1578 0
-2959 268 -104 0
-2959 -268 104 0
2959 -268 -104 0
2959 268 104 0
-2960 1045 -2842 0
-2960 -1045 2842 0
2960 -1045 -2842 0
2960 1045 2842 0
-2961 7 -2726 0
-2961 -7 2726 0
2961 -7 -2726 0
2961 7 2726 0
-2962 666 -1235 0
-2962 -666 1235 0
2962 -666 -1235 0
2962 666 1235 0
-2963 74 0
-2963 -1810 0
2963 -74 1810 0
-2964 1865 1842 0
-2964 -1865 -1842 0
2964 -1865 1842 0
2964 1865 -1842 0
-2965 2305 844 0
-2965 -2305 -844 0
2965 -2305 844 0
2965 2305 -844 0
-2966 -10 2652 0
-2966 10 -2652 0
2966 10 2652 0
2966 -10 -2652 0
-2967 -847 369 0
-2967 847 -369 0
2967 847 369 0
2967 -847 -369 0
-2968 -2584 411 0
-2968 2584 -411 0
2968 2584 411 0
2968 -2584 -411 0
-2969 90 -450 0
-2969 -90 450 0
2969 -90 -450 0
2969 90 450 0
-2970 -2597 0
-2970 1108 0
2970 2597 -1108 0
-2971 -26 803 0
-2971 26 -803 0
2971 26 803 0
2971 -26 -803 0
-2972 -144 0
-2972 -1814 0
2972 144 1814 0
-2973 1670 1297 0
-2973 -1670 -1297 0
2973 -1670 1297 0
2973 1670 -1297 0
-2974 1740 -1202 0
-2974 -1740 1202 0
2974 -1740 -1202 0
2974 1740 1202 0
-2975 1309 0
-2975 -282 0
2975 -1309 282 0
-2976 -2695 0
-2976 376 0
2976 2695 -376 0
-2977 -983 0
-2977 1675 0
2977 983 -1675 0
-2978 -765 -2370 0
-2978 765 2370 0
2978 765 -2370 0
2978 -765 2370 0
-2979 -301 -2093 0
-2979 301 2093 0
2979 301 -2093 0
2979 -301 2093 0
-2980 1695 2504 0
-2980 -1695 -2504 0
2980 -1695 2504 0
2980 1695 -2504 0
-2981 2901 0
-2981 2332 0
2981 -2901 -2332 0
-2982 -2977 0
-2982 1718 0
2982 2977 -1718 0
-2983 913 -1603 0
-2983 -913 1603 0
2983 -913 -1603 0
2983 913 1603 0
-2984 -1233 469 0
-2984 1233 -469 0
2984 1233 469 0
2984 -1233 -469 0
-2985 2735 270 0
-2985 -2735 -270 0
2985 -2735 270 0
2985 2735 -270 0
-2986 -276 0
-2986 1297 0
2986 276 -1297 0
-2987 1188 0
-2987 703 0
2987 -1188 -703 0
-2988 134 0
-2988 -230 0
2988 -134 230 0
-2989 2883 770 0
-2989 -2883 -770 0
2989 -2883 770 0
2989 2883 -770 0
-2990 -2080 2189 0
-2990 2080 -2189 0
2990 2080 2189 0
2990 -2080 -2189 0
-2991 2382 0
-2991 89 0
2991 -2382 -89 0
-2992 2813 -1530 0
-2992 -2813 1530 0
2992 -2813 -1530 0
2992 2813 1530 0
-2993 1922 1571 0
-2993 -1922 -1571 0
2993 -1922 1571 0
2993 1922 -1571 0
-2994 -1074 -771 0
-2994 1074 771 0
2994 1074 -771 0
2994 -1074 771 0
-2995 -413 -1962 0
-2995 413 1962 0
2995 413 -1962 0
2995 -413 1962 0
-2996 54 1179 0
-2996 -54 -1179 0
2996 -54 1179 0
2996 54 -1179 0
-2997 -2543 0
-2997 -438 0
2997 2543 438 0
-2998 2100 1795 0
-2998 -2100 -1795 0
2998 -2100 1795 0
2998 2100 -1795 0
-2999 379 0
-2999 -1134 0
2999 -379 1134 0
-3000 -2825 2979 0
-3000 2825 -2979 0
3000 2825 2979 0
3000 -2825 -2979 0
-3001 201 -1833 0
-3001 -201 1833 0
3001 -201 -1833 0
3001 201 1833 0
-3002 -1839 793 0
-3002 1839 -793 0
3002 1839 793 0
3002 -1839 -793 0
-3003 2505 1903 0
-3003 -2505 -1903 0
3003 -2505 1903 0
3003 2505 -1903 0
-3004 -1258 0
-3004 2036 0
3004 1258 -2036 0
-3005 1929 -2551 0
-3005 -1929 2551 0
3005 -1929 -2551 0
3005 1929 2551 0
-3006 -1473 2306 0
-3006 1473 -2306 0
3006 1473 2306 0
3006 -1473 -2306 0
-3007 1317 0
-3007 774 0
3007 -1317 -774 0
-3008 2434 -2683 0
-3008 -2434 2683 0
3008 -2434 -2683 0
3008 2434 2683 0
-3009 -2546 -1003 0
-3009 2546 1003 0
3009 2546 -1003 0
3009 -2546 1003 0
-3010 -212 0
-3010 -2383 0
3010 212 2383 0
-3011 1760 0
-3011 -208 0
3011 -1760 208 0
-3012 -974 0
-3012 -1298 0
3012 974 1298 0
-3013 29 0
-3013 -202 0
3013 -29 202 0
-3014 -1472 -1693 0
-3014 1472 1693 0
3014 1472 -1693 0
3014 -1472 1693 0
-3015 2783 0
-3015 2946 0
3015 -2783 -2946 0
-3016 1122 0
-3016 -1733 0
3016 -1122 1733 0
-3017 -1240 -354 0
-3017 1240 354 0
3017 1240 -354 0
3017 -1240 354 0
-3018 2242 -1389 0
-3018 -2242 1389 0
3018 -2242 -1389 0
3018 2242 1389 0
-3019 -2297 0
-3019 -1179 0
3019 2297 1179 0
-3020 -2035 -1664 0
-3020 2035 1664 0
3020 2035 -1664 0
3020 -2035 1664 0
-3021 3007 0
-3021 1368 0
3021 -3007 -1368 0
-3022 1394 1352 0
-3022 -1394 -1352 0
3022 -1394 1352 0
3022 1394 -1352 0
-3023 1053 2752 0
-3023 -1053 -2752 0
3023 -1053 2752 0
3023 1053 -2752 0
-3024 1868 2106 0
-3024 -1868 -2106 0
3024 -1868 2106 0
3024 1868 -2106 0
-3025 -1884 803 0
-3025 1884 -803 0
3025 1884 803 0
3025 -1884 -803 0
-3026 747 -2925 0
-3026 -747 2925 0
3026 -747 -2925 0
3026 747 2925 0
-3027 -1818 0
-3027 -508 0
3027 1818 508 0
-3028 -2343 0
-3028 -2697 0
3028 2343 2697 0
-3029 2524 -1342 0
-3029 -2524 1342 0
3029 -2524 -1342 0
3029 2524 1342 0
-3030 -2061 -560 0
-3030 2061 560 0
3030 2061 -560 0
3030 -2061 560 0
-3031 -1367 -948 0
-3031 1367 948 0
3031 1367 -948 0
3031 -1367 948 0
-3032 -1730 -2625 0
-3032 1730 2625 0
3032 1730 -2625 0
3032 -1730 2625 0
-3033 1802 0
-3033 -626 0
3033 -1802 626 0
-3034 -2605 0
-3034 -2466 0
3034 2605 2466 0
-3035 3034 1373 0
-3035 -3034 -1373 0
3035 -3034 1373 0
3035 3034 -1373 0
-3036 -1168 0
-3036 -1966 0
3036 1168 1966 0
-3037 -67 0
-3037 2139 0
3037 67 -2139 0
-3038 -2078 -850 0
-3038 2078 850 0
3038 2078 -850 0
3038 -2078 850 0
-3039 -1445 1813 0
-3039 1445 -1813 0
3039 1445 1813 0
3039 -1445 -1813 0
-3040 -1651 243 0
-3040 1651 -243 0
3040 1651 243 0
3040 -1651 -243 0
-3041 1459 -2382 0
-3041 -1459 2382 0
3041 -1459 -2382 0
3041 1459 2382 0
-3042 1038 463 0
-3042 -1038 -463 0
3042 -1038 463 0
3042 1038 -463 0
-3043 -696 0
-3043 1012 0
3043 696 -1012 0
-3044 -1746 -3024 0
-3044 1746 3024 0
3044 1746 -3024 0
3044 -1746 3024 0
-3045 -201 -2355 0
-3045 201 2355 0
3045 201 -2355 0
3045 -201 2355 0
-3046 2367 0
-3046 2216 0
3046 -2367 -2216 0
-3047 -2004 -2938 0
-3047 2004 2938 0
3047 2004 -2938 0
3047 -2004 2938 0
-3048 2274 -403 0
-3048 -2274 403 0
3048 -2274 -403 0
3048 2274 403 0
-3049 1023 1856 0
-3049 -1023 -1856 0
3049 -1023 1856 0
3049 1023 -1856 0
-3050 -51 0
-3050 -2938 0
3050 51 2938 0
-3051 -1567 215 0
-3051 1567 -215 0
3051 1567 215 0
3051 -1567 -215 0
-3052 -243 0
-3052 2997 0
3052 243 -2997 0
-3053 1193 0
-3053 1245 0
3053 -1193 -1245 0
-3054 1539 2178 0
-3054 -1539 -2178 0
3054 -1539 2178 0
3054 1539 -2178 0
-3055 -568 0
-3055 457 0
3055 568 -457 0
-3056 -170 -2440 0
-3056 170 2440 0
3056 170 -2440 0
3056 -170 2440 0
-3057 1414 0
-3057 144 0
3057 -1414 -144 0
-3058 2267 622 0
-3058 -2267 -622 0
3058 -2267 622 0
3058 2267 -622 0
-3059 937 426 0
-3059 -937 -426 0
3059 -937 426 0
3059 937 -426 0
-3060 1237 0
-3060 -1606 0
3060 -1237 1606 0
-3061 2131 1320 0
-3061 -2131 -1320 0
3061 -2131 1320 0
3061 2131 -1320 0
-3062 3020 -18 0
-3062 -3020 18 0
3062 -3020 -18 0
3062 3020 18 0
-3063 -1289 -926 0
-3063 1289 926 0
3063 1289 -926 0
3063 -1289 926 0
-3064 -1524 654 0
-3064 1524 -654 0
3064 1524 654 0
3064 -1524 -654 0
-3065 -165 -3045 0
-3065 165 3045 0
3065 165 -3045 0
3065 -165 3045 0
-3066 -778 0
-3066 -914 0
3066 778 914 0
-3067 -866 2135 0
-3067 866 -2135 0
3067 866 2135 0
3067 -866 -2135 0
-3068 -2854 -1689 0
-3068 2854 1689 0
3068 2854 -1689 0
3068 -2854 1689 0
-3069 -2551 -1165 0
-3069 2551 1165 0
3069 2551 -1165 0
3069 -2551 1165 0
-3070 1898 0
-3070 -394 0
3070 -1898 394 0
-3071 -622 1758 0
-3071 622 -1758 0
3071 622 1758 0
3071 -622 -1758 0
-3072 -2138 0
-3072 2190 0
3072 2138 -2190 0
-3073 -592 1170 0
-3073 592 -1170 0
3073 592 1170 0
3073 -592 -1170 0
-3074 1954 -1352 0
-3074 -1954 1352 0
3074 -1954 -1352 0
3074 1954 1352 0
-3075 434 -880 0
-3075 -434 880 0
3075 -434 -880 0
3075 434 880 0
-3076 -2223 0
-3076 1734 0
3076 2223 -1734 0
-3077 397 151 0
-3077 -397 -151 0
3077 -397 151 0
3077 397 -151 0
-3078 -394 1029 0
-3078 394 -1029 0
3078 394 1029 0
3078 -394 -1029 0
-3079 -1876 2432 0
-3079 1876 -2432 0
3079 1876 2432 0
3079 -1876 -2432 0
-3080 1033 2986 0
-3080 -1033 -2986 0
3080 -1033 2986 0
3080 1033 -2986 0
-3081 214 2598 0
-3081 -214 -2598 0
3081 -214 2598 0
3081 214 -2598 0
-3082 2904 0
-3082 196 0
3082 -2904 -196 0
-3083 2070 0
-3083 -2506 0
3083 -2070 2506 0
-3084 -632 0
-3084 -1854 0
3084 632 1854 0
-3085 1976 -1049 0
-3085 -1976 1049 0
3085 -1976 -1049 0
3085 1976 1049 0
-3086 -756 2490 0
-3086 756 -2490 0
3086 756 2490 0
3086 -756 -2490 0
-3087 1881 -1640 0
-3087 -1881 1640 0
3087 -1881 -1640 0
3087 1881 1640 0
-3088 2342 1794 0
-3088 -2342 -1794 0
3088 -2342 1794 0
3088 2342 -1794 0
-3089 262 -95 0
-3089 -262 95 0
3089 -262 -95 0
3089 262 95 0
-3090 1677 2814 0
-3090 -1677 -2814 0
3090 -1677 2814 0
3090 1677 -2814 0
-3091 1517 -327 0
-3091 -1517 327 0
3091 -1517 -327 0
3091 1517 327 0
-3092 1446 -1011 0
-3092 -1446 1011 0
3092 -1446 -1011 0
3092 1446 1011 0
-3093 2513 2505 0
-3093 -2513 -2505 0
3093 -2513 2505 0
3093 2513 -2505 0
-3094 -1711 -1946 0
-3094 1711 1946 0
3094 1711 -1946 0
3094 -1711 1946 0
-3095 -2207 0
-3095 -2794 0
3095 2207 2794 0
-3096 -1236 3052 0
-3096 1236 -3052 0
3096 1236 3052 0
3096 -1236 -3052 0
-3097 -1600 -1983 0
-3097 1600 1983 0
3097 1600 -1983 0
3097 -1600 1983 0
-3098 1018 -3073 0
-3098 -1018 3073 0
3098 -1018 -3073 0
3098 1018 3073 0
-3099 896 0
-3099 3051 0
3099 -896 -3051 0
-3100 -317 2441 0
-3100 317 -2441 0
3100 317 2441 0
3100 -317 -2441 0
-3101 226 0
-3101 2635 0
3101 -226 -2635 0
-3102 937 857 0
-3102 -937 -857 0
3102 -937 857 0
3102 937 -857 0
-3103 1368 -480 0
-3103 -1368 480 0
3103 -1368 -480 0
3103 1368 480 0
-3104 -2396 0
-3104 2404 0
3104 2396 -2404 0
-3105 -2919 -844 0
-3105 2919 844 0
3105 2919 -844 0
3105 -2919 844 0
-3106 2925 10 0
-3106 -2925 -10 0
3106 -2925 10 0
3106 2925 -10 0
-3107 -1363 -2540 0
-3107 1363 2540 0
3107 1363 -2540 0
3107 -1363 2540 0
-3108 1923 0
-3108 2782 0
3108 -1923 -2782 0
-3109 -52 -2830 0
-3109 52 2830 0
3109 52 -2830 0
3109 -52 2830 0
-3110 1477 -2570 0
-3110 -1477 2570 0
3110 -1477 -2570 0
3110 1477 2570 0
-3111 2053 1061 0
-3111 -2053 -1061 0
3111 -2053 1061 0
3111 2053 -1061 0
-3112 -1284 0
-3112 951 0
3112 1284 -951 0
-3113 2193 701 0
-3113 -2193 -701 0
3113 -2193 701 0
3113 2193 -701 0
-3114 -462 0
-3114 -2325 0
3114 462 2325 0
-3115 2921 1679 0
-3115 -2921 -1679 0
3115 -2921 1679 0
3115 2921 -1679 0
-3116 -3002 -584 0
-3116 3002 584 0
3116 3002 -584 0
3116 -3002 584 0
-3117 673 0
-3117 2602 0
3117 -673 -2602 0
-3118 2786 1319 0
-3118 -2786 -1319 0
3118 -2786 1319 0
3118 2786 -1319 0
-3119 -616 -2737 0
-3119 616 2737 0
3119 616 -2737 0
3119 -616 2737 0
-3120 -2624 1029 0
-3120 2624 -1029 0
3120 2624 1029 0
3120 -2624 -1029 0
-3121 1626 -1006 0
-3121 -1626 1006 0
3121 -1626 -1006 0
3121 1626 1006 0
-3122 1316 0
-3122 -1443 0
3122 -1316 1443 0
-3123 -810 0
-3123 2242 0
3123 810 -2242 0
-3124 1915 2245 0
-3124 -1915 -2245 0
3124 -1915 2245 0
3124 1915 -2245 0
-3125 -693 -3111 0
-3125 693 3111 0
3125 693 -3111 0
3125 -693 3111 0
-3126 -1408 218 0
-3126 1408 -218 0
3126 1408 218 0
3126 -1408 -218 0
-3127 -1017 0
-3127 423 0
3127 1017 -423 0
-3128 -1060 0
-3128 -1016 0
3128 1060 1016 0
-3129 -2376 891 0
-3129 2376 -891 0
3129 2376 891 0
3129 -2376 -891 0
-3130 2671 -2961 0
-3130 -2671 2961 0
3130 -2671 -2961 0
3130 2671 2961 0
-3131 -187 1435 0
-3131 187 -1435 0
3131 187 1435 0
3131 -187 -1435 0
-3132 3119 -1980 0
-3132 -3119 1980 0
3132 -3119 -1980 0
3132 3119 1980 0
-3133 -871 -28 0
-3133 871 28 0
3133 871 -28 0
3133 -871 28 0
-3134 -224 -713 0
-3134 224 713 0
3134 224 -713 0
3134 -224 713 0
-3135 -3029 1324 0
-3135 3029 -1324 0
3135 3029 1324 0
3135 -3029 -1324 0
-3136 37 -3007 0
-3136 -37 3007 0
3136 -37 -3007 0
3136 37 3007 0
-3137 1055 -1337 0
-3137 -1055 1337 0
3137 -1055 -1337 0
3137 1055 1337 0
-3138 760 0
-3138 -1961 0
3138 -760 1961 0
-3139 115 0
-3139 -489 0
3139 -115 489 0
-3140 -2519 0
-3140 -784 0
3140 2519 784 0
-3141 -2684 -338 0
-3141 2684 338 0
3141 2684 -338 0
3141 -2684 338 0
-3142 2785 -135 0
-3142 -2785 135 0
3142 -2785 -135 0
3142 2785 135 0
-3143 -933 945 0
-3143 933 -945 0
3143 933 945 0
3143 -933 -945 0
-3144 1548 1276 0
-3144 -1548 -1276 0
3144 -1548 1276 0
3144 1548 -1276 0
-3145 2186 864 0
-3145 -2186 -864 0
3145 -2186 864 0
3145 2186 -864 0
-3146 2216 2662 0
-3146 -2216 -2662 0
3146 -2216 2662 0
3146 2216 -2662 0
-3147 -1712 0
-3147 -3010 0
3147 1712 3010 0
-3148 5 2563 0
-3148 -5 -2563 0
3148 -5 2563 0
3148 5 -2563 0
-3149 -2856 2241 0
-3149 2856 -2241 0
3149 2856 2241 0
3149 -2856 -2241 0
-3150 266 2840 0
-3150 -266 -2840 0
3150 -266 2840 0
3150 266 -2840 0
-3151 3074 2922 0
-3151 -3074 -2922 0
3151 -3074 2922 0
3151 3074 -2922 0
-3152 3097 0
-3152 -1190 0
3152 -3097 1190 0
-3153 -1127 2091 0
-3153 1127 -2091 0
3153 1127 2091 0
3153 -1127 -2091 0
-3154 3083 116 0
-3154 -3083 -116 0
3154 -3083 116 0
3154 3083 -116 0
-3155 -1367 2449 0
-3155 1367 -2449 0
3155 1367 2449 0
3155 -1367 -2449 0
-3156 -1759 0
-3156 2937 0
3156 1759 -2937 0
-3157 -2146 90 0
-3157 2146 -90 0
3157 2146 90 0
3157 -2146 -90 0
-3158 2024 -3063 0
-3158 -2024 3063 0
3158 -2024 -3063 0
3158 2024 3063 0
-3159 1517 -183 0
-3159 -1517 183 0
3159 -1517 -183 0
3159 1517 183 0
-3160 1499 -1034 0
-3160 -1499 1034 0
3160 -1499 -1034 0
3160 1499 1034 0
-3161 -2115 0
-3161 2469 0
3161 2115 -2469 0
-3162 -2382 0
-3162 245 0
3162 2382 -245 0
-3163 1609 -100 0
-3163 -1609 100 0
3163 -1609 -100 0
3163 1609 100 0
-3164 2503 0
-3164 -2231 0
3164 -2503 2231 0
-3165 -213 0
-3165 2906 0
3165 213 -2906 0
-3166 2647 0
-3166 -460 0
3166 -2647 460 0
-3167 -1170 0
-3167 -2762 0
3167 1170 2762 0
-3168 -1430 0
-3168 -2876 0
3168 1430 2876 0
-3169 -1881 -1854 0
-3169 1881 1854 0
3169 1881 -1854 0
3169 -1881 1854 0
-3170 2579 356 0
-3170 -2579 -356 0
3170 -2579 356 0
3170 2579 -356 0
-3171 -1521 1011 0
-3171 1521 -1011 0
3171 1521 1011 0
3171 -1521 -1011 0
-3172 638 -1080 0
-3172 -638 1080 0
3172 -638 -1080 0
3172 638 1080 0
-3173 -294 0
-3173 -2276 0
3173 294 2276 0
-3174 -33 0
-3174 -1491 0
3174 33 1491 0
-3175 2780 -727 0
-3175 -2780 727 0
3175 -2780 -727 0
3175 2780 727 0
-3176 2831 -396 0
-3176 -2831 396 0
3176 -2831 -396 0
3176 2831 396 0
-3177 2068 770 0
-3177 -2068 -770 0
3177 -2068 770 0
3177 2068 -770 0
-3178 -111 -1746 0
-3178 111 1746 0
3178 111 -1746 0
3178 -111 1746 0
-3179 -555 0
-3179 3125 0
3179 555 -3125 0
-3180 1388 -113 0
-3180 -1388 113 0
3180 -1388 -113 0
3180 1388 113 0
-3181 -1623 0
-3181 350 0
3181 1623 -350 0
-3182 -1983 -2941 0
-3182 1983 2941 0
3182 1983 -2941 0
3182 -1983 2941 0
-3183 3006 1325 0
-3183 -3006 -1325 0
3183 -3006 1325 0
3183 3006 -1325 0
-3184 -910 -2267 0
-3184 910 2267 0
3184 910 -2267 0
3184 -910 2267 0
-3185 2357 614 0
-3185 -2357 -614 0
3185 -2357 614 0
3185 2357 -614 0
-3186 -2280 0
-3186 -1896 0
3186 2280 1896 0
-3187 151 0
-3187 3041 0
3187 -151 -3041 0
-3188 -2282 0
-3188 -477 0
3188 2282 477 0
-3189 -1932 362 0
-3189 1932 -362 0
3189 1932 362 0
3189 -1932 -362 0
-3190 -2747 1209 0
-3190 2747 -1209 0
3190 2747 1209 0
3190 -2747 -1209 0
-3191 709 0
-3191 2918 0
3191 -709 -2918 0
-3192 -3058 0
-3192 676 0
3192 3058 -676 0
-3193 -207 -2852 0
-3193 207 2852 0
3193 207 -2852 0
3193 -207 2852 0
-3194 -2940 2625 0
-3194 2940 -2625 0
3194 2940 2625 0
3194 -2940 -2625 0
-3195 2434 720 0
-3195 -2434 -720 0
3195 -2434 720 0
3195 2434 -720 0
-3196 1363 0
-3196 3107 0
3196 -1363 -3107 0
-3197 -1326 219 0
-3197 1326 -219 0
3197 1326 219 0
3197 -1326 -219 0
-3198 -749 1791 0
-3198 749 -1791 0
3198 749 1791 0
3198 -749 -1791 0
-3199 -30 -2799 0
-3199 30 2799 0
3199 30 -2799 0
3199 -30 2799 0
-3200 -550 2590 0
-3200 550 -2590 0
3200 550 2590 0
3200 -550 -2590 0
-3201 -893 -1027 0
-3201 893 1027 0
3201 893 -1027 0
3201 -893 1027 0
-3202 1505 830 0
-3202 -1505 -830 0
3202 -1505 830 0
3202 1505 -830 0
-3203 -8 0
-3203 -770 0
3203 8 770 0
-3204 2493 3080 0
-3204 -2493 -3080 0
3204 -2493 3080 0
3204 2493 -3080 0
-3205 -866 -2477 0
-3205 866 2477 0
3205 866 -2477 0
3205 -866 2477 0
-3206 851 2380 0
-3206 -851 -2380 0
3206 -851 2380 0
3206 851 -2380 0
-3207 -1401 2314 0
-3207 1401 -2314 0
3207 1401 2314 0
3207 -1401 -2314 0
-3208 -231 -2706 0
-3208 231 2706 0
3208 231 -2706 0
3208 -231 2706 0
-3209 -507 -3060 0
-3209 507 3060 0
3209 507 -3060 0
3209 -507 3060 0
-3210 2923 2871 0
-3210 -2923 -2871 0
3210 -2923 2871 0
3210 2923 -2871 0
-3211 2109 -719 0
-3211 -2109 719 0
3211 -2109 -719 0
3211 2109 719 0
-3212 457 -2453 0
-3212 -457 2453 0
3212 -457 -2453 0
3212 457 2453 0
-3213 -1557 -2262 0
-3213 1557 2262 0
3213 1557 -2262 0
3213 -1557 2262 0
-3214 71 1349 0
-3214 -71 -1349 0
3214 -71 1349 0
3214 71 -1349 0
-3215 -606 2456 0
-3215 606 -2456 0
3215 606 2456 0
3215 -606 -2456 0
-3216 3047 -1699 0
-3216 -3047 1699 0
3216 -3047 -1699 0
3216 3047 1699 0
-3217 2320 -1863 0
-3217 -2320 1863 0
3217 -2320 -1863 0
3217 2320 1863 0
-3218 -1293 0
-3218 -1262 0
3218 1293 1262 0
-3219 2241 1968 0
-3219 -2241 -1968 0
3219 -2241 1968 0
3219 2241 -1968 0
-3220 2482 0
-3220 1864 0
3220 -2482 -1864 0
-3221 1333 0
-3221 -3184 0
3221 -1333 3184 0
-3222 -1671 -2493 0
-3222 1671 2493 0
3222 1671 -2493 0
3222 -1671 2493 0
-3223 -155 -2080 0
-3223 155 2080 0
3223 155 -2080 0
3223 -155 2080 0
-3224 1282 -1368 0
-3224 -1282 1368 0
3224 -1282 -1368 0
3224 1282 1368 0
-3225 2077 0
-3225 -389 0
3225 -2077 389 0
-3226 -1592 -599 0
-3226 1592 599 0
3226 1592 -599 0
3226 -1592 599 0
-3227 -1688 2086 0
-3227 1688 -2086 0
3227 1688 2086 0
3227 -1688 -2086 0
-3228 1940 574 0
-3228 -1940 -574 0
3228 -1940 574 0
3228 1940 -574 0
-3229 -3160 -1753 0
-3229 3160 1753 0
3229 3160 -1753 0
3229 -3160 1753 0
-3230 -2093 1723 0
-3230 2093 -1723 0
3230 2093 1723 0
3230 -2093 -1723 0
-3231 -313 -1640 0
-3231 313 1640 0
3231 313 -1640 0
3231 -313 1640 0
-3232 -1030 1695 0
-3232 1030 -1695 0
3232 1030 1695 0
3232 -1030 -1695 0
-3233 -2388 2763 0
-3233 2388 -2763 0
3233 2388 2763 0
3233 -2388 -2763 0
-3234 -387 -2435 0
-3234 387 2435 0
3234 387 -2435 0
3234 -387 2435 0
-3235 710 -1987 0
-3235 -710 1987 0
3235 -710 -1987 0
3235 710 1987 0
-3236 -1870 0
-3236 -1164 0
3236 1870 1164 0
-3237 3181 0
-3237 -1253 0
3237 -3181 1253 0
-3238 -54 2997 0
-3238 54 -2997 0
3238 54 2997 0
3238 -54 -2997 0
-3239 3061 1575 0
-3239 -3061 -1575 0
3239 -3061 1575 0
3239 3061 -1575 0
-3240 -1142 2011 0
-3240 1142 -2011 0
3240 1142 2011 0
3240 -1142 -2011 0
-3241 -1737 0
-3241 2800 0
3241 1737 -2800 0
-3242 -2940 0
-3242 866 0
3242 2940 -866 0
-3243 2485 -3128 0
-3243 -2485 3128 0
3243 -2485 -3128 0
3243 2485 3128 0
-3244 575 0
-3244 -3028 0
3244 -575 3028 0
-3245 3240 1448 0
-3245 -3240 -1448 0
3245 -3240 1448 0
3245 3240 -1448 0
-3246 124 896 0
-3246 -124 -896 0
3246 -124 896 0
3246 124 -896 0
-3247 1866 416 0
-3247 -1866 -416 0
3247 -1866 416 0
3247 1866 -416 0
-3248 1623 0
-3248 2789 0
3248 -1623 -2789 0
-3249 -324 -13 0
-3249 324 13 0
3249 324 -13 0
3249 -324 13 0
-3250 -2458 2303 0
-3250 2458 -2303 0
3250 2458 2303 0
3250 -2458 -2303 0
-3251 -1208 832 0
-3251 1208 -832 0
3251 1208 832 0
3251 -1208 -832 0
-3252 866 -2957 0
-3252 -866 2957 0
3252 -866 -2957 0
3252 866 2957 0
-3253 -926 3088 0
-3253 926 -3088 0
3253 926 3088 0
3253 -926 -3088 0
-3254 1794 -2594 0
-3254 -1794 2594 0
3254 -1794 -2594 0
3254 1794 2594 0
-3255 2301 -16 0
-3255 -2301 16 0
3255 -2301 -16 0
3255 2301 16 0
-3256 -639 -1069 0
-3256 639 1069 0
3256 639 -1069 0
3256 -639 1069 0
-3257 2251 -106 0
-3257 -2251 106 0
3257 -2251 -106 0
3257 2251 106 0
-3258 -2235 794 0
-3258 2235 -794 0
3258 2235 794 0
3258 -2235 -794 0
-3259 -1923 0
-3259 -470 0
3259 1923 470 0
-3260 986 0
-3260 354 0
3260 -986 -354 0
-3261 2466 2422 0
-3261 -2466 -2422 0
3261 -2466 2422 0
3261 2466 -2422 0
-3262 -49 0
-3262 2123 0
3262 49 -2123 0
-3263 1489 -1092 0
-3263 -1489 1092 0
3263 -1489 -1092 0
3263 1489 1092 0
-3264 2892 -3253 0
-3264 -2892 3253 0
3264 -2892 -3253 0
3264 2892 3253 0
-3265 -1750 -333 0
-3265 1750 333 0
3265 1750 -333 0
3265 -1750 333 0
-3266 2762 -649 0
-3266 -2762 649 0
3266 -2762 -649 0
3266 2762 649 0
-3267 1341 0
-3267 -2891 0
3267 -1341 2891 0
-3268 1608 0
-3268 1969 0
3268 -1608 -1969 0
-3269 -3240 1988 0
-3269 3240 -1988 0
3269 3240 1988 0
3269 -3240 -1988 0
-3270 -2704 0
-3270 1250 0
3270 2704 -1250 0
-3271 -3258 0
-3271 -497 0
3271 3258 497 0
-3272 1924 1431 0
-3272 -1924 -1431 0
3272 -1924 1431 0
3272 1924 -1431 0
-3273 3156 -2899 0
-3273 -3156 2899 0
3273 -3156 -2899 0
3273 3156 2899 0
-3274 -2343 1901 0
-3274 2343 -1901 0
3274 2343 1901 0
3274 -2343 -1901 0
-3275 54 -2955 0
-3275 -54 2955 0
3275 -54 -2955 0
3275 54 2955 0
-3276 -862 2506 0
-3276 862 -2506 0
3276 862 2506 0
3276 -862 -2506 0
-3277 1887 -1257 0
-3277 -1887 1257 0
3277 -1887 -1257 0
3277 1887 1257 0
-3278 -1994 0
-3278 -3014 0
3278 1994 3014 0
-3279 -507 3258 0
-3279 507 -3258 0
3279 507 3258 0
3279 -507 -3258 0
-3280 942 3009 0
-3280 -942 -3009 0
3280 -942 3009 0
3280 942 -3009 0
-3281 2506 0
-3281 2701 0
3281 -2506 -2701 0
-3282 -2893 0
-3282 181 0
3282 2893 -181 0
-3283 33 353 0
-3283 -33 -353 0
3283 -33 353 0
3283 33 -353 0
-3284 -597 2254 0
-3284 597 -2254 0
3284 597 2254 0
3284 -597 -2254 0
-3285 2479 0
-3285 -3065 0
3285 -2479 3065 0
-3286 -549 -3028 0
-3286 549 3028 0
3286 549 -3028 0
3286 -549 3028 0
-3287 3147 -289 0
-3287 -3147 289 0
3287 -3147 -289 0
3287 3147 289 0
-3288 -1729 0
-3288 419 0
3288 1729 -419 0
-3289 -2163 -1033 0
-3289 2163 1033 0
3289 2163 -1033 0
3289 -2163 1033 0
-3290 -1008 61 0
-3290 1008 -61 0
3290 1008 61 0
3290 -1008 -61 0
-3291 894 1961 0
-3291 -894 -1961 0
3291 -894 1961 0
3291 894 -1961 0
-3292 408 -601 0
-3292 -408 601 0
3292 -408 -601 0
3292 408 601 0
-3293 2462 0
-3293 -1169 0
3293 -2462 1169 0
-3294 3124 2248 0
-3294 -3124 -2248 0
3294 -3124 2248 0
3294 3124 -2248 0
-3295 1083 2093 0
-3295 -1083 -2093 0
3295 -1083 2093 0
3295 1083 -2093 0
-3296 2727 0
-3296 1504 0
3296 -2727 -1504 0
-3297 -720 0
-3297 1536 0
3297 720 -1536 0
-3298 2036 0
-3298 2343 0
3298 -2036 -2343 0
-3299 -3054 0
-3299 1920 0
3299 3054 -1920 0
-3300 -3269 -2363 0
-3300 3269 2363 0
3300 3269 -2363 0
3300 -3269 2363 0
-3301 339 0
-3301 -1742 0
3301 -339 1742 0
-3302 -2236 1289 0
-3302 2236 -1289 0
3302 2236 1289 0
3302 -2236 -1289 0
-3303 -927 0
-3303 3197 0
3303 927 -3197 0
-3304 -408 1062 0
-3304 408 -1062 0
3304 408 1062 0
3304 -408 -1062 0
-3305 -1213 -889 0
-3305 1213 889 0
3305 1213 -889 0
3305 -1213 889 0
-3306 1691 0
-3306 854 0
3306 -1691 -854 0
-3307 2773 913 0
-3307 -2773 -913 0
3307 -2773 913 0
3307 2773 -913 0
-3308 -1138 0
-3308 -50 0
3308 1138 50 0
-3309 1774 0
-3309 -719 0
3309 -1774 719 0
-3310 -2595 0
-3310 -1136 0
3310 2595 1136 0
-3311 -67 -2513 0
-3311 67 2513 0
3311 67 -2513 0
3311 -67 2513 0
-3312 -2889 -3058 0
-3312 2889 3058 0
3312 2889 -3058 0
3312 -2889 3058 0
-3313 460 0
-3313 -2896 0
3313 -460 2896 0
-3314 -2123 0
-3314 -2384 0
3314 2123 2384 0
-3315 1744 943 0
-3315 -1744 -943 0
3315 -1744 943 0
3315 1744 -943 0
-3316 533 -108 0
-3316 -533 108 0
3316 -533 -108 0
3316 533 108 0
-3317 -1856 2106 0
-3317 1856 -2106 0
3317 1856 2106 0
3317 -1856 -2106 0
-3318 -135 238 0
-3318 135 -238 0
3318 135 238 0
3318 -135 -238 0
-3319 1830 -2254 0
-3319 -1830 2254 0
3319 -1830 -2254 0
3319 1830 2254 0
-3320 -1481 372 0
-3320 1481 -372 0
3320 1481 372 0
3320 -1481 -372 0
-3321 -293 -2068 0
-3321 293 2068 0
3321 293 -2068 0
3321 -293 2068 0
-3322 -1451 1626 0
-3322 1451 -1626 0
3322 1451 1626 0
3322 -1451 -1626 0
-3323 -1956 1069 0
-3323 1956 -1069 0
3323 1956 1069 0
3323 -1956 -1069 0
-3324 -1390 2363 0
-3324 1390 -2363 0
3324 1390 2363 0
3324 -1390 -2363 0
-3325 1970 0
-3325 -1519 0
3325 -1970 1519 0
-3326 1058 0
-3326 1059 0
3326 -1058 -1059 0
-3327 3312 3195 0
-3327 -3312 -3195 0
3327 -3312 3195 0
3327 3312 -3195 0
-3328 2777 3122 0
-3328 -2777 -3122 0
3328 -2777 3122 0
3328 2777 -3122 0
-3329 777 -1124 0
-3329 -777 1124 0
3329 -777 -1124 0
3329 777 1124 0
-3330 1523 0
-3330 2272 0
3330 -1523 -2272 0
-3331 2709 0
-3331 1748 0
3331 -2709 -1748 0
-3332 -248 -2518 0
-3332 248 2518 0
3332 248 -2518 0
3332 -248 2518 0
-3333 -1433 -2316 0
-3333 1433 2316 0
3333 1433 -2316 0
3333 -1433 2316 0
-3334 -1732 718 0
-3334 1732 -718 0
3334 1732 718 0
3334 -1732 -718 0
-3335 -1598 987 0
-3335 1598 -987 0
3335 1598 987 0
3335 -1598 -987 0
-3336 1233 2518 0
-3336 -1233 -2518 0
3336 -1233 2518 0
3336 1233 -2518 0
-3337 -1652 0
-3337 288 0
3337 1652 -288 0
-3338 -2314 1553 0
-3338 2314 -1553 0
3338 2314 1553 0
3338 -2314 -1553 0
-3339 -3234 -3305 0
-3339 3234 3305 0
3339 3234 -3305 0
3339 -3234 3305 0
-3340 -2072 -3278 0
-3340 2072 3278 0
3340 2072 -3278 0
3340 -2072 3278 0
-3341 2545 0
-3341 1800 0
3341 -2545 -1800 0
-3342 2050 0
-3342 -2077 0
3342 -2050 2077 0
-3343 864 -490 0
-3343 -864 490 0
3343 -864 -490 0
3343 864 490 0
-3344 502 0
-3344 -2613 0
3344 -502 2613 0
-3345 1578 -1347 0
-3345 -1578 1347 0
3345 -1578 -1347 0
3345 1578 1347 0
-3346 -2948 0
-3346 2970 0
3346 2948 -2970 0
-3347 2240 -875 0
-3347 -2240 875 0
3347 -2240 -875 0
3347 2240 875 0
-3348 245 1795 0
-3348 -245 -1795 0
3348 -245 1795 0
3348 245 -1795 0
-3349 -495 -675 0
-3349 495 675 0
3349 495 -675 0
3349 -495 675 0
-3350 3235 892 0
-3350 -3235 -892 0
3350 -3235 892 0
3350 3235 -892 0
-3351 2783 135 0
-3351 -2783 -135 0
3351 -2783 135 0
3351 2783 -135 0
-3352 -2146 550 0
-3352 2146 -550 0
3352 2146 550 0
3352 -2146 -550 0
-3353 -1824 -15 0
-3353 1824 15 0
3353 1824 -15 0
3353 -1824 15 0
-3354 2398 -2176 0
-3354 -2398 2176 0
3354 -2398 -2176 0
3354 2398 2176 0
-3355 -2121 1662 0
-3355 2121 -1662 0
3355 2121 1662 0
3355 -2121 -1662 0
-3356 2907 3064 0
-3356 -2907 -3064 0
3356 -2907 3064 0
3356 2907 -3064 0
-3357 376 -296 0
-3357 -376 296 0
3357 -376 -296 0
3357 376 296 0
-3358 1559 0
-3358 595 0
3358 -1559 -595 0
-3359 -1876 3084 0
-3359 1876 -3084 0
3359 1876 3084 0
3359 -1876 -3084 0
-3360 -471 0
-3360 408 0
3360 471 -408 0
-3361 684 -3303 0
-3361 -684 3303 0
3361 -684 -3303 0
3361 684 3303 0
-3362 1034 0
-3362 -122 0
3362 -1034 122 0
-3363 -111 2918 0
-3363 111 -2918 0
3363 111 2918 0
3363 -111 -2918 0
-3364 2151 0
-3364 1703 0
3364 -2151 -1703 0
-3365 535 0
-3365 -905 0
3365 -535 905 0
-3366 2716 3237 0
-3366 -2716 -3237 0
3366 -2716 3237 0
3366 2716 -3237 0
-3367 3344 0
-3367 6 0
3367 -3344 -6 0
-3368 -1221 -1810 0
-3368 1221 1810 0
3368 1221 -1810 0
3368 -1221 1810 0
-3369 -1306 0
-3369 1525 0
3369 1306 -1525 0
-3370 -1072 649 0
-3370 1072 -649 0
3370 1072 649 0
3370 -1072 -649 0
-3371 -998 0
-3371 -1944 0
3371 998 1944 0
-3372 2456 -2672 0
-3372 -2456 2672 0
3372 -2456 -2672 0
3372 2456 2672 0
-3373 -1953 0
-3373 599 0
3373 1953 -599 0
-3374 1208 -81 0
-3374 -1208 81 0
3374 -1208 -81 0
3374 1208 81 0
-3375 -2028 0
-3375 -1924 0
3375 2028 1924 0
-3376 1619 2388 0
-3376 -1619 -2388 0
3376 -1619 2388 0
3376 1619 -2388 0
-3377 58 0
-3377 -2061 0
3377 -58 2061 0
-3378 -2923 1304 0
-3378 2923 -1304 0
3378 2923 1304 0
3378 -2923 -1304 0
-3379 -2733 2622 0
-3379 2733 -2622 0
3379 2733 2622 0
3379 -2733 -2622 0
-3380 2213 2417 0
-3380 -2213 -2417 0
3380 -2213 2417 0
3380 2213 -2417 0
-3381 -1824 -482 0
-3381 1824 482 0
3381 1824 -482 0
3381 -1824 482 0
-3382 -10 0
-3382 1318 0
3382 10 -1318 0
-3383 -1705 2627 0
-3383 1705 -2627 0
3383 1705 2627 0
3383 -1705 -2627 0
-3384 1633 0
-3384 -1207 0
3384 -1633 1207 0
-3385 898 -1804 0
-3385 -898 1804 0
3385 -898 -1804 0
3385 898 1804 0
-3386 2439 -2334 0
-3386 -2439 2334 0
3386 -2439 -2334 0
3386 2439 2334 0
-3387 1910 -2262 0
-3387 -1910 2262 0
3387 -1910 -2262 0
3387 1910 2262 0
-3388 2577 0
-3388 -1335 0
3388 -2577 1335 0
-3389 -2243 366 0
-3389 2243 -366 0
3389 2243 366 0
3389 -2243 -366 0
-3390 -840 -1069 0
-3390 840 1069 0
3390 840 -1069 0
3390 -840 1069 0
-3391 1598 0
-3391 1817 0
3391 -1598 -1817 0
-3392 2691 1314 0
-3392 -2691 -1314 0
3392 -2691 1314 0
3392 2691 -1314 0
-3393 149 -1711 0
-3393 -149 1711 0
3393 -149 -1711 0
3393 149 1711 0
-3394 -1307 -3281 0
-3394 1307 3281 0
3394 1307 -3281 0
3394 -1307 3281 0
-3395 2044 0
-3395 1295 0
3395 -2044 -1295 0
-3396 -970 960 0
-3396 970 -960 0
3396 970 960 0
3396 -970 -960 0
-3397 2549 -2942 0
-3397 -2549 2942 0
3397 -2549 -2942 0
3397 2549 2942 0
-3398 824 0
-3398 -18 0
3398 -824 18 0
-3399 -230 3038 0
-3399 230 -3038 0
3399 230 3038 0
3399 -230 -3038 0
-3400 -1551 0
-3400 -2389 0
3400 1551 2389 0
-3401 -3207 -1553 0
-3401 3207 1553 0
3401 3207 -1553 0
3401 -3207 1553 0
-3402 -1266 0
-3402 1751 0
3402 1266 -1751 0
-3403 -2589 0
-3403 267 0
3403 2589 -267 0
-3404 -1162 0
-3404 -562 0
3404 1162 562 0
-3405 603 -621 0
-3405 -603 621 0
3405 -603 -621 0
3405 603 621 0
-3406 -1662 0
-3406 133 0
3406 1662 -133 0
-3407 -271 0
-3407 819 0
3407 271 -819 0
-3408 -469 -2745 0
-3408 469 2745 0
3408 469 -2745 0
3408 -469 2745 0
-3409 -3240 559 0
-3409 3240 -559 0
3409 3240 559 0
3409 -3240 -559 0
-3410 -2327 -2754 0
-3410 2327 2754 0
3410 2327 -2754 0
3410 -2327 2754 0
-3411 -1322 1596 0
-3411 1322 -1596 0
3411 1322 1596 0
3411 -1322 -1596 0
-3412 1119 -700 0
-3412 -1119 700 0
3412 -1119 -700 0
3412 1119 700 0
-3413 -1231 2501 0
-3413 1231 -2501 0
3413 1231 2501 0
3413 -1231 -2501 0
-3414 -487 0
-3414 2120 0
3414 487 -2120 0
-3415 2930 16 0
-3415 -2930 -16 0
3415 -2930 16 0
3415 2930 -16 0
-3416 2677 1373 0
-3416 -2677 -1373 0
3416 -2677 1373 0
3416 2677 -1373 0
-3417 399 0
-3417 -71 0
3417 -399 71 0
-3418 985 -945 0
-3418 -985 945 0
3418 -985 -945 0
3418 985 945 0
-3419 298 -780 0
-3419 -298 780 0
3419 -298 -780 0
3419 298 780 0
-3420 687 1970 0
-3420 -687 -1970 0
3420 -687 1970 0
3420 687 -1970 0
-3421 934 0
-3421 -1246 0
3421 -934 1246 0
-3422 610 2296 0
-3422 -610 -2296 0
3422 -610 2296 0
3422 610 -2296 0
-3423 -2501 978 0
-3423 2501 -978 0
3423 2501 978 0
3423 -2501 -978 0
-3424 -1879 1150 0
-3424 1879 -1150 0
3424 1879 1150 0
3424 -1879 -1150 0
-3425 -2328 -2804 0
-3425 2328 2804 0
3425 2328 -2804 0
3425 -2328 2804 0
-3426 3335 264 0
-3426 -3335 -264 0
3426 -3335 264 0
3426 3335 -264 0
-3427 -552 1539 0
-3427 552 -1539 0
3427 552 1539 0
3427 -552 -1539 0
-3428 -2411 -994 0
-3428 2411 994 0
3428 2411 -994 0
3428 -2411 994 0
-3429 -645 0
-3429 -1691 0
3429 645 1691 0
-3430 -16 2824 0
-3430 16 -2824 0
3430 16 2824 0
3430 -16 -2824 0
-3431 -1983 617 0
-3431 1983 -617 0
3431 1983 617 0
3431 -1983 -617 0
-3432 3064 -3380 0
-3432 -3064 3380 0
3432 -3064 -3380 0
3432 3064 3380 0
-3433 -2767 3399 0
-3433 2767 -3399 0
3433 2767 3399 0
3433 -2767 -3399 0
-3434 -1442 -1793 0
-3434 1442 1793 0
3434 1442 -1793 0
3434 -1442 1793 0
-3435 3025 -283 0
-3435 -3025 283 0
3435 -3025 -283 0
3435 3025 283 0
-3436 -840 650 0
-3436 840 -650 0
3436 840 650 0
3436 -840 -650 0
-3437 1465 0
-3437 1223 0
3437 -1465 -1223 0
-3438 812 590 0
-3438 -812 -590 0
3438 -812 590 0
3438 812 -590 0
-3439 2384 1252 0
-3439 -2384 -1252 0
3439 -2384 1252 0
3439 2384 -1252 0
-3440 -1828 0
-3440 -1050 0
3440 1828 1050 0
-3441 -2885 1922 0
-3441 2885 -1922 0
3441 2885 1922 0
3441 -2885 -1922 0
-3442 -970 0
-3442 -3174 0
3442 970 3174 0
-3443 -1159 1208 0
-3443 1159 -1208 0
3443 1159 1208 0
3443 -1159 -1208 0
-3444 -3042 2663 0
-3444 3042 -2663 0
3444 3042 2663 0
3444 -3042 -2663 0
-3445 247 1039 0
-3445 -247 -1039 0
3445 -247 1039 0
3445 247 -1039 0
-3446 77 0
-3446 2175 0
3446 -77 -2175 0
-3447 -1250 320 0
-3447 1250 -320 0
3447 1250 320 0
3447 -1250 -320 0
-3448 2337 -2525 0
-3448 -2337 2525 0
3448 -2337 -2525 0
3448 2337 2525 0
-3449 2678 1939 0
-3449 -2678 -1939 0
3449 -2678 1939 0
3449 2678 -1939 0
-3450 2902 -2537 0
-3450 -2902 2537 0
3450 -2902 -2537 0
3450 2902 2537 0
-3451 -1508 2304 0
-3451 1508 -2304 0
3451 1508 2304 0
3451 -1508 -2304 0
-3452 -2453 -1327 0
-3452 2453 1327 0
3452 2453 -1327 0
3452 -2453 1327 0
-3453 -1127 0
-3453 -968 0
3453 1127 968 0
-3454 371 2110 0
-3454 -371 -2110 0
3454 -371 2110 0
3454 371 -2110 0
-3455 -43 3000 0
-3455 43 -3000 0
3455 43 3000 0
3455 -43 -3000 0
-3456 1082 -23 0
-3456 -1082 23 0
3456 -1082 -23 0
3456 1082 23 0
-3457 2472 0
-3457 1798 0
3457 -2472 -1798 0
-3458 2024 0
-3458 -2473 0
3458 -2024 2473 0
-3459 1912 -3128 0
-3459 -1912 3128 0
3459 -1912 -3128 0
3459 1912 3128 0
-3460 -498 1812 0
-3460 498 -1812 0
3460 498 1812 0
3460 -498 -1812 0
-3461 -723 1057 0
-3461 723 -1057 0
3461 723 1057 0
3461 -723 -1057 0
-3462 -223 0
-3462 1447 0
3462 223 -1447 0
-3463 1663 -844 0
-3463 -1663 844 0
3463 -1663 -844 0
3463 1663 844 0
-3464 -752 0
-3464 3276 0
3464 752 -3276 0
-3465 -1314 0
-3465 3389 0
3465 1314 -3389 0
-3466 2511 2795 0
-3466 -2511 -2795 0
3466 -2511 2795 0
3466 2511 -2795 0
-3467 981 158 0
-3467 -981 -158 0
3467 -981 158 0
3467 981 -158 0
-3468 3095 1871 0
-3468 -3095 -1871 0
3468 -3095 1871 0
3468 3095 -1871 0
-3469 1308 0
-3469 -1269 0
3469 -1308 1269 0
-3470 3103 0
-3470 -2077 0
3470 -3103 2077 0
-3471 3408 -2967 0
-3471 -3408 2967 0
3471 -3408 -2967 0
3471 3408 2967 0
-3472 2482 0
-3472 -803 0
3472 -2482 803 0
-3473 -1649 -3316 0
-3473 1649 3316 0
3473 1649 -3316 0
3473 -1649 3316 0
-3474 2098 -1687 0
-3474 -2098 1687 0
3474 -2098 -1687 0
3474 2098 1687 0
-3475 3009 -2684 0
-3475 -3009 2684 0
3475 -3009 -2684 0
3475 3009 2684 0
-3476 -2329 0
-3476 -528 0
3476 2329 528 0
-3477 -269 0
-3477 -2906 0
3477 269 2906 0
-3478 -2412 0
-3478 -2832 0
3478 2412 2832 0
-3479 -2352 0
-3479 96 0
3479 2352 -96 0
-3480 2980 0
-3480 2016 0
3480 -2980 -2016 0
-3481 -2535 -169 0
-3481 2535 169 0
3481 2535 -169 0
3481 -2535 169 0
-3482 -1577 0
-3482 3053 0
3482 1577 -3053 0
-3483 -2382 0
-3483 -2712 0
3483 2382 2712 0
-3484 2152 0
-3484 2785 0
3484 -2152 -2785 0
-3485 -2641 -2329 0
-3485 2641 2329 0
3485 2641 -2329 0
3485 -2641 2329 0
-3486 82 0
-3486 -2558 0
3486 -82 2558 0
-3487 -2544 1896 0
-3487 2544 -1896 0
3487 2544 1896 0
3487 -2544 -1896 0
-3488 722 1806 0
-3488 -722 -1806 0
3488 -722 1806 0
3488 722 -1806 0
-3489 -1546 -2016 0
-3489 1546 2016 0
3489 1546 -2016 0
3489 -1546 2016 0
-3490 853 3381 0
-3490 -853 -3381 0
3490 -853 3381 0
3490 853 -3381 0
-3491 331 0
-3491 -1529 0
3491 -331 1529 0
-3492 -3052 -1291 0
-3492 3052 1291 0
3492 3052 -1291 0
3492 -3052 1291 0
-3493 -3230 -484 0
-3493 3230 484 0
3493 3230 -484 0
3493 -3230 484 0
-3494 -529 -380 0
-3494 529 380 0
3494 529 -380 0
3494 -529 380 0
-3495 -2369 -1560 0
-3495 2369 1560 0
3495 2369 -1560 0
3495 -2369 1560 0
-3496 1327 2964 0
-3496 -1327 -2964 0
3496 -1327 2964 0
3496 1327 -2964 0
-3497 2026 2851 0
-3497 -2026 -2851 0
3497 -2026 2851 0
3497 2026 -2851 0
-3498 2659 0
-3498 1810 0
3498 -2659 -1810 0
-3499 -1687 130 0
-3499 1687 -130 0
3499 1687 130 0
3499 -1687 -130 0
-3500 1262 3067 0
-3500 -1262 -3067 0
3500 -1262 3067 0
3500 1262 -3067 0
-3501 -2020 0
-3501 1553 0
3501 2020 -1553 0
-3502 -219 0
-3502 1825 0
3502 219 -1825 0
-3503 -3262 1692 0
-3503 3262 -1692 0
3503 3262 1692 0
3503 -3262 -1692 0
-3504 -2840 1616 0
-3504 2840 -1616 0
3504 2840 1616 0
3504 -2840 -1616 0
-3505 2919 -1249 0
-3505 -2919 1249 0
3505 -2919 -1249 0
3505 2919 1249 0
-3506 -1469 1845 0
-3506 1469 -1845 0
3506 1469 1845 0
3506 -1469 -1845 0
-3507 -707 2028 0
-3507 707 -2028 0
3507 707 2028 0
3507 -707 -2028 0
-3508 2105 3430 0
-3508 -2105 -3430 0
3508 -2105 3430 0
3508 2105 -3430 0
-3509 84 0
-3509 3238 0
3509 -84 -3238 0
-3510 -1203 0
-3510 1168 0
3510 1203 -1168 0
-3511 -349 2375 0
-3511 349 -2375 0
3511 349 2375 0
3511 -349 -2375 0
-3512 -1243 337 0
-3512 1243 -337 0
3512 1243 337 0
3512 -1243 -337 0
-3513 -1040 -2450 0
-3513 1040 2450 0
3513 1040 -2450 0
3513 -1040 2450 0
-3514 2882 -2570 0
-3514 -2882 2570 0
3514 -2882 -2570 0
3514 2882 2570 0
-3515 3094 -3197 0
-3515 -3094 3197 0
3515 -3094 -3197 0
3515 3094 3197 0
-3516 -3380 0
-3516 586 0
3516 3380 -586 0
-3517 -2949 0
-3517 -113 0
3517 2949 113 0
-3518 611 0
-3518 259 0
3518 -611 -259 0
-3519 375 -1479 0
-3519 -375 1479 0
3519 -375 -1479 0
3519 375 1479 0
-3520 -214 0
-3520 -1847 0
3520 214 1847 0
-3521 2856 3308 0
-3521 -2856 -3308 0
3521 -2856 3308 0
3521 2856 -3308 0
-3522 304 -1724 0
-3522 -304 1724 0
3522 -304 -1724 0
3522 304 1724 0
-3523 2308 -2088 0
-3523 -2308 2088 0
3523 -2308 -2088 0
3523 2308 2088 0
-3524 437 -3435 0
-3524 -437 3435 0
3524 -437 -3435 0
3524 437 3435 0
-3525 1940 2865 0
-3525 -1940 -2865 0
3525 -1940 2865 0
3525 1940 -2865 0
-3526 2032 -160 0
-3526 -2032 160 0
3526 -2032 -160 0
3526 2032 160 0
-3527 3119 3233 0
-3527 -3119 -3233 0
3527 -3119 3233 0
3527 3119 -3233 0
-3528 2903 0
-3528 3158 0
3528 -2903 -3158 0
-3529 -1790 73 0
-3529 1790 -73 0
3529 1790 73 0
3529 -1790 -73 0
-3530 -941 1688 0
-3530 941 -1688 0
3530 941 1688 0
3530 -941 -1688 0
-3531 -1725 -1414 0
-3531 1725 1414 0
3531 1725 -1414 0
3531 -1725 1414 0
-3532 1093 -1434 0
-3532 -1093 1434 0
3532 -1093 -1434 0
3532 1093 1434 0
-3533 -3072 0
-3533 2084 0
3533 3072 -2084 0
-3534 2329 -3520 0
-3534 -2329 3520 0
3534 -2329 -3520 0
3534 2329 3520 0
-3535 -1104 0
-3535 -347 0
3535 1104 347 0
-3536 920 -1072 0
-3536 -920 1072 0
3536 -920 -1072 0
3536 920 1072 0
-3537 -343 -2689 0
-3537 343 2689 0
3537 343 -2689 0
3537 -343 2689 0
-3538 -576 0
-3538 -1160 0
3538 576 1160 0
-3539 3304 -834 0
-3539 -3304 834 0
3539 -3304 -834 0
3539 3304 834 0
-3540 -3017 -2696 0
-3540 3017 2696 0
3540 3017 -2696 0
3540 -3017 2696 0
-3541 -1607 0
-3541 886 0
3541 1607 -886 0
-3542 51 -1110 0
-3542 -51 1110 0
3542 -51 -1110 0
3542 51 1110 0
-3543 779 2016 0
-3543 -779 -2016 0
3543 -779 2016 0
3543 779 -2016 0
-3544 -2403 1091 0
-3544 2403 -1091 0
3544 2403 1091 0
3544 -2403 -1091 0
-3545 -2283 421 0
-3545 2283 -421 0
3545 2283 421 0
3545 -2283 -421 0
-3546 1120 -2038 0
-3546 -1120 2038 0
3546 -1120 -2038 0
3546 1120 2038 0
-3547 -2112 2699 0
-3547 2112 -2699 0
3547 2112 2699 0
3547 -2112 -2699 0
-3548 -1963 -2734 0
-3548 1963 2734 0
3548 1963 -2734 0
3548 -1963 2734 0
-3549 717 694 0
-3549 -717 -694 0
3549 -717 694 0
3549 717 -694 0
-3550 -409 -905 0
-3550 409 905 0
3550 409 -905 0
3550 -409 905 0
-3551 -1936 0
-3551 2359 0
3551 1936 -2359 0
-3552 -1268 0
-3552 -1353 0
3552 1268 1353 0
-3553 2449 0
-3553 -2624 0
3553 -2449 2624 0
-3554 1799 -1895 0
-3554 -1799 1895 0
3554 -1799 -1895 0
3554 1799 1895 0
-3555 -2373 3136 0
-3555 2373 -3136 0
3555 2373 3136 0
3555 -2373 -3136 0
-3556 3358 0
-3556 -3301 0
3556 -3358 3301 0
-3557 1612 -904 0
-3557 -1612 904 0
3557 -1612 -904 0
3557 1612 904 0
-3558 -2514 -2752 0
-3558 2514 2752 0
3558 2514 -2752 0
3558 -2514 2752 0
-3559 -1613 2331 0
-3559 1613 -2331 0
3559 1613 2331 0
3559 -1613 -2331 0
-3560 -2918 -3242 0
-3560 2918 3242 0
3560 2918 -3242 0
3560 -2918 3242 0
-3561 1194 2756 0
-3561 -1194 -2756 0
3561 -1194 2756 0
3561 1194 -2756 0
-3562 -1830 320 0
-3562 1830 -320 0
3562 1830 320 0
3562 -1830 -320 0
-3563 2803 0
-3563 945 0
3563 -2803 -945 0
-3564 -652 0
-3564 -1620 0
3564 652 1620 0
-3565 -1360 0
-3565 -1316 0
3565 1360 1316 0
-3566 -1706 612 0
-3566 1706 -612 0
3566 1706 612 0
3566 -1706 -612 0
-3567 3235 0
-3567 569 0
3567 -3235 -569 0
-3568 2553 -2642 0
-3568 -2553 2642 0
3568 -2553 -2642 0
3568 2553 2642 0
-3569 -165 -563 0
-3569 165 563 0
3569 165 -563 0
3569 -165 563 0
-3570 2648 1292 0
-3570 -2648 -1292 0
3570 -2648 1292 0
3570 2648 -1292 0
-3571 -1231 1135 0
-3571 1231 -1135 0
3571 1231 1135 0
3571 -1231 -1135 0
-3572 -2997 0
-3572 2222 0
3572 2997 -2222 0
-3573 -626 836 0
-3573 626 -836 0
3573 626 836 0
3573 -626 -836 0
-3574 948 0
-3574 -416 0
3574 -948 416 0
-3575 -3495 0
-3575 712 0
3575 3495 -712 0
-3576 -3016 0
-3576 3139 0
3576 3016 -3139 0
-3577 -1621 0
-3577 -2926 0
3577 1621 2926 0
-3578 -121 1065 0
-3578 121 -1065 0
3578 121 1065 0
3578 -121 -1065 0
-3579 -2850 555 0
-3579 2850 -555 0
3579 2850 555 0
3579 -2850 -555 0
-3580 2181 2913 0
-3580 -2181 -2913 0
3580 -2181 2913 0
3580 2181 -2913 0
-3581 1001 0
-3581 -2845 0
3581 -1001 2845 0
-3582 -2809 0
-3582 238 0
3582 2809 -238 0
-3583 3314 -1284 0
-3583 -3314 1284 0
3583 -3314 -1284 0
3583 3314 1284 0
-3584 -665 2904 0
-3584 665 -2904 0
3584 665 2904 0
3584 -665 -2904 0
-3585 903 0
-3585 2277 0
3585 -903 -2277 0
-3586 -2371 -2453 0
-3586 2371 2453 0
3586 2371 -2453 0
3586 -2371 2453 0
-3587 3165 1553 0
-3587 -3165 -1553 0
3587 -3165 1553 0
3587 3165 -1553 0
-3588 -86 -810 0
-3588 86 810 0
3588 86 -810 0
3588 -86 810 0
-3589 3043 711 0
-3589 -3043 -711 0
3589 -3043 711 0
3589 3043 -711 0
-3590 1876 -881 0
-3590 -1876 881 0
3590 -1876 -881 0
3590 1876 881 0
-3591 -1337 -1414 0
-3591 1337 1414 0
3591 1337 -1414 0
3591 -1337 1414 0
-3592 547 798 0
-3592 -547 -798 0
3592 -547 798 0
3592 547 -798 0
-3593 -1158 1348 0
-3593 1158 -1348 0
3593 1158 1348 0
3593 -1158 -1348 0
-3594 -398 -2174 0
-3594 398 2174 0
3594 398 -2174 0
3594 -398 2174 0
-3595 2160 2950 0
-3595 -2160 -2950 0
3595 -2160 2950 0
3595 2160 -2950 0
-3596 3173 -2568 0
-3596 -3173 2568 0
3596 -3173 -2568 0
3596 3173 2568 0
-3597 -1573 1988 0
-3597 1573 -1988 0
3597 1573 1988 0
3597 -1573 -1988 0
-3598 1638 0
-3598 2087 0
3598 -1638 -2087 0
-3599 -2248 3432 0
-3599 2248 -3432 0
3599 2248 3432 0
3599 -2248 -3432 0
-3600 1985 -1293 0
-3600 -1985 1293 0
3600 -1985 -1293 0
3600 1985 1293 0
-3601 2034 -742 0
-3601 -2034 742 0
3601 -2034 -742 0
3601 2034 742 0
-3602 -2053 0
-3602 159 0
3602 2053 -159 0
-3603 -1334 0
-3603 460 0
3603 1334 -460 0
-3604 -766 0
-3604 -1188 0
3604 766 1188 0
-3605 1768 -1088 0
-3605 -1768 1088 0
3605 -1768 -1088 0
3605 1768 1088 0
-3606 -58 1020 0
-3606 58 -1020 0
3606 58 1020 0
3606 -58 -1020 0
-3607 -2411 1749 0
-3607 2411 -1749 0
3607 2411 1749 0
3607 -2411 -1749 0
-3608 1772 3426 0
-3608 -1772 -3426 0
3608 -1772 3426 0
3608 1772 -3426 0
-3609 1044 -415 0
-3609 -1044 415 0
3609 -1044 -415 0
3609 1044 415 0
-3610 3532 1190 0
-3610 -3532 -1190 0
3610 -3532 1190 0
3610 3532 -1190 0
-3611 765 -3516 0
-3611 -765 3516 0
3611 -765 -3516 0
3611 765 3516 0
-3612 -90 0
-3612 -3121 0
3612 90 3121 0
-3613 2694 0
-3613 -2228 0
3613 -2694 2228 0
-3614 682 1416 0
-3614 -682 -1416 0
3614 -682 1416 0
3614 682 -1416 0
-3615 -1696 0
-3615 3077 0
3615 1696 -3077 0
-3616 3494 -1246 0
-3616 -3494 1246 0
3616 -3494 -1246 0
3616 3494 1246 0
-3617 -1778 0
-3617 -2528 0
3617 1778 2528 0
-3618 -834 -2838 0
-3618 834 2838 0
3618 834 -2838 0
3618 -834 2838 0
-3619 2980 2700 0
-3619 -2980 -2700 0
3619 -2980 2700 0
3619 2980 -2700 0
-3620 -1768 -2280 0
-3620 1768 2280 0
3620 1768 -2280 0
3620 -1768 2280 0
-3621 807 1200 0
-3621 -807 -1200 0
3621 -807 1200 0
3621 807 -1200 0
-3622 -165 3270 0
-3622 165 -3270 0
3622 165 3270 0
3622 -165 -3270 0
-3623 1350 -25 0
-3623 -1350 25 0
3623 -1350 -25 0
3623 1350 25 0
-3624 -676 -1229 0
-3624 676 1229 0
3624 676 -1229 0
3624 -676 1229 0
-3625 -3100 -213 0
-3625 3100 213 0
3625 3100 -213 0
3625 -3100 213 0
-3626 1299 0
-3626 -242 0
3626 -1299 242 0
-3627 -1034 -2893 0
-3627 1034 2893 0
3627 1034 -2893 0
3627 -1034 2893 0
-3628 -801 0
-3628 -2445 0
3628 801 2445 0
-3629 555 -3532 0
-3629 -555 3532 0
3629 -555 -3532 0
3629 555 3532 0
-3630 -1280 2999 0
-3630 1280 -2999 0
3630 1280 2999 0
3630 -1280 -2999 0
-3631 -837 3360 0
-3631 837 -3360 0
3631 837 3360 0
3631 -837 -3360 0
-3632 3418 -3279 0
-3632 -3418 3279 0
3632 -3418 -3279 0
3632 3418 3279 0
-3633 1344 0
-3633 -3530 0
3633 -1344 3530 0
-3634 -1797 -3094 0
-3634 1797 3094 0
3634 1797 -3094 0
3634 -1797 3094 0
-3635 3538 -1818 0
-3635 -3538 1818 0
3635 -3538 -1818 0
3635 3538 1818 0
-3636 -748 2389 0
-3636 748 -2389 0
3636 748 2389 0
3636 -748 -2389 0
-3637 2207 -366 0
-3637 -2207 366 0
3637 -2207 -366 0
3637 2207 366 0
-3638 -179 3363 0
-3638 179 -3363 0
3638 179 3363 0
3638 -179 -3363 0
-3639 -2729 0
-3639 -520 0
3639 2729 520 0
-3640 3636 -2727 0
-3640 -3636 2727 0
3640 -3636 -2727 0
3640 3636 2727 0
-3641 2050 -3023 0
-3641 -2050 3023 0
3641 -2050 -3023 0
3641 2050 3023 0
-3642 2759 1064 0
-3642 -2759 -1064 0
3642 -2759 1064 0
3642 2759 -1064 0
-3643 -2141 -3053 0
-3643 2141 3053 0
3643 2141 -3053 0
3643 -2141 3053 0
-3644 -450 0
-3644 -327 0
3644 450 327 0
-3645 -819 1968 0
-3645 819 -1968 0
3645 819 1968 0
3645 -819 -1968 0
-3646 -3180 0
-3646 -1253 0
3646 3180 1253 0
-3647 3159 0
-3647 2512 0
3647 -3159 -2512 0
-3648 578 3443 0
-3648 -578 -3443 0
3648 -578 3443 0
3648 578 -3443 0
-3649 2923 -1286 0
-3649 -2923 1286 0
3649 -2923 -1286 0
3649 2923 1286 0
-3650 2687 -2903 0
-3650 -2687 2903 0
3650 -2687 -2903 0
3650 2687 2903 0
-3651 -1783 2441 0
-3651 1783 -2441 0
3651 1783 2441 0
3651 -1783 -2441 0
-3652 1110 -876 0
-3652 -1110 876 0
3652 -1110 -876 0
3652 1110 876 0
-3653 -1010 -2671 0
-3653 1010 2671 0
3653 1010 -2671 0
3653 -1010 2671 0
-3654 1387 -99 0
-3654 -1387 99 0
3654 -1387 -99 0
3654 1387 99 0
-3655 -2442 3113 0
-3655 2442 -3113 0
3655 2442 3113 0
3655 -2442 -3113 0
-3656 -3561 -3046 0
-3656 3561 3046 0
3656 3561 -3046 0
3656 -3561 3046 0
-3657 2262 0
-3657 498 0
3657 -2262 -498 0
-3658 2708 0
-3658 -3646 0
3658 -2708 3646 0
-3659 1751 -270 0
-3659 -1751 270 0
3659 -1751 -270 0
3659 1751 270 0
-3660 2047 1927 0
-3660 -2047 -1927 0
3660 -2047 1927 0
3660 2047 -1927 0
-3661 -308 2711 0
-3661 308 -2711 0
3661 308 2711 0
3661 -308 -2711 0
-3662 -817 0
-3662 -241 0
3662 817 241 0
-3663 1085 -1996 0
-3663 -1085 1996 0
3663 -1085 -1996 0
3663 1085 1996 0
-3664 3 1903 0
-3664 -3 -1903 0
3664 -3 1903 0
3664 3 -1903 0
-3665 1796 -1044 0
-3665 -1796 1044 0
3665 -1796 -1044 0
3665 1796 1044 0
-3666 704 0
-3666 -1112 0
3666 -704 1112 0
-3667 819 2253 0
-3667 -819 -2253 0
3667 -819 2253 0
3667 819 -2253 0
-3668 3333 0
-3668 636 0
3668 -3333 -636 0
-3669 747 0
-3669 -2872 0
3669 -747 2872 0
-3670 1313 1964 0
-3670 -1313 -1964 0
3670 -1313 1964 0
3670 1313 -1964 0
-3671 -2949 0
-3671 309 0
3671 2949 -309 0
-3672 -1113 0
-3672 -3101 0
3672 1113 3101 0
-3673 -2819 -3446 0
-3673 2819 3446 0
3673 2819 -3446 0
3673 -2819 3446 0
-3674 -2813 -807 0
-3674 2813 807 0
3674 2813 -807 0
3674 -2813 807 0
-3675 -1611 -1852 0
-3675 1611 1852 0
3675 1611 -1852 0
3675 -1611 1852 0
-3676 -3592 -235 0
-3676 3592 235 0
3676 3592 -235 0
3676 -3592 235 0
-3677 3249 2352 0
-3677 -3249 -2352 0
3677 -3249 2352 0
3677 3249 -2352 0
-3678 -2881 2019 0
-3678 2881 -2019 0
3678 2881 2019 0
3678 -2881 -2019 0
-3679 -627 0
-3679 1747 0
3679 627 -1747 0
-3680 1280 -1892 0
-3680 -1280 1892 0
3680 -1280 -1892 0
3680 1280 1892 0
-3681 -3361 -340 0
-3681 3361 340 0
3681 3361 -340 0
3681 -3361 340 0
-3682 288 2549 0
-3682 -288 -2549 0
3682 -288 2549 0
3682 288 -2549 0
-3683 3439 -140 0
-3683 -3439 140 0
3683 -3439 -140 0
3683 3439 140 0
-3684 -283 1591 0
-3684 283 -1591 0
3684 283 1591 0
3684 -283 -1591 0
-3685 -2324 -1193 0
-3685 2324 1193 0
3685 2324 -1193 0
3685 -2324 1193 0
-3686 -2846 -2049 0
-3686 2846 2049 0
3686 2846 -2049 0
3686 -2846 2049 0
-3687 1280 -1170 0
-3687 -1280 1170 0
3687 -1280 -1170 0
3687 1280 1170 0
-3688 -3264 92 0
-3688 3264 -92 0
3688 3264 92 0
3688 -3264 -92 0
-3689 -1667 2567 0
-3689 1667 -2567 0
3689 1667 2567 0
3689 -1667 -2567 0
-3690 1336 0
-3690 680 0
3690 -1336 -680 0
-3691 -443 -2553 0
-3691 443 2553 0
3691 443 -2553 0
3691 -443 2553 0
-3692 2331 0
-3692 -958 0
3692 -2331 958 0
-3693 -2717 -1516 0
-3693 2717 1516 0
3693 2717 -1516 0
3693 -2717 1516 0
-3694 -1655 -175 0
-3694 1655 175 0
3694 1655 -175 0
3694 -1655 175 0
-3695 173 2771 0
-3695 -173 -2771 0
3695 -173 2771 0
3695 173 -2771 0
-3696 596 0
-3696 -3627 0
3696 -596 3627 0
-3697 -2790 -2219 0
-3697 2790 2219 0
3697 2790 -2219 0
3697 -2790 2219 0
-3698 621 -2358 0
-3698 -621 2358 0
3698 -621 -2358 0
3698 621 2358 0
-3699 -454 0
-3699 -1630 0
3699 454 1630 0
-3700 -1718 1742 0
-3700 1718 -1742 0
3700 1718 1742 0
3700 -1718 -1742 0
-3701 1728 -3246 0
-3701 -1728 3246 0
3701 -1728 -3246 0
3701 1728 3246 0
-3702 1229 -2925 0
-3702 -1229 2925 0
3702 -1229 -2925 0
3702 1229 2925 0
-3703 908 0
-3703 -145 0
3703 -908 145 0
-3704 -2002 0
-3704 -1813 0
3704 2002 1813 0
-3705 2591 -2171 0
-3705 -2591 2171 0
3705 -2591 -2171 0
3705 2591 2171 0
-3706 -550 0
-3706 3524 0
3706 550 -3524 0
-3707 1937 668 0
-3707 -1937 -668 0
3707 -1937 668 0
3707 1937 -668 0
-3708 696 2057 0
-3708 -696 -2057 0
3708 -696 2057 0
3708 696 -2057 0
-3709 744 0
-3709 2237 0
3709 -744 -2237 0
-3710 -2766 979 0
-3710 2766 -979 0
3710 2766 979 0
3710 -2766 -979 0
-3711 1089 1384 0
-3711 -1089 -1384 0
3711 -1089 1384 0
3711 1089 -1384 0
-3712 -794 0
-3712 -730 0
3712 794 730 0
-3713 -3426 0
-3713 -1752 0
3713 3426 1752 0
-3714 -956 -231 0
-3714 956 231 0
3714 956 -231 0
3714 -956 231 0
-3715 3380 0
-3715 2513 0
3715 -3380 -2513 0
-3716 2090 0
-3716 -2810 0
3716 -2090 2810 0
-3717 1018 2178 0
-3717 -1018 -2178 0
3717 -1018 2178 0
3717 1018 -2178 0
-3718 -2771 1261 0
-3718 2771 -1261 0
3718 2771 1261 0
3718 -2771 -1261 0
-3719 -1750 0
-3719 1892 0
3719 1750 -1892 0
-3720 3485 0
-3720 -2052 0
3720 -3485 2052 0
-3721 3602 -2077 0
-3721 -3602 2077 0
3721 -3602 -2077 0
3721 3602 2077 0
-3722 -3591 2849 0
-3722 3591 -2849 0
3722 3591 2849 0
3722 -3591 -2849 0
-3723 -2668 0
-3723 2708 0
3723 2668 -2708 0
-3724 -3012 2009 0
-3724 3012 -2009 0
3724 3012 2009 0
3724 -3012 -2009 0
-3725 -2430 -2672 0
-3725 2430 2672 0
3725 2430 -2672 0
3725 -2430 2672 0
-3726 642 -998 0
-3726 -642 998 0
3726 -642 -998 0
3726 642 998 0
-3727 -2987 -950 0
-3727 2987 950 0
3727 2987 -950 0
3727 -2987 950 0
-3728 1627 -1766 0
-3728 -1627 1766 0
3728 -1627 -1766 0
3728 1627 1766 0
-3729 -1263 0
-3729 969 0
3729 1263 -969 0
-3730 -1567 978 0
-3730 1567 -978 0
3730 1567 978 0
3730 -1567 -978 0
-3731 -625 0
-3731 2154 0
3731 625 -2154 0
-3732 -230 0
-3732 -826 0
3732 230 826 0
-3733 -707 -796 0
-3733 707 796 0
3733 707 -796 0
3733 -707 796 0
-3734 -472 -3006 0
-3734 472 3006 0
3734 472 -3006 0
3734 -472 3006 0
-3735 1097 3535 0
-3735 -1097 -3535 0
3735 -1097 3535 0
3735 1097 -3535 0
-3736 -219 2943 0
-3736 219 -2943 0
3736 219 2943 0
3736 -219 -2943 0
-3737 2494 -3029 0
-3737 -2494 3029 0
3737 -2494 -3029 0
3737 2494 3029 0
-3738 897 -2607 0
-3738 -897 2607 0
3738 -897 -2607 0
3738 897 2607 0
-3739 2650 -2177 0
-3739 -2650 2177 0
3739 -2650 -2177 0
3739 2650 2177 0
-3740 3500 695 0
-3740 -3500 -695 0
3740 -3500 695 0
3740 3500 -695 0
-3741 472 0
-3741 -626 0
3741 -472 626 0
-3742 3432 2953 0
-3742 -3432 -2953 0
3742 -3432 2953 0
3742 3432 -2953 0
-3743 41 -2977 0
-3743 -41 2977 0
3743 -41 -2977 0
3743 41 2977 0
-3744 3001 -819 0
-3744 -3001 819 0
3744 -3001 -819 0
3744 3001 819 0
-3745 2780 0
-3745 -1981 0
3745 -2780 1981 0
-3746 -2124 1145 0
-3746 2124 -1145 0
3746 2124 1145 0
3746 -2124 -1145 0
-3747 -2257 858 0
-3747 2257 -858 0
3747 2257 858 0
3747 -2257 -858 0
-3748 -1467 0
-3748 3712 0
3748 1467 -3712 0
-3749 2586 -2637 0
-3749 -2586 2637 0
3749 -2586 -2637 0
3749 2586 2637 0
-3750 861 -1965 0
-3750 -861 1965 0
3750 -861 -1965 0
3750 861 1965 0
-3751 -1154 1006 0
-3751 1154 -1006 0
3751 1154 1006 0
3751 -1154 -1006 0
-3752 2863 3608 0
-3752 -2863 -3608 0
3752 -2863 3608 0
3752 2863 -3608 0
-3753 -3651 -3486 0
-3753 3651 3486 0
3753 3651 -3486 0
3753 -3651 3486 0
-3754 -1631 59 0
-3754 1631 -59 0
3754 1631 59 0
3754 -1631 -59 0
-3755 2245 -3554 0
-3755 -2245 3554 0
3755 -2245 -3554 0
3755 2245 3554 0
-3756 -2373 0
-3756 -1710 0
3756 2373 1710 0
-3757 1319 0
-3757 -926 0
3757 -1319 926 0
-3758 -1523 -2183 0
-3758 1523 2183 0
3758 1523 -2183 0
3758 -1523 2183 0
-3759 2306 -1031 0
-3759 -2306 1031 0
3759 -2306 -1031 0
3759 2306 1031 0
-3760 766 -2166 0
-3760 -766 2166 0
3760 -766 -2166 0
3760 766 2166 0
-3761 2333 287 0
-3761 -2333 -287 0
3761 -2333 287 0
3761 2333 -287 0
-3762 -2589 1225 0
-3762 2589 -1225 0
3762 2589 1225 0
3762 -2589 -1225 0
-3763 -3149 -667 0
-3763 3149 667 0
3763 3149 -667 0
3763 -3149 667 0
-3764 2898 576 0
-3764 -2898 -576 0
3764 -2898 576 0
3764 2898 -576 0
-3765 -2622 -3696 0
-3765 2622 3696 0
3765 2622 -3696 0
3765 -2622 3696 0
-3766 1078 -331 0
-3766 -1078 331 0
3766 -1078 -331 0
3766 1078 331 0
-3767 -2603 0
-3767 -983 0
3767 2603 983 0
-3768 -413 3400 0
-3768 413 -3400 0
3768 413 3400 0
3768 -413 -3400 0
-3769 3371 0
-3769 1965 0
3769 -3371 -1965 0
-3770 -301 3724 0
-3770 301 -3724 0
3770 301 3724 0
3770 -301 -3724 0
-3771 2864 0
-3771 2797 0
3771 -2864 -2797 0
-3772 -2638 0
-3772 -1988 0
3772 2638 1988 0
-3773 -2671 2530 0
-3773 2671 -2530 0
3773 2671 2530 0
3773 -2671 -2530 0
-3774 771 1318 0
-3774 -771 -1318 0
3774 -771 1318 0
3774 771 -1318 0
-3775 2730 1159 0
-3775 -2730 -1159 0
3775 -2730 1159 0
3775 2730 -1159 0
-3776 -1514 -1341 0
-3776 1514 1341 0
3776 1514 -1341 0
3776 -1514 1341 0
-3777 1606 2458 0
-3777 -1606 -2458 0
3777 -1606 2458 0
3777 1606 -2458 0
-3778 2315 3156 0
-3778 -2315 -3156 0
3778 -2315 3156 0
3778 2315 -3156 0
-3779 -3358 0
-3779 3767 0
3779 3358 -3767 0
-3780 3644 0
-3780 2286 0
3780 -3644 -2286 0
-3781 -958 -2730 0
-3781 958 2730 0
3781 958 -2730 0
3781 -958 2730 0
-3782 -882 3078 0
-3782 882 -3078 0
3782 882 3078 0
3782 -882 -3078 0
-3783 1074 -298 0
-3783 -1074 298 0
3783 -1074 -298 0
3783 1074 298 0
-3784 101 -525 0
-3784 -101 525 0
3784 -101 -525 0
3784 101 525 0
-3785 1071 -2627 0
-3785 -1071 2627 0
3785 -1071 -2627 0
3785 1071 2627 0
-3786 619 -3237 0
-3786 -619 3237 0
3786 -619 -3237 0
3786 619 3237 0
-3787 -668 1239 0
-3787 668 -1239 0
3787 668 1239 0
3787 -668 -1239 0
-3788 3528 0
-3788 -1330 0
3788 -3528 1330 0
-3789 3556 -2397 0
-3789 -3556 2397 0
3789 -3556 -2397 0
3789 3556 2397 0
-3790 1247 2100 0
-3790 -1247 -2100 0
3790 -1247 2100 0
3790 1247 -2100 0
-3791 -1303 -2578 0
-3791 1303 2578 0
3791 1303 -2578 0
3791 -1303 2578 0
-3792 -932 249 0
-3792 932 -249 0
3792 932 249 0
3792 -932 -249 0
-3793 2308 -3129 0
-3793 -2308 3129 0
3793 -2308 -3129 0
3793 2308 3129 0
-3794 -3502 0
-3794 -469 0
3794 3502 469 0
-3795 2947 1940 0
-3795 -2947 -1940 0
3795 -2947 1940 0
3795 2947 -1940 0
-3796 -1282 0
-3796 1375 0
3796 1282 -1375 0
-3797 -1670 1110 0
-3797 1670 -1110 0
3797 1670 1110 0
3797 -1670 -1110 0
-3798 -3226 0
-3798 3629 0
3798 3226 -3629 0
-3799 -303 -519 0
-3799 303 519 0
3799 303 -519 0
3799 -303 519 0
-3800 -2749 0
-3800 -578 0
3800 2749 578 0
-3801 1694 2231 0
-3801 -1694 -2231 0
3801 -1694 2231 0
3801 1694 -2231 0
-3802 -3398 -1679 0
-3802 3398 1679 0
3802 3398 -1679 0
3802 -3398 1679 0
-3803 -2733 -2728 0
-3803 2733 2728 0
3803 2733 -2728 0
3803 -2733 2728 0
-3804 -2063 0
-3804 -571 0
3804 2063 571 0
-3805 1391 2516 0
-3805 -1391 -2516 0
3805 -1391 2516 0
3805 1391 -2516 0
-3806 1844 2780 0
-3806 -1844 -2780 0
3806 -1844 2780 0
3806 1844 -2780 0
-3807 -1132 -143 0
-3807 1132 143 0
3807 1132 -143 0
3807 -1132 143 0
-3808 3416 -277 0
-3808 -3416 277 0
3808 -3416 -277 0
3808 3416 277 0
-3809 1900 -1659 0
-3809 -1900 1659 0
3809 -1900 -1659 0
3809 1900 1659 0
-3810 -2861 -2588 0
-3810 2861 2588 0
3810 2861 -2588 0
3810 -2861 2588 0
-3811 3583 -2853 0
-3811 -3583 2853 0
3811 -3583 -2853 0
3811 3583 2853 0
-3812 2244 -1992 0
-3812 -2244 1992 0
3812 -2244 -1992 0
3812 2244 1992 0
-3813 2395 0
-3813 62 0
3813 -2395 -62 0
-3814 -3449 -1044 0
-3814 3449 1044 0
3814 3449 -1044 0
3814 -3449 1044 0
-3815 -2216 -523 0
-3815 2216 523 0
3815 2216 -523 0
3815 -2216 523 0
-3816 -3811 0
-3816 -428 0
3816 3811 428 0
-3817 -5 -3661 0
-3817 5 3661 0
3817 5 -3661 0
3817 -5 3661 0
-3818 2458 -479 0
-3818 -2458 479 0
3818 -2458 -479 0
3818 2458 479 0
-3819 -1729 -362 0
-3819 1729 362 0
3819 1729 -362 0
3819 -1729 362 0
-3820 743 1747 0
-3820 -743 -1747 0
3820 -743 1747 0
3820 743 -1747 0
-3821 -419 1228 0
-3821 419 -1228 0
3821 419 1228 0
3821 -419 -1228 0
-3822 673 0
-3822 649 0
3822 -673 -649 0
-3823 396 0
-3823 -1312 0
3823 -396 1312 0
-3824 346 222 0
-3824 -346 -222 0
3824 -346 222 0
3824 346 -222 0
-3825 -1041 1253 0
-3825 1041 -1253 0
3825 1041 1253 0
3825 -1041 -1253 0
-3826 1317 -1035 0
-3826 -1317 1035 0
3826 -1317 -1035 0
3826 1317 1035 0
-3827 222 -3577 0
-3827 -222 3577 0
3827 -222 -3577 0
3827 222 3577 0
-3828 733 0
-3828 1932 0
3828 -733 -1932 0
-3829 -3577 -3441 0
-3829 3577 3441 0
3829 3577 -3441 0
3829 -3577 3441 0
-3830 -1361 0
-3830 -870 0
3830 1361 870 0
-3831 261 3450 0
-3831 -261 -3450 0
3831 -261 3450 0
3831 261 -3450 0
-3832 -2310 3379 0
-3832 2310 -3379 0
3832 2310 3379 0
3832 -2310 -3379 0
-3833 5 0
-3833 -2987 0
3833 -5 2987 0
-3834 3257 0
-3834 -1438 0
3834 -3257 1438 0
-3835 2240 -1379 0
-3835 -2240 1379 0
3835 -2240 -1379 0
3835 2240 1379 0
-3836 -1425 -2971 0
-3836 1425 2971 0
3836 1425 -2971 0
3836 -1425 2971 0
-3837 1943 3773 0
-3837 -1943 -3773 0
3837 -1943 3773 0
3837 1943 -3773 0
-3838 1750 0
-3838 -2693 0
3838 -1750 2693 0
-3839 1985 3487 0
-3839 -1985 -3487 0
3839 -1985 3487 0
3839 1985 -3487 0
-3840 -3077 1630 0
-3840 3077 -1630 0
3840 3077 1630 0
3840 -3077 -1630 0
-3841 -3451 0
-3841 1949 0
3841 3451 -1949 0
-3842 -3184 1900 0
-3842 3184 -1900 0
3842 3184 1900 0
3842 -3184 -1900 0
-3843 3789 3134 0
-3843 -3789 -3134 0
3843 -3789 3134 0
3843 3789 -3134 0
-3844 -2585 791 0
-3844 2585 -791 0
3844 2585 791 0
3844 -2585 -791 0
-3845 2489 0
-3845 3402 0
3845 -2489 -3402 0
-3846 -2385 2617 0
-3846 2385 -2617 0
3846 2385 2617 0
3846 -2385 -2617 0
-3847 -396 0
-3847 3177 0
3847 396 -3177 0
-3848 3410 2026 0
-3848 -3410 -2026 0
3848 -3410 2026 0
3848 3410 -2026 0
-3849 1787 0
-3849 -721 0
3849 -1787 721 0
-3850 -1286 -901 0
-3850 1286 901 0
3850 1286 -901 0
3850 -1286 901 0
-3851 2226 -3540 0
-3851 -2226 3540 0
3851 -2226 -3540 0
3851 2226 3540 0
-3852 1710 -301 0
-3852 -1710 301 0
3852 -1710 -301 0
3852 1710 301 0
-3853 2023 2107 0
-3853 -2023 -2107 0
3853 -2023 2107 0
3853 2023 -2107 0
-3854 2829 -98 0
-3854 -2829 98 0
3854 -2829 -98 0
3854 2829 98 0
-3855 -354 2726 0
-3855 354 -2726 0
3855 354 2726 0
3855 -354 -2726 0
-3856 917 0
-3856 2221 0
3856 -917 -2221 0
-3857 3282 -1243 0
-3857 -3282 1243 0
3857 -3282 -1243 0
3857 3282 1243 0
-3858 3256 -1867 0
-3858 -3256 1867 0
3858 -3256 -1867 0
3858 3256 1867 0
-3859 251 -526 0
-3859 -251 526 0
3859 -251 -526 0
3859 251 526 0
-3860 2906 -1534 0
-3860 -2906 1534 0
3860 -2906 -1534 0
3860 2906 1534 0
-3861 -2091 0
-3861 3134 0
3861 2091 -3134 0
-3862 2780 -743 0
-3862 -2780 743 0
3862 -2780 -743 0
3862 2780 743 0
-3863 2084 0
-3863 -663 0
3863 -2084 663 0
-3864 3068 791 0
-3864 -3068 -791 0
3864 -3068 791 0
3864 3068 -791 0
-3865 2124 -2859 0
-3865 -2124 2859 0
3865 -2124 -2859 0
3865 2124 2859 0
-3866 2 0
-3866 -26 0
3866 -2 26 0
-3867 1277 0
-3867 -3195 0
3867 -1277 3195 0
-3868 826 622 0
-3868 -826 -622 0
3868 -826 622 0
3868 826 -622 0
-3869 2259 0
-3869 -75 0
3869 -2259 75 0
-3870 2498 -3386 0
-3870 -2498 3386 0
3870 -2498 -3386 0
3870 2498 3386 0
-3871 -2784 1438 0
-3871 2784 -1438 0
3871 2784 1438 0
3871 -2784 -1438 0
-3872 888 0
-3872 -3033 0
3872 -888 3033 0
-3873 -734 1956 0
-3873 734 -1956 0
3873 734 1956 0
3873 -734 -1956 0
-3874 2111 3463 0
-3874 -2111 -3463 0
3874 -2111 3463 0
3874 2111 -3463 0
-3875 2625 -1288 0
-3875 -2625 1288 0
3875 -2625 -1288 0
3875 2625 1288 0
-3876 3812 2245 0
-3876 -3812 -2245 0
3876 -3812 2245 0
3876 3812 -2245 0
-3877 2794 -3403 0
-3877 -2794 3403 0
3877 -2794 -3403 0
3877 2794 3403 0
-3878 -3079 3559 0
-3878 3079 -3559 0
3878 3079 3559 0
3878 -3079 -3559 0
-3879 1338 0
-3879 1998 0
3879 -1338 -1998 0
-3880 -2692 3799 0
-3880 2692 -3799 0
3880 2692 3799 0
3880 -2692 -3799 0
-3881 -1615 2744 0
-3881 1615 -2744 0
3881 1615 2744 0
3881 -1615 -2744 0
-3882 3107 0
-3882 -2110 0
3882 -3107 2110 0
-3883 1160 -992 0
-3883 -1160 992 0
3883 -1160 -992 0
3883 1160 992 0
-3884 -477 3547 0
-3884 477 -3547 0
3884 477 3547 0
3884 -477 -3547 0
-3885 -1015 2173 0
-3885 1015 -2173 0
3885 1015 2173 0
3885 -1015 -2173 0
-3886 1491 -2160 0
-3886 -1491 2160 0
3886 -1491 -2160 0
3886 1491 2160 0
-3887 1455 23 0
-3887 -1455 -23 0
3887 -1455 23 0
3887 1455 -23 0
-3888 2731 0
-3888 3203 0
3888 -2731 -3203 0
-3889 3133 -3827 0
-3889 -3133 3827 0
3889 -3133 -3827 0
3889 3133 3827 0
-3890 1377 3631 0
-3890 -1377 -3631 0
3890 -1377 3631 0
3890 1377 -3631 0
-3891 -659 0
-3891 -2414 0
3891 659 2414 0
-3892 1398 -1234 0
-3892 -1398 1234 0
3892 -1398 -1234 0
3892 1398 1234 0
-3893 -3379 0
-3893 2744 0
3893 3379 -2744 0
-3894 2010 0
-3894 3556 0
3894 -2010 -3556 0
-3895 1799 0
-3895 -531 0
3895 -1799 531 0
-3896 2500 0
-3896 1964 0
3896 -2500 -1964 0
-3897 2751 -3163 0
-3897 -2751 3163 0
3897 -2751 -3163 0
3897 2751 3163 0
-3898 -734 -1205 0
-3898 734 1205 0
3898 734 -1205 0
3898 -734 1205 0
-3899 3614 0
-3899 846 0
3899 -3614 -846 0
-3900 -1095 -1780 0
-3900 1095 1780 0
3900 1095 -1780 0
3900 -1095 1780 0
-3901 -644 0
-3901 -3234 0
3901 644 3234 0
-3902 -1314 0
-3902 2646 0
3902 1314 -2646 0
-3903 912 -2780 0
-3903 -912 2780 0
3903 -912 -2780 0
3903 912 2780 0
-3904 2989 1893 0
-3904 -2989 -1893 0
3904 -2989 1893 0
3904 2989 -1893 0
-3905 3126 1351 0
-3905 -3126 -1351 0
3905 -3126 1351 0
3905 3126 -1351 0
-3906 616 -218 0
-3906 -616 218 0
3906 -616 -218 0
3906 616 218 0
-3907 -1049 2187 0
-3907 1049 -2187 0
3907 1049 2187 0
3907 -1049 -2187 0
-3908 -1121 886 0
-3908 1121 -886 0
3908 1121 886 0
3908 -1121 -886 0
-3909 420 -2494 0
-3909 -420 2494 0
3909 -420 -2494 0
3909 420 2494 0
-3910 2566 -3192 0
-3910 -2566 3192 0
3910 -2566 -3192 0
3910 2566 3192 0
-3911 2966 0
-3911 3252 0
3911 -2966 -3252 0
-3912 -3836 1415 0
-3912 3836 -1415 0
3912 3836 1415 0
3912 -3836 -1415 0
-3913 3408 -3147 0
-3913 -3408 3147 0
3913 -3408 -3147 0
3913 3408 3147 0
-3914 1985 -1022 0
-3914 -1985 1022 0
3914 -1985 -1022 0
3914 1985 1022 0
-3915 -3501 2158 0
-3915 3501 -2158 0
3915 3501 2158 0
3915 -3501 -2158 0
-3916 550 -1195 0
-3916 -550 1195 0
3916 -550 -1195 0
3916 550 1195 0
-3917 -3448 -1380 0
-3917 3448 1380 0
3917 3448 -1380 0
3917 -3448 1380 0
-3918 -2161 1981 0
-3918 2161 -1981 0
3918 2161 1981 0
3918 -2161 -1981 0
-3919 1236 0
-3919 -3752 0
3919 -1236 3752 0
-3920 -2196 44 0
-3920 2196 -44 0
3920 2196 44 0
3920 -2196 -44 0
-3921 -520 1783 0
-3921 520 -1783 0
3921 520 1783 0
3921 -520 -1783 0
-3922 -1653 -37 0
-3922 1653 37 0
3922 1653 -37 0
3922 -1653 37 0
-3923 -1948 -2144 0
-3923 1948 2144 0
3923 1948 -2144 0
3923 -1948 2144 0
-3924 3853 1278 0
-3924 -3853 -1278 0
3924 -3853 1278 0
3924 3853 -1278 0
-3925 -2625 887 0
-3925 2625 -887 0
3925 2625 887 0
3925 -2625 -887 0
-3926 -1749 0
-3926 2938 0
3926 1749 -2938 0
-3927 3762 771 0
-3927 -3762 -771 0
3927 -3762 771 0
3927 3762 -771 0
-3928 2123 2829 0
-3928 -2123 -2829 0
3928 -2123 2829 0
3928 2123 -2829 0
-3929 -2615 3769 0
-3929 2615 -3769 0
3929 2615 3769 0
3929 -2615 -3769 0
-3930 -3388 0
-3930 1941 0
3930 3388 -1941 0
-3931 -2312 -2754 0
-3931 2312 2754 0
3931 2312 -2754 0
3931 -2312 2754 0
-3932 2563 2175 0
-3932 -2563 -2175 0
3932 -2563 2175 0
3932 2563 -2175 0
-3933 1915 -2937 0
-3933 -1915 2937 0
3933 -1915 -2937 0
3933 1915 2937 0
-3934 3019 0
-3934 3338 0
3934 -3019 -3338 0
-3935 1159 1459 0
-3935 -1159 -1459 0
3935 -1159 1459 0
3935 1159 -1459 0
-3936 1073 1313 0
-3936 -1073 -1313 0
3936 -1073 1313 0
3936 1073 -1313 0
-3937 185 -483 0
-3937 -185 483 0
3937 -185 -483 0
3937 185 483 0
-3938 -1413 0
-3938 3540 0
3938 1413 -3540 0
-3939 1339 -1610 0
-3939 -1339 1610 0
3939 -1339 -1610 0
3939 1339 1610 0
-3940 2038 0
-3940 -1441 0
3940 -2038 1441 0
-3941 314 0
-3941 -447 0
3941 -314 447 0
-3942 3052 3274 0
-3942 -3052 -3274 0
3942 -3052 3274 0
3942 3052 -3274 0
-3943 -1164 2714 0
-3943 1164 -2714 0
3943 1164 2714 0
3943 -1164 -2714 0
-3944 -1536 3686 0
-3944 1536 -3686 0
3944 1536 3686 0
3944 -1536 -3686 0
-3945 2059 -549 0
-3945 -2059 549 0
3945 -2059 -549 0
3945 2059 549 0
-3946 1907 -1703 0
-3946 -1907 1703 0
3946 -1907 -1703 0
3946 1907 1703 0
-3947 -2184 -1418 0
-3947 2184 1418 0
3947 2184 -1418 0
3947 -2184 1418 0
-3948 -3586 0
-3948 2856 0
3948 3586 -2856 0
-3949 3060 -443 0
-3949 -3060 443 0
3949 -3060 -443 0
3949 3060 443 0
-3950 -3167 1523 0
-3950 3167 -1523 0
3950 3167 1523 0
3950 -3167 -1523 0
-3951 -2791 3743 0
-3951 2791 -3743 0
3951 2791 3743 0
3951 -2791 -3743 0
-3952 2360 3466 0
-3952 -2360 -3466 0
3952 -2360 3466 0
3952 2360 -3466 0
-3953 -2532 0
-3953 1058 0
3953 2532 -1058 0
-3954 1647 2764 0
-3954 -1647 -2764 0
3954 -1647 2764 0
3954 1647 -2764 0
-3955 3348 1324 0
-3955 -3348 -1324 0
3955 -3348 1324 0
3955 3348 -1324 0
-3956 -117 -2621 0
-3956 117 2621 0
3956 117 -2621 0
3956 -117 2621 0
-3957 -3118 0
-3957 2262 0
3957 3118 -2262 0
-3958 167 940 0
-3958 -167 -940 0
3958 -167 940 0
3958 167 -940 0
-3959 -3442 0
-3959 -2550 0
3959 3442 2550 0
-3960 1892 0
-3960 -1539 0
3960 -1892 1539 0
-3961 3864 -1310 0
-3961 -3864 1310 0
3961 -3864 -1310 0
3961 3864 1310 0
-3962 -161 -3322 0
-3962 161 3322 0
3962 161 -3322 0
3962 -161 3322 0
-3963 -547 3286 0
-3963 547 -3286 0
3963 547 3286 0
3963 -547 -3286 0
-3964 -2118 2212 0
-3964 2118 -2212 0
3964 2118 2212 0
3964 -2118 -2212 0
-3965 1102 0
-3965 3134 0
3965 -1102 -3134 0
-3966 -2765 0
-3966 2073 0
3966 2765 -2073 0
-3967 915 3534 0
-3967 -915 -3534 0
3967 -915 3534 0
3967 915 -3534 0
-3968 2035 -1568 0
-3968 -2035 1568 0
3968 -2035 -1568 0
3968 2035 1568 0
-3969 652 -2450 0
-3969 -652 2450 0
3969 -652 -2450 0
3969 652 2450 0
-3970 1021 3760 0
-3970 -1021 -3760 0
3970 -1021 3760 0
3970 1021 -3760 0
-3971 -1865 -2377 0
-3971 1865 2377 0
3971 1865 -2377 0
3971 -1865 2377 0
-3972 -283 3534 0
-3972 283 -3534 0
3972 283 3534 0
3972 -283 -3534 0
-3973 -2208 -2439 0
-3973 2208 2439 0
3973 2208 -2439 0
3973 -2208 2439 0
-3974 2912 -2747 0
-3974 -2912 2747 0
3974 -2912 -2747 0
3974 2912 2747 0
-3975 330 -92 0
-3975 -330 92 0
3975 -330 -92 0
3975 330 92 0
-3976 -1579 3810 0
-3976 1579 -3810 0
3976 1579 3810 0
3976 -1579 -3810 0
-3977 -2492 -3170 0
-3977 2492 3170 0
3977 2492 -3170 0
3977 -2492 3170 0
-3978 2762 0
-3978 -3363 0
3978 -2762 3363 0
-3979 400 0
-3979 3343 0
3979 -400 -3343 0
-3980 3523 1273 0
-3980 -3523 -1273 0
3980 -3523 1273 0
3980 3523 -1273 0
-3981 -1139 -2502 0
-3981 1139 2502 0
3981 1139 -2502 0
3981 -1139 2502 0
-3982 -3953 -290 0
-3982 3953 290 0
3982 3953 -290 0
3982 -3953 290 0
-3983 2090 1799 0
-3983 -2090 -1799 0
3983 -2090 1799 0
3983 2090 -1799 0
-3984 -798 0
-3984 -868 0
3984 798 868 0
-3985 2089 965 0
-3985 -2089 -965 0
3985 -2089 965 0
3985 2089 -965 0
-3986 518 3661 0
-3986 -518 -3661 0
3986 -518 3661 0
3986 518 -3661 0
-3987 1818 -3512 0
-3987 -1818 3512 0
3987 -1818 -3512 0
3987 1818 3512 0
-3988 -2046 0
-3988 -1027 0
3988 2046 1027 0
-3989 -1021 -3350 0
-3989 1021 3350 0
3989 1021 -3350 0
3989 -1021 3350 0
-3990 3862 -550 0
-3990 -3862 550 0
3990 -3862 -550 0
3990 3862 550 0
-3991 3857 0
-3991 -3235 0
3991 -3857 3235 0
-3992 2477 -1184 0
-3992 -2477 1184 0
3992 -2477 -1184 0
3992 2477 1184 0
-3993 1551 0
-3993 -1110 0
3993 -1551 1110 0
-3994 -2055 671 0
-3994 2055 -671 0
3994 2055 671 0
3994 -2055 -671 0
-3995 -892 0
-3995 2717 0
3995 892 -2717 0
-3996 1614 0
-3996 2898 0
3996 -1614 -2898 0
-3997 3370 3068 0
-3997 -3370 -3068 0
3997 -3370 3068 0
3997 3370 -3068 0
-3998 -897 1892 0
-3998 897 -1892 0
3998 897 1892 0
3998 -897 -1892 0
-3999 -3373 0
-3999 -3501 0
3999 3373 3501 0
-4000 1412 1686 0
-4000 -1412 -1686 0
4000 -1412 1686 0
4000 1412 -1686 0
-4001 -2107 0
-4001 -377 0
4001 2107 377 0
-4002 2548 -2248 0
-4002 -2548 2248 0
4002 -2548 -2248 0
4002 2548 2248 0
-4003 3395 -3997 0
-4003 -3395 3997 0
4003 -3395 -3997 0
4003 3395 3997 0
-4004 -2858 0
-4004 -938 0
4004 2858 938 0
-4005 -2259 114 0
-4005 2259 -114 0
4005 2259 114 0
4005 -2259 -114 0
-4006 -448 -328 0
-4006 448 328 0
4006 448 -328 0
4006 -448 328 0
-4007 -2636 0
-4007 -876 0
4007 2636 876 0
-4008 -1421 370 0
-4008 1421 -370 0
4008 1421 370 0
4008 -1421 -370 0
-4009 1859 0
-4009 3370 0
4009 -1859 -3370 0
-4010 -393 3181 0
-4010 393 -3181 0
4010 393 3181 0
4010 -393 -3181 0
-4011 -1256 0
-4011 -181 0
4011 1256 181 0
-4012 -833 0
-4012 -425 0
4012 833 425 0
-4013 4000 -3723 0
-4013 -4000 3723 0
4013 -4000 -3723 0
4013 4000 3723 0
-4014 3508 -175 0
-4014 -3508 175 0
4014 -3508 -175 0
4014 3508 175 0
-4015 2450 559 0
-4015 -2450 -559 0
4015 -2450 559 0
4015 2450 -559 0
-4016 1876 -927 0
-4016 -1876 927 0
4016 -1876 -927 0
4016 1876 927 0
-4017 -1284 -2256 0
-4017 1284 2256 0
4017 1284 -2256 0
4017 -1284 2256 0
-4018 -2522 -3452 0
-4018 2522 3452 0
4018 2522 -3452 0
4018 -2522 3452 0
-4019 1776 -1020 0
-4019 -1776 1020 0
4019 -1776 -1020 0
4019 1776 1020 0
-4020 1207 0
-4020 3594 0
4020 -1207 -3594 0
-4021 3516 3192 0
-4021 -3516 -3192 0
4021 -3516 3192 0
4021 3516 -3192 0
-4022 2830 -183 0
-4022 -2830 183 0
4022 -2830 -183 0
4022 2830 183 0
-4023 2780 0
-4023 3546 0
4023 -2780 -3546 0
-4024 -2616 -2620 0
-4024 2616 2620 0
4024 2616 -2620 0
4024 -2616 2620 0
-4025 -1006 -486 0
-4025 1006 486 0
4025 1006 -486 0
4025 -1006 486 0
-4026 3060 -1444 0
-4026 -3060 1444 0
4026 -3060 -1444 0
4026 3060 1444 0
-4027 3842 0
-4027 -2857 0
4027 -3842 2857 0
-4028 -2157 1206 0
-4028 2157 -1206 0
4028 2157 1206 0
4028 -2157 -1206 0
-4029 1187 -2766 0
-4029 -1187 2766 0
4029 -1187 -2766 0
4029 1187 2766 0
-4030 625 -1911 0
-4030 -625 1911 0
4030 -625 -1911 0
4030 625 1911 0
-4031 -3863 0
-4031 1289 0
4031 3863 -1289 0
-4032 1780 940 0
-4032 -1780 -940 0
4032 -1780 940 0
4032 1780 -940 0
-4033 3551 0
-4033 2364 0
4033 -3551 -2364 0
-4034 2841 -477 0
-4034 -2841 477 0
4034 -2841 -477 0
4034 2841 477 0
-4035 666 0
-4035 -2799 0
4035 -666 2799 0
-4036 3213 -1973 0
-4036 -3213 1973 0
4036 -3213 -1973 0
4036 3213 1973 0
-4037 562 -2523 0
-4037 -562 2523 0
4037 -562 -2523 0
4037 562 2523 0
-4038 -1453 -1881 0
-4038 1453 1881 0
4038 1453 -1881 0
4038 -1453 1881 0
-4039 3712 2087 0
-4039 -3712 -2087 0
4039 -3712 2087 0
4039 3712 -2087 0
-4040 3019 1907 0
-4040 -3019 -1907 0
4040 -3019 1907 0
4040 3019 -1907 0
-4041 3343 1560 0
-4041 -3343 -1560 0
4041 -3343 1560 0
4041 3343 -1560 0
-4042 -2208 1587 0
-4042 2208 -1587 0
4042 2208 1587 0
4042 -2208 -1587 0
-4043 3472 0
-4043 -2418 0
4043 -3472 2418 0
-4044 -110 -2081 0
-4044 110 2081 0
4044 110 -2081 0
4044 -110 2081 0
-4045 -2944 -1459 0
-4045 2944 1459 0
4045 2944 -1459 0
4045 -2944 1459 0
-4046 3897 804 0
-4046 -3897 -804 0
4046 -3897 804 0
4046 3897 -804 0
-4047 -2637 0
-4047 -2038 0
4047 2637 2038 0
-4048 1662 3026 0
-4048 -1662 -3026 0
4048 -1662 3026 0
4048 1662 -3026 0
-4049 -199 1543 0
-4049 199 -1543 0
4049 199 1543 0
4049 -199 -1543 0
-4050 1162 3767 0
-4050 -1162 -3767 0
4050 -1162 3767 0
4050 1162 -3767 0
-4051 -1775 3242 0
-4051 1775 -3242 0
4051 1775 3242 0
4051 -1775 -3242 0
-4052 3394 0
-4052 -3707 0
4052 -3394 3707 0
-4053 2890 0
-4053 -1275 0
4053 -2890 1275 0
-4054 2347 0
-4054 -2312 0
4054 -2347 2312 0
-4055 2953 -2633 0
-4055 -2953 2633 0
4055 -2953 -2633 0
4055 2953 2633 0
-4056 3021 -945 0
-4056 -3021 945 0
4056 -3021 -945 0
4056 3021 945 0
-4057 -225 0
-4057 525 0
4057 225 -525 0
-4058 2756 -472 0
-4058 -2756 472 0
4058 -2756 -472 0
4058 2756 472 0
-4059 2478 3151 0
-4059 -2478 -3151 0
4059 -2478 3151 0
4059 2478 -3151 0
-4060 1845 2070 0
-4060 -1845 -2070 0
4060 -1845 2070 0
4060 1845 -2070 0
-4061 -2546 -3778 0
-4061 2546 3778 0
4061 2546 -3778 0
4061 -2546 3778 0
-4062 -1464 209 0
-4062 1464 -209 0
4062 1464 209 0
4062 -1464 -209 0
-4063 2882 -3913 0
-4063 -2882 3913 0
4063 -2882 -3913 0
4063 2882 3913 0
-4064 3677 0
-4064 -3277 0
4064 -3677 3277 0
-4065 3632 917 0
-4065 -3632 -917 0
4065 -3632 917 0
4065 3632 -917 0
-4066 -2135 0
-4066 204 0
4066 2135 -204 0
-4067 1031 0
-4067 -3115 0
4067 -1031 3115 0
-4068 1821 0
-4068 -3357 0
4068 -1821 3357 0
-4069 -2767 -721 0
-4069 2767 721 0
4069 2767 -721 0
4069 -2767 721 0
-4070 2830 0
-4070 2822 0
4070 -2830 -2822 0
-4071 3019 1719 0
-4071 -3019 -1719 0
4071 -3019 1719 0
4071 3019 -1719 0
-4072 -3211 -1604 0
-4072 3211 1604 0
4072 3211 -1604 0
4072 -3211 1604 0
-4073 -2516 -3041 0
-4073 2516 3041 0
4073 2516 -3041 0
4073 -2516 3041 0
-4074 -418 -1008 0
-4074 418 1008 0
4074 418 -1008 0
4074 -418 1008 0
-4075 1329 -461 0
-4075 -1329 461 0
4075 -1329 -461 0
4075 1329 461 0
-4076 2500 -1510 0
-4076 -2500 1510 0
4076 -2500 -1510 0
4076 2500 1510 0
-4077 -2893 -2383 0
-4077 2893 2383 0
4077 2893 -2383 0
4077 -2893 2383 0
-4078 -1724 2837 0
-4078 1724 -2837 0
4078 1724 2837 0
4078 -1724 -2837 0
-4079 2605 -2729 0
-4079 -2605 2729 0
4079 -2605 -2729 0
4079 2605 2729 0
-4080 -2135 -3680 0
-4080 2135 3680 0
4080 2135 -3680 0
4080 -2135 3680 0
-4081 -3381 -3517 0
-4081 3381 3517 0
4081 3381 -3517 0
4081 -3381 3517 0
-4082 2712 1876 0
-4082 -2712 -1876 0
4082 -2712 1876 0
4082 2712 -1876 0
-4083 -973 1894 0
-4083 973 -1894 0
4083 973 1894 0
4083 -973 -1894 0
-4084 -608 2840 0
-4084 608 -2840 0
4084 608 2840 0
4084 -608 -2840 0
-4085 -2496 1008 0
-4085 2496 -1008 0
4085 2496 1008 0
4085 -2496 -1008 0
-4086 500 0
-4086 1840 0
4086 -500 -1840 0
-4087 2390 0
-4087 -3312 0
4087 -2390 3312 0
-4088 3710 1630 0
-4088 -3710 -1630 0
4088 -3710 1630 0
4088 3710 -1630 0
-4089 1567 0
-4089 2057 0
4089 -1567 -2057 0
-4090 3466 -1555 0
-4090 -3466 1555 0
4090 -3466 -1555 0
4090 3466 1555 0
-4091 33 2768 0
-4091 -33 -2768 0
4091 -33 2768 0
4091 33 -2768 0
-4092 -1354 33 0
-4092 1354 -33 0
4092 1354 33 0
4092 -1354 -33 0
-4093 -1048 -4008 0
-4093 1048 4008 0
4093 1048 -4008 0
4093 -1048 4008 0
-4094 -3768 3254 0
-4094 3768 -3254 0
4094 3768 3254 0
4094 -3768 -3254 0
-4095 -2655 -3203 0
-4095 2655 3203 0
4095 2655 -3203 0
4095 -2655 3203 0
-4096 173 -3709 0
-4096 -173 3709 0
4096 -173 -3709 0
4096 173 3709 0
-4097 2885 -3845 0
-4097 -2885 3845 0
4097 -2885 -3845 0
4097 2885 3845 0
-4098 -1672 -3494 0
-4098 1672 3494 0
4098 1672 -3494 0
4098 -1672 3494 0
-4099 3694 0
-4099 1137 0
4099 -3694 -1137 0
-4100 -3799 -317 0
-4100 3799 317 0
4100 3799 -317 0
4100 -3799 317 0
-4101 -2647 0
-4101 2849 0
4101 2647 -2849 0
-4102 1179 -806 0
-4102 -1179 806 0
4102 -1179 -806 0
4102 1179 806 0
-4103 2530 3017 0
-4103 -2530 -3017 0
4103 -2530 3017 0
4103 2530 -3017 0
-4104 2789 0
-4104 1457 0
4104 -2789 -1457 0
-4105 2741 -2985 0
-4105 -2741 2985 0
4105 -2741 -2985 0
4105 2741 2985 0
-4106 -834 -4052 0
-4106 834 4052 0
4106 834 -4052 0
4106 -834 4052 0
-4107 1581 0
-4107 -1068 0
4107 -1581 1068 0
-4108 641 0
-4108 1340 0
4108 -641 -1340 0
-4109 2652 0
-4109 1717 0
4109 -2652 -1717 0
-4110 196 -102 0
-4110 -196 102 0
4110 -196 -102 0
4110 196 102 0
-4111 -312 0
-4111 -2306 0
4111 312 2306 0
-4112 1170 2418 0
-4112 -1170 -2418 0
4112 -1170 2418 0
4112 1170 -2418 0
-4113 -2762 -3723 0
-4113 2762 3723 0
4113 2762 -3723 0
4113 -2762 3723 0
-4114 -862 0
-4114 292 0
4114 862 -292 0
-4115 -1391 873 0
-4115 1391 -873 0
4115 1391 873 0
4115 -1391 -873 0
-4116 3193 1709 0
-4116 -3193 -1709 0
4116 -3193 1709 0
4116 3193 -1709 0
-4117 -2800 0
-4117 2574 0
4117 2800 -2574 0
-4118 -787 2615 0
-4118 787 -2615 0
4118 787 2615 0
4118 -787 -2615 0
-4119 -1621 2593 0
-4119 1621 -2593 0
4119 1621 2593 0
4119 -1621 -2593 0
-4120 3329 -3404 0
-4120 -3329 3404 0
4120 -3329 -3404 0
4120 3329 3404 0
-4121 -2935 1132 0
-4121 2935 -1132 0
4121 2935 1132 0
4121 -2935 -1132 0
-4122 619 0
-4122 1151 0
4122 -619 -1151 0
-4123 2124 -33 0
-4123 -2124 33 0
4123 -2124 -33 0
4123 2124 33 0
-4124 -2479 0
-4124 1517 0
4124 2479 -1517 0
-4125 -2409 2149 0
-4125 2409 -2149 0
4125 2409 2149 0
4125 -2409 -2149 0
-3998 0
3999 0
4000 0
-4001 0
4002 0
-4003 0
-4004 0
-4005 0
-4006 0
-4007 0
-4008 0
-4009 0
-4010 0
-4011 0
-4012 0
-4013 0
4014 0
4015 0
4016 0
4017 0
-4018 0
4019 0
-4020 0
-4021 0
4022 0
-4023 0
-4024 0
-4025 0
4026 0
-4027 0
4028 0
-4029 0
-4030 0
-4031 0
4032 0
-4033 0
4034 0
4035 0
4036 0
4037 0
-4038 0
-4039 0
-4040 0
4041 0
4042 0
-4043 0
-4044 0
4045 0
4046 0
-4047 0
-4048 0
-4049 0
-4050 0
4051 0
-4052 0
-4053 0
-4054 0
-4055 0
-4056 0
-4057 0
-4058 0
-4059 0
-4060 0
-4061 0
-4062 0
4063 0
-4064 0
-4065 0
-4066 0
-4067 0
4068 0
-4069 0
-4070 0
-4071 0
-4072 0
-4073 0
-4074 0
4075 0
-4076 0
4077 0
4078 0
4079 0
4080 0
-4081 0
4082 0
4083 0
4084 0
-4085 0
-4086 0
-4087 0
4088 0
-4089 0
-4090 0
4091 0
-4092 0
-4093 0
-4094 0
-4095 0
-4096 0
-4097 0
4098 0
-4099 0
4100 0
-4101 0
4102 0
4103 0
-4104 0
-4105 0
-4106 0
4107 0
-4108 0
-4109 0
-4110 0
4111 0
-4112 0
4113 0
4114 0
-4115 0
-4116 0
-4117 0
-4118 0
-4119 0
-4120 0
4121 0
-4122 0
-4123 0
-4124 0
4125 0
