c SHA-256 preimage, rounds=11 message=3 bytes, digest pinned; input variables are 1..24
c generated by TurboCryptoSAT gen-benchmark - satisfiable by construction
p cnf 15177 50723
-25 -19 20 0
-25 19 -20 0
25 19 20 0
25 -19 -20 0
-26 19 0
-26 20 0
26 -19 -20 0
-27 -20 0
-27 -26 0
27 20 26 0
-28 -19 0
-28 27 0
28 19 -27 0
-29 18 -28 0
-29 -18 28 0
29 -18 -28 0
29 18 28 0
-30 18 0
-30 -28 0
30 -18 28 0
-31 17 30 0
-31 -17 -30 0
31 -17 30 0
31 17 -30 0
-32 17 0
-32 30 0
32 -17 -30 0
-33 16 32 0
-33 -16 -32 0
33 -16 32 0
33 16 -32 0
-34 16 0
-34 32 0
34 -16 -32 0
-35 -15 34 0
-35 15 -34 0
35 15 34 0
35 -15 -34 0
-36 15 0
-36 34 0
36 -15 -34 0
-37 -34 0
-37 -36 0
37 34 36 0
-38 -15 0
-38 37 0
38 15 -37 0
-39 14 -38 0
-39 -14 38 0
39 -14 -38 0
39 14 38 0
-40 14 0
-40 -38 0
40 -14 38 0
-41 -13 40 0
-41 13 -40 0
41 13 40 0
41 -13 -40 0
-42 13 0
-42 40 0
42 -13 -40 0
-43 -40 0
-43 -42 0
43 40 42 0
-44 -13 0
-44 43 0
44 13 -43 0
-45 12 -44 0
-45 -12 44 0
45 -12 -44 0
45 12 44 0
-46 12 0
-46 -44 0
46 -12 44 0
-47 11 46 0
-47 -11 -46 0
47 -11 46 0
47 11 -46 0
-48 11 0
-48 46 0
48 -11 -46 0
-49 10 48 0
-49 -10 -48 0
49 -10 48 0
49 10 -48 0
-50 10 0
-50 48 0
50 -10 -48 0
-51 -9 50 0
-51 9 -50 0
51 9 50 0
51 -9 -50 0
-52 9 0
-52 50 0
52 -9 -50 0
-53 -50 0
-53 -52 0
53 50 52 0
-54 -9 0
-54 53 0
54 9 -53 0
-55 8 -54 0
-55 -8 54 0
55 -8 -54 0
55 8 54 0
-56 8 0
-56 -54 0
56 -8 54 0
-57 -7 56 0
-57 7 -56 0
57 7 56 0
57 -7 -56 0
-58 7 0
-58 56 0
58 -7 -56 0
-59 -56 0
-59 -58 0
59 56 58 0
-60 -7 0
-60 59 0
60 7 -59 0
-61 6 -60 0
-61 -6 60 0
61 -6 -60 0
61 6 60 0
-62 6 0
-62 -60 0
62 -6 60 0
-63 5 62 0
-63 -5 -62 0
63 -5 62 0
63 5 -62 0
-64 5 0
-64 62 0
64 -5 -62 0
-65 4 64 0
-65 -4 -64 0
65 -4 64 0
65 4 -64 0
-66 4 0
-66 64 0
66 -4 -64 0
-67 3 66 0
-67 -3 -66 0
67 -3 66 0
67 3 -66 0
-68 3 0
-68 66 0
68 -3 -66 0
-69 -2 68 0
-69 2 -68 0
69 2 68 0
69 -2 -68 0
-70 2 0
-70 68 0
70 -2 -68 0
-71 -68 0
-71 -70 0
71 68 70 0
-72 -2 0
-72 71 0
72 2 -71 0
-73 1 -72 0
-73 -1 72 0
73 -1 -72 0
73 1 72 0
-74 1 0
-74 -72 0
74 -1 72 0
-75 23 24 0
-75 -23 -24 0
75 -23 24 0
75 23 -24 0
-76 23 0
-76 24 0
76 -23 -24 0
-77 22 76 0
-77 -22 -76 0
77 -22 76 0
77 22 -76 0
-78 22 0
-78 76 0
78 -22 -76 0
-79 -21 78 0
-79 21 -78 0
79 21 78 0
79 -21 -78 0
-80 21 0
-80 78 0
80 -21 -78 0
-81 -78 0
-81 -80 0
81 78 80 0
-82 -21 0
-82 81 0
82 21 -81 0
-83 -20 -82 0
-83 20 82 0
83 20 -82 0
83 -20 82 0
-84 -20 0
-84 -82 0
84 20 82 0
-85 25 84 0
-85 -25 -84 0
85 -25 84 0
85 25 -84 0
-86 25 0
-86 84 0
86 -25 -84 0
-87 -29 86 0
-87 29 -86 0
87 29 86 0
87 -29 -86 0
-88 29 0
-88 86 0
88 -29 -86 0
-89 -86 0
-89 -88 0
89 86 88 0
-90 -29 0
-90 89 0
90 29 -89 0
-91 -31 -90 0
-91 31 90 0
91 31 -90 0
91 -31 90 0
-92 31 0
-92 -90 0
92 -31 90 0
-93 90 0
-93 -92 0
93 -90 92 0
-94 -31 0
-94 93 0
94 31 -93 0
-95 -33 -94 0
-95 33 94 0
95 33 -94 0
95 -33 94 0
-96 33 0
-96 -94 0
96 -33 94 0
-97 94 0
-97 -96 0
97 -94 96 0
-98 -33 0
-98 97 0
98 33 -97 0
-99 35 -98 0
-99 -35 98 0
99 -35 -98 0
99 35 98 0
-100 35 0
-100 -98 0
100 -35 98 0
-101 -39 100 0
-101 39 -100 0
101 39 100 0
101 -39 -100 0
-102 39 0
-102 100 0
102 -39 -100 0
-103 -100 0
-103 -102 0
103 100 102 0
-104 -39 0
-104 103 0
104 39 -103 0
-105 41 -104 0
-105 -41 104 0
105 -41 -104 0
105 41 104 0
-106 41 0
-106 -104 0
106 -41 104 0
-107 45 106 0
-107 -45 -106 0
107 -45 106 0
107 45 -106 0
-108 45 0
-108 106 0
108 -45 -106 0
-109 47 108 0
-109 -47 -108 0
109 -47 108 0
109 47 -108 0
-110 47 0
-110 108 0
110 -47 -108 0
-111 49 110 0
-111 -49 -110 0
111 -49 110 0
111 49 -110 0
-112 49 0
-112 110 0
112 -49 -110 0
-113 -51 112 0
-113 51 -112 0
113 51 112 0
113 -51 -112 0
-114 51 0
-114 112 0
114 -51 -112 0
-115 -112 0
-115 -114 0
115 112 114 0
-116 -51 0
-116 115 0
116 51 -115 0
-117 -55 -116 0
-117 55 116 0
117 55 -116 0
117 -55 116 0
-118 55 0
-118 -116 0
118 -55 116 0
-119 116 0
-119 -118 0
119 -116 118 0
-120 -55 0
-120 119 0
120 55 -119 0
-121 -57 -120 0
-121 57 120 0
121 57 -120 0
121 -57 120 0
-122 57 0
-122 -120 0
122 -57 120 0
-123 120 0
-123 -122 0
123 -120 122 0
-124 -57 0
-124 123 0
124 57 -123 0
-125 -61 -124 0
-125 61 124 0
125 61 -124 0
125 -61 124 0
-126 61 0
-126 -124 0
126 -61 124 0
-127 124 0
-127 -126 0
127 -124 126 0
-128 -61 0
-128 127 0
128 61 -127 0
-129 -63 -128 0
-129 63 128 0
129 63 -128 0
129 -63 128 0
-130 63 0
-130 -128 0
130 -63 128 0
-131 128 0
-131 -130 0
131 -128 130 0
-132 -63 0
-132 131 0
132 63 -131 0
-133 -65 -132 0
-133 65 132 0
133 65 -132 0
133 -65 132 0
-134 65 0
-134 -132 0
134 -65 132 0
-135 132 0
-135 -134 0
135 -132 134 0
-136 -65 0
-136 135 0
136 65 -135 0
-137 67 -136 0
-137 -67 136 0
137 -67 -136 0
137 67 136 0
-138 67 0
-138 -136 0
138 -67 136 0
-139 69 138 0
-139 -69 -138 0
139 -69 138 0
139 69 -138 0
-140 69 0
-140 138 0
140 -69 -138 0
-141 73 140 0
-141 -73 -140 0
141 -73 140 0
141 73 -140 0
-142 73 0
-142 140 0
142 -73 -140 0
-143 79 77 0
-143 -79 -77 0
143 -79 77 0
143 79 -77 0
-144 79 0
-144 77 0
144 -79 -77 0
-145 -83 144 0
-145 83 -144 0
145 83 144 0
145 -83 -144 0
-146 83 0
-146 144 0
146 -83 -144 0
-147 -144 0
-147 -146 0
147 144 146 0
-148 -83 0
-148 147 0
148 83 -147 0
-149 -85 -148 0
-149 85 148 0
149 85 -148 0
149 -85 148 0
-150 85 0
-150 -148 0
150 -85 148 0
-151 148 0
-151 -150 0
151 -148 150 0
-152 -85 0
-152 151 0
152 85 -151 0
-153 -87 -152 0
-153 87 152 0
153 87 -152 0
153 -87 152 0
-154 87 0
-154 -152 0
154 -87 152 0
-155 152 0
-155 -154 0
155 -152 154 0
-156 -87 0
-156 155 0
156 87 -155 0
-157 -91 -156 0
-157 91 156 0
157 91 -156 0
157 -91 156 0
-158 91 0
-158 -156 0
158 -91 156 0
-159 156 0
-159 -158 0
159 -156 158 0
-160 -91 0
-160 159 0
160 91 -159 0
-161 -95 -160 0
-161 95 160 0
161 95 -160 0
161 -95 160 0
-162 95 0
-162 -160 0
162 -95 160 0
-163 160 0
-163 -162 0
163 -160 162 0
-164 -95 0
-164 163 0
164 95 -163 0
-165 -99 -164 0
-165 99 164 0
165 99 -164 0
165 -99 164 0
-166 99 0
-166 -164 0
166 -99 164 0
-167 164 0
-167 -166 0
167 -164 166 0
-168 -99 0
-168 167 0
168 99 -167 0
-169 -101 -168 0
-169 101 168 0
169 101 -168 0
169 -101 168 0
-170 101 0
-170 -168 0
170 -101 168 0
-171 168 0
-171 -170 0
171 -168 170 0
-172 -101 0
-172 171 0
172 101 -171 0
-173 105 -172 0
-173 -105 172 0
173 -105 -172 0
173 105 172 0
-174 105 0
-174 -172 0
174 -105 172 0
-175 107 174 0
-175 -107 -174 0
175 -107 174 0
175 107 -174 0
-176 107 0
-176 174 0
176 -107 -174 0
-177 -109 176 0
-177 109 -176 0
177 109 176 0
177 -109 -176 0
-178 109 0
-178 176 0
178 -109 -176 0
-179 -176 0
-179 -178 0
179 176 178 0
-180 -109 0
-180 179 0
180 109 -179 0
-181 -111 -180 0
-181 111 180 0
181 111 -180 0
181 -111 180 0
-182 111 0
-182 -180 0
182 -111 180 0
-183 180 0
-183 -182 0
183 -180 182 0
-184 -111 0
-184 183 0
184 111 -183 0
-185 113 -184 0
-185 -113 184 0
185 -113 -184 0
185 113 184 0
-186 113 0
-186 -184 0
186 -113 184 0
-187 -117 186 0
-187 117 -186 0
187 117 186 0
187 -117 -186 0
-188 117 0
-188 186 0
188 -117 -186 0
-189 -186 0
-189 -188 0
189 186 188 0
-190 -117 0
-190 189 0
190 117 -189 0
-191 121 -190 0
-191 -121 190 0
191 -121 -190 0
191 121 190 0
-192 121 0
-192 -190 0
192 -121 190 0
-193 125 192 0
-193 -125 -192 0
193 -125 192 0
193 125 -192 0
-194 125 0
-194 192 0
194 -125 -192 0
-195 129 194 0
-195 -129 -194 0
195 -129 194 0
195 129 -194 0
-196 129 0
-196 194 0
196 -129 -194 0
-197 -133 196 0
-197 133 -196 0
197 133 196 0
197 -133 -196 0
-198 133 0
-198 196 0
198 -133 -196 0
-199 -196 0
-199 -198 0
199 196 198 0
-200 -133 0
-200 199 0
200 133 -199 0
-201 137 -200 0
-201 -137 200 0
201 -137 -200 0
201 137 200 0
-202 137 0
-202 -200 0
202 -137 200 0
-203 139 202 0
-203 -139 -202 0
203 -139 202 0
203 139 -202 0
-204 139 0
-204 202 0
204 -139 -202 0
-205 -141 204 0
-205 141 -204 0
205 141 204 0
205 -141 -204 0
-206 141 0
-206 204 0
206 -141 -204 0
-207 -204 0
-207 -206 0
207 204 206 0
-208 -141 0
-208 207 0
208 141 -207 0
-209 77 75 0
-209 -77 -75 0
209 -77 75 0
209 77 -75 0
-210 -77 0
-210 75 0
210 77 -75 0
-211 -75 0
-211 -210 0
211 75 210 0
-212 77 0
-212 211 0
212 -77 -211 0
-213 143 -212 0
-213 -143 212 0
213 -143 -212 0
213 143 212 0
-214 143 0
-214 -212 0
214 -143 212 0
-215 -145 214 0
-215 145 -214 0
215 145 214 0
215 -145 -214 0
-216 145 0
-216 214 0
216 -145 -214 0
-217 -214 0
-217 -216 0
217 214 216 0
-218 -145 0
-218 217 0
218 145 -217 0
-219 -149 -218 0
-219 149 218 0
219 149 -218 0
219 -149 218 0
-220 149 0
-220 -218 0
220 -149 218 0
-221 218 0
-221 -220 0
221 -218 220 0
-222 -149 0
-222 221 0
222 149 -221 0
-223 -153 -222 0
-223 153 222 0
223 153 -222 0
223 -153 222 0
-224 153 0
-224 -222 0
224 -153 222 0
-225 222 0
-225 -224 0
225 -222 224 0
-226 -153 0
-226 225 0
226 153 -225 0
-227 -157 -226 0
-227 157 226 0
227 157 -226 0
227 -157 226 0
-228 157 0
-228 -226 0
228 -157 226 0
-229 226 0
-229 -228 0
229 -226 228 0
-230 -157 0
-230 229 0
230 157 -229 0
-231 -161 -230 0
-231 161 230 0
231 161 -230 0
231 -161 230 0
-232 161 0
-232 -230 0
232 -161 230 0
-233 230 0
-233 -232 0
233 -230 232 0
-234 -161 0
-234 233 0
234 161 -233 0
-235 -165 -234 0
-235 165 234 0
235 165 -234 0
235 -165 234 0
-236 165 0
-236 -234 0
236 -165 234 0
-237 234 0
-237 -236 0
237 -234 236 0
-238 -165 0
-238 237 0
238 165 -237 0
-239 -169 -238 0
-239 169 238 0
239 169 -238 0
239 -169 238 0
-240 169 0
-240 -238 0
240 -169 238 0
-241 238 0
-241 -240 0
241 -238 240 0
-242 -169 0
-242 241 0
242 169 -241 0
-243 -173 -242 0
-243 173 242 0
243 173 -242 0
243 -173 242 0
-244 173 0
-244 -242 0
244 -173 242 0
-245 242 0
-245 -244 0
245 -242 244 0
-246 -173 0
-246 245 0
246 173 -245 0
-247 175 -246 0
-247 -175 246 0
247 -175 -246 0
247 175 246 0
-248 175 0
-248 -246 0
248 -175 246 0
-249 177 248 0
-249 -177 -248 0
249 -177 248 0
249 177 -248 0
-250 177 0
-250 248 0
250 -177 -248 0
-251 -181 250 0
-251 181 -250 0
251 181 250 0
251 -181 -250 0
-252 181 0
-252 250 0
252 -181 -250 0
-253 -250 0
-253 -252 0
253 250 252 0
-254 -181 0
-254 253 0
254 181 -253 0
-255 185 -254 0
-255 -185 254 0
255 -185 -254 0
255 185 254 0
-256 185 0
-256 -254 0
256 -185 254 0
-257 -187 256 0
-257 187 -256 0
257 187 256 0
257 -187 -256 0
-258 187 0
-258 256 0
258 -187 -256 0
-259 -256 0
-259 -258 0
259 256 258 0
-260 -187 0
-260 259 0
260 187 -259 0
-261 191 -260 0
-261 -191 260 0
261 -191 -260 0
261 191 260 0
-262 191 0
-262 -260 0
262 -191 260 0
-263 -193 262 0
-263 193 -262 0
263 193 262 0
263 -193 -262 0
-264 193 0
-264 262 0
264 -193 -262 0
-265 -262 0
-265 -264 0
265 262 264 0
-266 -193 0
-266 265 0
266 193 -265 0
-267 195 -266 0
-267 -195 266 0
267 -195 -266 0
267 195 266 0
-268 195 0
-268 -266 0
268 -195 266 0
-269 197 268 0
-269 -197 -268 0
269 -197 268 0
269 197 -268 0
-270 197 0
-270 268 0
270 -197 -268 0
-271 -201 270 0
-271 201 -270 0
271 201 270 0
271 -201 -270 0
-272 201 0
-272 270 0
272 -201 -270 0
-273 -270 0
-273 -272 0
273 270 272 0
-274 -201 0
-274 273 0
274 201 -273 0
-275 203 -274 0
-275 -203 274 0
275 -203 -274 0
275 203 274 0
-276 203 0
-276 -274 0
276 -203 274 0
-277 -205 276 0
-277 205 -276 0
277 205 276 0
277 -205 -276 0
-278 205 0
-278 276 0
278 -205 -276 0
-279 -276 0
-279 -278 0
279 276 278 0
-280 -205 0
-280 279 0
280 205 -279 0
-281 -75 -24 0
-281 75 24 0
281 75 -24 0
281 -75 24 0
-282 75 0
-282 -24 0
282 -75 24 0
-283 -282 0
-283 24 0
283 282 -24 0
-284 -75 0
-284 283 0
284 75 -283 0
-285 -77 -284 0
-285 77 284 0
285 77 -284 0
285 -77 284 0
-286 -77 0
-286 -284 0
286 77 284 0
-287 -143 286 0
-287 143 -286 0
287 143 286 0
287 -143 -286 0
-288 143 0
-288 286 0
288 -143 -286 0
-289 -288 0
-289 -286 0
289 288 286 0
-290 -143 0
-290 289 0
290 143 -289 0
-291 -145 -290 0
-291 145 290 0
291 145 -290 0
291 -145 290 0
-292 145 0
-292 -290 0
292 -145 290 0
-293 -292 0
-293 290 0
293 292 -290 0
-294 -145 0
-294 293 0
294 145 -293 0
-295 149 -294 0
-295 -149 294 0
295 -149 -294 0
295 149 294 0
-296 149 0
-296 -294 0
296 -149 294 0
-297 153 296 0
-297 -153 -296 0
297 -153 296 0
297 153 -296 0
-298 153 0
-298 296 0
298 -153 -296 0
-299 -157 298 0
-299 157 -298 0
299 157 298 0
299 -157 -298 0
-300 157 0
-300 298 0
300 -157 -298 0
-301 -300 0
-301 -298 0
301 300 298 0
-302 -157 0
-302 301 0
302 157 -301 0
-303 161 -302 0
-303 -161 302 0
303 -161 -302 0
303 161 302 0
-304 161 0
-304 -302 0
304 -161 302 0
-305 165 304 0
-305 -165 -304 0
305 -165 304 0
305 165 -304 0
-306 165 0
-306 304 0
306 -165 -304 0
-307 169 306 0
-307 -169 -306 0
307 -169 306 0
307 169 -306 0
-308 169 0
-308 306 0
308 -169 -306 0
-309 173 308 0
-309 -173 -308 0
309 -173 308 0
309 173 -308 0
-310 173 0
-310 308 0
310 -173 -308 0
-311 -175 310 0
-311 175 -310 0
311 175 310 0
311 -175 -310 0
-312 175 0
-312 310 0
312 -175 -310 0
-313 -312 0
-313 -310 0
313 312 310 0
-314 -175 0
-314 313 0
314 175 -313 0
-315 177 -314 0
-315 -177 314 0
315 -177 -314 0
315 177 314 0
-316 177 0
-316 -314 0
316 -177 314 0
-317 181 316 0
-317 -181 -316 0
317 -181 316 0
317 181 -316 0
-318 181 0
-318 316 0
318 -181 -316 0
-319 -185 318 0
-319 185 -318 0
319 185 318 0
319 -185 -318 0
-320 185 0
-320 318 0
320 -185 -318 0
-321 -320 0
-321 -318 0
321 320 318 0
-322 -185 0
-322 321 0
322 185 -321 0
-323 187 -322 0
-323 -187 322 0
323 -187 -322 0
323 187 322 0
-324 187 0
-324 -322 0
324 -187 322 0
-325 191 324 0
-325 -191 -324 0
325 -191 324 0
325 191 -324 0
-326 191 0
-326 324 0
326 -191 -324 0
-327 193 326 0
-327 -193 -326 0
327 -193 326 0
327 193 -326 0
-328 193 0
-328 326 0
328 -193 -326 0
-329 -195 328 0
-329 195 -328 0
329 195 328 0
329 -195 -328 0
-330 195 0
-330 328 0
330 -195 -328 0
-331 -330 0
-331 -328 0
331 330 328 0
-332 -195 0
-332 331 0
332 195 -331 0
-333 197 -332 0
-333 -197 332 0
333 -197 -332 0
333 197 332 0
-334 197 0
-334 -332 0
334 -197 332 0
-335 201 334 0
-335 -201 -334 0
335 -201 334 0
335 201 -334 0
-336 201 0
-336 334 0
336 -201 -334 0
-337 203 336 0
-337 -203 -336 0
337 -203 336 0
337 203 -336 0
-338 203 0
-338 336 0
338 -203 -336 0
-339 205 338 0
-339 -205 -338 0
339 -205 338 0
339 205 -338 0
-340 205 0
-340 338 0
340 -205 -338 0
-341 213 261 0
-341 -213 -261 0
341 -213 261 0
341 213 -261 0
-342 -295 317 0
-342 295 -317 0
342 295 317 0
342 -295 -317 0
-343 215 263 0
-343 -215 -263 0
343 -215 263 0
343 215 -263 0
-344 -297 319 0
-344 297 -319 0
344 297 319 0
344 -297 -319 0
-345 -24 219 0
-345 24 -219 0
345 24 219 0
345 -24 -219 0
-346 345 267 0
-346 -345 -267 0
346 -345 267 0
346 345 -267 0
-347 299 323 0
-347 -299 -323 0
347 -299 323 0
347 299 -323 0
-348 -75 223 0
-348 75 -223 0
348 75 223 0
348 -75 -223 0
-349 348 269 0
-349 -348 -269 0
349 -348 269 0
349 348 -269 0
-350 303 325 0
-350 -303 -325 0
350 -303 325 0
350 303 -325 0
-351 209 227 0
-351 -209 -227 0
351 -209 227 0
351 209 -227 0
-352 351 271 0
-352 -351 -271 0
352 -351 271 0
352 351 -271 0
-353 -305 327 0
-353 305 -327 0
353 305 327 0
353 -305 -327 0
-354 213 231 0
-354 -213 -231 0
354 -213 231 0
354 213 -231 0
-355 354 275 0
-355 -354 -275 0
355 -354 275 0
355 354 -275 0
-356 -307 329 0
-356 307 -329 0
356 307 329 0
356 -307 -329 0
-357 215 235 0
-357 -215 -235 0
357 -215 235 0
357 215 -235 0
-358 357 277 0
-358 -357 -277 0
358 -357 277 0
358 357 -277 0
-359 24 309 0
-359 -24 -309 0
359 -24 309 0
359 24 -309 0
-360 359 333 0
-360 -359 -333 0
360 -359 333 0
360 359 -333 0
-361 219 239 0
-361 -219 -239 0
361 -219 239 0
361 219 -239 0
-362 281 311 0
-362 -281 -311 0
362 -281 311 0
362 281 -311 0
-363 362 335 0
-363 -362 -335 0
363 -362 335 0
363 362 -335 0
-364 223 243 0
-364 -223 -243 0
364 -223 243 0
364 223 -243 0
-365 285 315 0
-365 -285 -315 0
365 -285 315 0
365 285 -315 0
-366 365 337 0
-366 -365 -337 0
366 -365 337 0
366 365 -337 0
-367 227 247 0
-367 -227 -247 0
367 -227 247 0
367 227 -247 0
-368 287 317 0
-368 -287 -317 0
368 -287 317 0
368 287 -317 0
-369 368 339 0
-369 -368 -339 0
369 -368 339 0
369 368 -339 0
-370 231 249 0
-370 -231 -249 0
370 -231 249 0
370 231 -249 0
-371 291 319 0
-371 -291 -319 0
371 -291 319 0
371 291 -319 0
-372 235 251 0
-372 -235 -251 0
372 -235 251 0
372 235 -251 0
-373 295 323 0
-373 -295 -323 0
373 -295 323 0
373 295 -323 0
-374 239 255 0
-374 -239 -255 0
374 -239 255 0
374 239 -255 0
-375 297 325 0
-375 -297 -325 0
375 -297 325 0
375 297 -325 0
-376 243 257 0
-376 -243 -257 0
376 -243 257 0
376 243 -257 0
-377 299 327 0
-377 -299 -327 0
377 -299 327 0
377 299 -327 0
-378 247 261 0
-378 -247 -261 0
378 -247 261 0
378 247 -261 0
-379 303 329 0
-379 -303 -329 0
379 -303 329 0
379 303 -329 0
-380 249 263 0
-380 -249 -263 0
380 -249 263 0
380 249 -263 0
-381 380 -24 0
-381 -380 24 0
381 -380 -24 0
381 380 24 0
-382 305 333 0
-382 -305 -333 0
382 -305 333 0
382 305 -333 0
-383 251 267 0
-383 -251 -267 0
383 -251 267 0
383 251 -267 0
-384 383 -75 0
-384 -383 75 0
384 -383 -75 0
384 383 75 0
-385 307 335 0
-385 -307 -335 0
385 -307 335 0
385 307 -335 0
-386 255 269 0
-386 -255 -269 0
386 -255 269 0
386 255 -269 0
-387 386 209 0
-387 -386 -209 0
387 -386 209 0
387 386 -209 0
-388 309 337 0
-388 -309 -337 0
388 -309 337 0
388 309 -337 0
-389 257 271 0
-389 -257 -271 0
389 -257 271 0
389 257 -271 0
-390 389 213 0
-390 -389 -213 0
390 -389 213 0
390 389 -213 0
-391 311 339 0
-391 -311 -339 0
391 -311 339 0
391 311 -339 0
-392 391 24 0
-392 -391 -24 0
392 -391 24 0
392 391 -24 0
-393 261 275 0
-393 -261 -275 0
393 -261 275 0
393 261 -275 0
-394 393 215 0
-394 -393 -215 0
394 -393 215 0
394 393 -215 0
-395 -315 281 0
-395 315 -281 0
395 315 281 0
395 -315 -281 0
-396 263 277 0
-396 -263 -277 0
396 -263 277 0
396 263 -277 0
-397 396 219 0
-397 -396 -219 0
397 -396 219 0
397 396 -219 0
-398 317 285 0
-398 -317 -285 0
398 -317 285 0
398 317 -285 0
-399 267 223 0
-399 -267 -223 0
399 -267 223 0
399 267 -223 0
-400 -319 287 0
-400 319 -287 0
400 319 287 0
400 -319 -287 0
-401 -269 227 0
-401 269 -227 0
401 269 227 0
401 -269 -227 0
-402 -323 291 0
-402 323 -291 0
402 323 291 0
402 -323 -291 0
-403 271 231 0
-403 -271 -231 0
403 -271 231 0
403 271 -231 0
-404 325 295 0
-404 -325 -295 0
404 -325 295 0
404 325 -295 0
-405 275 235 0
-405 -275 -235 0
405 -275 235 0
405 275 -235 0
-406 327 297 0
-406 -327 -297 0
406 -327 297 0
406 327 -297 0
-407 277 239 0
-407 -277 -239 0
407 -277 239 0
407 277 -239 0
-408 -329 299 0
-408 329 -299 0
408 329 299 0
408 -329 -299 0
-409 -333 303 0
-409 333 -303 0
409 333 303 0
409 -333 -303 0
-410 335 24 0
-410 -335 -24 0
410 -335 24 0
410 335 -24 0
-411 410 305 0
-411 -410 -305 0
411 -410 305 0
411 410 -305 0
-412 337 281 0
-412 -337 -281 0
412 -337 281 0
412 337 -281 0
-413 412 307 0
-413 -412 -307 0
413 -412 307 0
413 412 -307 0
-414 -24 251 0
-414 24 -251 0
414 24 251 0
414 -24 -251 0
-415 339 285 0
-415 -339 -285 0
415 -339 285 0
415 339 -285 0
-416 415 309 0
-416 -415 -309 0
416 -415 309 0
416 415 -309 0
-417 -75 255 0
-417 75 -255 0
417 75 255 0
417 -75 -255 0
-418 -287 311 0
-418 287 -311 0
418 287 311 0
418 -287 -311 0
-419 -209 257 0
-419 209 -257 0
419 209 257 0
419 -209 -257 0
-420 291 315 0
-420 -291 -315 0
420 -291 315 0
420 291 -315 0
-421 -235 -231 0
-421 235 231 0
421 235 -231 0
421 -235 231 0
-422 235 0
-422 -231 0
422 -235 231 0
-423 -422 0
-423 231 0
423 422 -231 0
-424 -235 0
-424 423 0
424 235 -423 0
-425 -343 341 0
-425 343 -341 0
425 343 341 0
425 -343 -341 0
-426 343 0
-426 341 0
426 -343 -341 0
-427 -341 0
-427 -426 0
427 341 426 0
-428 -343 0
-428 427 0
428 343 -427 0
-429 346 -428 0
-429 -346 428 0
429 -346 -428 0
429 346 428 0
-430 346 0
-430 -428 0
430 -346 428 0
-431 -349 430 0
-431 349 -430 0
431 349 430 0
431 -349 -430 0
-432 349 0
-432 430 0
432 -349 -430 0
-433 -430 0
-433 -432 0
433 430 432 0
-434 -349 0
-434 433 0
434 349 -433 0
-435 352 -434 0
-435 -352 434 0
435 -352 -434 0
435 352 434 0
-436 352 0
-436 -434 0
436 -352 434 0
-437 -355 436 0
-437 355 -436 0
437 355 436 0
437 -355 -436 0
-438 355 0
-438 436 0
438 -355 -436 0
-439 -436 0
-439 -438 0
439 436 438 0
-440 -355 0
-440 439 0
440 355 -439 0
-441 358 -440 0
-441 -358 440 0
441 -358 -440 0
441 358 440 0
-442 358 0
-442 -440 0
442 -358 440 0
-443 -361 442 0
-443 361 -442 0
443 361 442 0
443 -361 -442 0
-444 361 0
-444 442 0
444 -361 -442 0
-445 -442 0
-445 -444 0
445 442 444 0
-446 -361 0
-446 445 0
446 361 -445 0
-447 364 -446 0
-447 -364 446 0
447 -364 -446 0
447 364 446 0
-448 -364 0
-448 -446 0
448 364 446 0
-449 446 0
-449 -448 0
449 -446 448 0
-450 364 0
-450 449 0
450 -364 -449 0
-451 367 -450 0
-451 -367 450 0
451 -367 -450 0
451 367 450 0
-452 367 0
-452 -450 0
452 -367 450 0
-453 370 452 0
-453 -370 -452 0
453 -370 452 0
453 370 -452 0
-454 370 0
-454 452 0
454 -370 -452 0
-455 -372 454 0
-455 372 -454 0
455 372 454 0
455 -372 -454 0
-456 372 0
-456 454 0
456 -372 -454 0
-457 -454 0
-457 -456 0
457 454 456 0
-458 -372 0
-458 457 0
458 372 -457 0
-459 374 -458 0
-459 -374 458 0
459 -374 -458 0
459 374 458 0
-460 -374 0
-460 -458 0
460 374 458 0
-461 458 0
-461 -460 0
461 -458 460 0
-462 374 0
-462 461 0
462 -374 -461 0
-463 376 -462 0
-463 -376 462 0
463 -376 -462 0
463 376 462 0
-464 376 0
-464 -462 0
464 -376 462 0
-465 -378 464 0
-465 378 -464 0
465 378 464 0
465 -378 -464 0
-466 378 0
-466 464 0
466 -378 -464 0
-467 -464 0
-467 -466 0
467 464 466 0
-468 -378 0
-468 467 0
468 378 -467 0
-469 -381 -468 0
-469 381 468 0
469 381 -468 0
469 -381 468 0
-470 381 0
-470 -468 0
470 -381 468 0
-471 468 0
-471 -470 0
471 -468 470 0
-472 -381 0
-472 471 0
472 381 -471 0
-473 -384 -472 0
-473 384 472 0
473 384 -472 0
473 -384 472 0
-474 384 0
-474 -472 0
474 -384 472 0
-475 472 0
-475 -474 0
475 -472 474 0
-476 -384 0
-476 475 0
476 384 -475 0
-477 -387 -476 0
-477 387 476 0
477 387 -476 0
477 -387 476 0
-478 387 0
-478 -476 0
478 -387 476 0
-479 476 0
-479 -478 0
479 -476 478 0
-480 -387 0
-480 479 0
480 387 -479 0
-481 390 -480 0
-481 -390 480 0
481 -390 -480 0
481 390 480 0
-482 390 0
-482 -480 0
482 -390 480 0
-483 394 482 0
-483 -394 -482 0
483 -394 482 0
483 394 -482 0
-484 394 0
-484 482 0
484 -394 -482 0
-485 397 484 0
-485 -397 -484 0
485 -397 484 0
485 397 -484 0
-486 397 0
-486 484 0
486 -397 -484 0
-487 399 486 0
-487 -399 -486 0
487 -399 486 0
487 399 -486 0
-488 399 0
-488 486 0
488 -399 -486 0
-489 401 488 0
-489 -401 -488 0
489 -401 488 0
489 401 -488 0
-490 401 0
-490 488 0
490 -401 -488 0
-491 -403 490 0
-491 403 -490 0
491 403 490 0
491 -403 -490 0
-492 403 0
-492 490 0
492 -403 -490 0
-493 -490 0
-493 -492 0
493 490 492 0
-494 -403 0
-494 493 0
494 403 -493 0
-495 -405 -494 0
-495 405 494 0
495 405 -494 0
495 -405 494 0
-496 405 0
-496 -494 0
496 -405 494 0
-497 494 0
-497 -496 0
497 -494 496 0
-498 -405 0
-498 497 0
498 405 -497 0
-499 -407 -498 0
-499 407 498 0
499 407 -498 0
499 -407 498 0
-500 407 0
-500 -498 0
500 -407 498 0
-501 498 0
-501 -500 0
501 -498 500 0
-502 -407 0
-502 501 0
502 407 -501 0
-503 243 -502 0
-503 -243 502 0
503 -243 -502 0
503 243 502 0
-504 -243 0
-504 -502 0
504 243 502 0
-505 502 0
-505 -504 0
505 -502 504 0
-506 243 0
-506 505 0
506 -243 -505 0
-507 247 -506 0
-507 -247 506 0
507 -247 -506 0
507 247 506 0
-508 -247 0
-508 -506 0
508 247 506 0
-509 506 0
-509 -508 0
509 -506 508 0
-510 247 0
-510 509 0
510 -247 -509 0
-511 -249 -510 0
-511 249 510 0
511 249 -510 0
511 -249 510 0
-512 249 0
-512 -510 0
512 -249 510 0
-513 510 0
-513 -512 0
513 -510 512 0
-514 -249 0
-514 513 0
514 249 -513 0
-515 414 -514 0
-515 -414 514 0
515 -414 -514 0
515 414 514 0
-516 414 0
-516 -514 0
516 -414 514 0
-517 417 516 0
-517 -417 -516 0
517 -417 516 0
517 417 -516 0
-518 417 0
-518 516 0
518 -417 -516 0
-519 419 518 0
-519 -419 -518 0
519 -419 518 0
519 419 -518 0
-520 419 0
-520 518 0
520 -419 -518 0
-521 -425 -341 0
-521 425 341 0
521 425 -341 0
521 -425 341 0
-522 425 0
-522 -341 0
522 -425 341 0
-523 -522 0
-523 341 0
523 522 -341 0
-524 -425 0
-524 523 0
524 425 -523 0
-525 -429 -524 0
-525 429 524 0
525 429 -524 0
525 -429 524 0
-526 429 0
-526 -524 0
526 -429 524 0
-527 -526 0
-527 524 0
527 526 -524 0
-528 -429 0
-528 527 0
528 429 -527 0
-529 -431 -528 0
-529 431 528 0
529 431 -528 0
529 -431 528 0
-530 431 0
-530 -528 0
530 -431 528 0
-531 -530 0
-531 528 0
531 530 -528 0
-532 -431 0
-532 531 0
532 431 -531 0
-533 -435 -532 0
-533 435 532 0
533 435 -532 0
533 -435 532 0
-534 435 0
-534 -532 0
534 -435 532 0
-535 -534 0
-535 532 0
535 534 -532 0
-536 -435 0
-536 535 0
536 435 -535 0
-537 -437 -536 0
-537 437 536 0
537 437 -536 0
537 -437 536 0
-538 437 0
-538 -536 0
538 -437 536 0
-539 -538 0
-539 536 0
539 538 -536 0
-540 -437 0
-540 539 0
540 437 -539 0
-541 441 -540 0
-541 -441 540 0
541 -441 -540 0
541 441 540 0
-542 441 0
-542 -540 0
542 -441 540 0
-543 443 542 0
-543 -443 -542 0
543 -443 542 0
543 443 -542 0
-544 443 0
-544 542 0
544 -443 -542 0
-545 -447 544 0
-545 447 -544 0
545 447 544 0
545 -447 -544 0
-546 447 0
-546 544 0
546 -447 -544 0
-547 -546 0
-547 -544 0
547 546 544 0
-548 -447 0
-548 547 0
548 447 -547 0
-549 451 -75 0
-549 -451 75 0
549 -451 -75 0
549 451 75 0
-550 549 -548 0
-550 -549 548 0
550 -549 -548 0
550 549 548 0
-551 -75 0
-551 -548 0
551 75 548 0
-552 451 0
-552 -548 0
552 -451 548 0
-553 -552 0
-553 -551 0
553 552 551 0
-554 451 0
-554 -75 0
554 -451 75 0
-555 -554 0
-555 553 0
555 554 -553 0
-556 -453 -555 0
-556 453 555 0
556 453 -555 0
556 -453 555 0
-557 453 0
-557 -555 0
557 -453 555 0
-558 -557 0
-558 555 0
558 557 -555 0
-559 -453 0
-559 558 0
559 453 -558 0
-560 455 -213 0
-560 -455 213 0
560 -455 -213 0
560 455 213 0
-561 560 -559 0
-561 -560 559 0
561 -560 -559 0
561 560 559 0
-562 -213 0
-562 -559 0
562 213 559 0
-563 455 0
-563 -559 0
563 -455 559 0
-564 -563 0
-564 -562 0
564 563 562 0
-565 455 0
-565 -213 0
565 -455 213 0
-566 -565 0
-566 564 0
566 565 -564 0
-567 459 215 0
-567 -459 -215 0
567 -459 215 0
567 459 -215 0
-568 567 -566 0
-568 -567 566 0
568 -567 -566 0
568 567 566 0
-569 215 0
-569 -566 0
569 -215 566 0
-570 459 0
-570 -566 0
570 -459 566 0
-571 -570 0
-571 -569 0
571 570 569 0
-572 459 0
-572 215 0
572 -459 -215 0
-573 -572 0
-573 571 0
573 572 -571 0
-574 463 -219 0
-574 -463 219 0
574 -463 -219 0
574 463 219 0
-575 574 -573 0
-575 -574 573 0
575 -574 -573 0
575 574 573 0
-576 -219 0
-576 -573 0
576 219 573 0
-577 463 0
-577 -573 0
577 -463 573 0
-578 -577 0
-578 -576 0
578 577 576 0
-579 463 0
-579 -219 0
579 -463 219 0
-580 -579 0
-580 578 0
580 579 -578 0
-581 465 -580 0
-581 -465 580 0
581 -465 -580 0
581 465 580 0
-582 465 0
-582 -580 0
582 -465 580 0
-583 -469 582 0
-583 469 -582 0
583 469 582 0
583 -469 -582 0
-584 469 0
-584 582 0
584 -469 -582 0
-585 -584 0
-585 -582 0
585 584 582 0
-586 -469 0
-586 585 0
586 469 -585 0
-587 473 231 0
-587 -473 -231 0
587 -473 231 0
587 473 -231 0
-588 587 -586 0
-588 -587 586 0
588 -587 -586 0
588 587 586 0
-589 231 0
-589 -586 0
589 -231 586 0
-590 473 0
-590 -586 0
590 -473 586 0
-591 -590 0
-591 -589 0
591 590 589 0
-592 473 0
-592 231 0
592 -473 -231 0
-593 -592 0
-593 591 0
593 592 -591 0
-594 477 421 0
-594 -477 -421 0
594 -477 421 0
594 477 -421 0
-595 594 -593 0
-595 -594 593 0
595 -594 -593 0
595 594 593 0
-596 421 0
-596 -593 0
596 -421 593 0
-597 477 0
-597 -593 0
597 -477 593 0
-598 -597 0
-598 -596 0
598 597 596 0
-599 477 0
-599 421 0
599 -477 -421 0
-600 -599 0
-600 598 0
600 599 -598 0
-601 481 -424 0
-601 -481 424 0
601 -481 -424 0
601 481 424 0
-602 601 -600 0
-602 -601 600 0
602 -601 -600 0
602 601 600 0
-603 -424 0
-603 -600 0
603 424 600 0
-604 481 0
-604 -600 0
604 -481 600 0
-605 -604 0
-605 -603 0
605 604 603 0
-606 481 0
-606 -424 0
606 -481 424 0
-607 -606 0
-607 605 0
607 606 -605 0
-608 483 -243 0
-608 -483 243 0
608 -483 -243 0
608 483 243 0
-609 608 -607 0
-609 -608 607 0
609 -608 -607 0
609 608 607 0
-610 -243 0
-610 -607 0
610 243 607 0
-611 483 0
-611 -607 0
611 -483 607 0
-612 -611 0
-612 -610 0
612 611 610 0
-613 483 0
-613 -243 0
613 -483 243 0
-614 -613 0
-614 612 0
614 613 -612 0
-615 485 -243 0
-615 -485 243 0
615 -485 -243 0
615 485 243 0
-616 615 -614 0
-616 -615 614 0
616 -615 -614 0
616 615 614 0
-617 -243 0
-617 -614 0
617 243 614 0
-618 485 0
-618 -614 0
618 -485 614 0
-619 -618 0
-619 -617 0
619 618 617 0
-620 485 0
-620 -243 0
620 -485 243 0
-621 -620 0
-621 619 0
621 620 -619 0
-622 487 -243 0
-622 -487 243 0
622 -487 -243 0
622 487 243 0
-623 622 -621 0
-623 -622 621 0
623 -622 -621 0
623 622 621 0
-624 -243 0
-624 -621 0
624 243 621 0
-625 487 0
-625 -621 0
625 -487 621 0
-626 -625 0
-626 -624 0
626 625 624 0
-627 487 0
-627 -243 0
627 -487 243 0
-628 -627 0
-628 626 0
628 627 -626 0
-629 489 243 0
-629 -489 -243 0
629 -489 243 0
629 489 -243 0
-630 629 -628 0
-630 -629 628 0
630 -629 -628 0
630 629 628 0
-631 243 0
-631 -628 0
631 -243 628 0
-632 489 0
-632 -628 0
632 -489 628 0
-633 -632 0
-633 -631 0
633 632 631 0
-634 489 0
-634 243 0
634 -489 -243 0
-635 -634 0
-635 633 0
635 634 -633 0
-636 491 -635 0
-636 -491 635 0
636 -491 -635 0
636 491 635 0
-637 491 0
-637 -635 0
637 -491 635 0
-638 495 637 0
-638 -495 -637 0
638 -495 637 0
638 495 -637 0
-639 495 0
-639 637 0
639 -495 -637 0
-640 499 261 0
-640 -499 -261 0
640 -499 261 0
640 499 -261 0
-641 640 639 0
-641 -640 -639 0
641 -640 639 0
641 640 -639 0
-642 261 0
-642 639 0
642 -261 -639 0
-643 499 0
-643 639 0
643 -499 -639 0
-644 -643 0
-644 -642 0
644 643 642 0
-645 499 0
-645 261 0
645 -499 -261 0
-646 -645 0
-646 644 0
646 645 -644 0
-647 503 -261 0
-647 -503 261 0
647 -503 -261 0
647 503 261 0
-648 647 -646 0
-648 -647 646 0
648 -647 -646 0
648 647 646 0
-649 -261 0
-649 -646 0
649 261 646 0
-650 503 0
-650 -646 0
650 -503 646 0
-651 -650 0
-651 -649 0
651 650 649 0
-652 503 0
-652 -261 0
652 -503 261 0
-653 -652 0
-653 651 0
653 652 -651 0
-654 507 -267 0
-654 -507 267 0
654 -507 -267 0
654 507 267 0
-655 654 -653 0
-655 -654 653 0
655 -654 -653 0
655 654 653 0
-656 -267 0
-656 -653 0
656 267 653 0
-657 507 0
-657 -653 0
657 -507 653 0
-658 -657 0
-658 -656 0
658 657 656 0
-659 507 0
-659 -267 0
659 -507 267 0
-660 -659 0
-660 658 0
660 659 -658 0
-661 511 -660 0
-661 -511 660 0
661 -511 -660 0
661 511 660 0
-662 511 0
-662 -660 0
662 -511 660 0
-663 515 662 0
-663 -515 -662 0
663 -515 662 0
663 515 -662 0
-664 515 0
-664 662 0
664 -515 -662 0
-665 517 275 0
-665 -517 -275 0
665 -517 275 0
665 517 -275 0
-666 665 664 0
-666 -665 -664 0
666 -665 664 0
666 665 -664 0
-667 275 0
-667 664 0
667 -275 -664 0
-668 517 0
-668 664 0
668 -517 -664 0
-669 -668 0
-669 -667 0
669 668 667 0
-670 517 0
-670 275 0
670 -517 -275 0
-671 -670 0
-671 669 0
671 670 -669 0
-672 519 277 0
-672 -519 -277 0
672 -519 277 0
672 519 -277 0
-673 672 -671 0
-673 -672 671 0
673 -672 -671 0
673 672 671 0
-674 277 0
-674 -671 0
674 -277 671 0
-675 519 0
-675 -671 0
675 -519 671 0
-676 -675 0
-676 -674 0
676 675 674 0
-677 519 0
-677 277 0
677 -519 -277 0
-678 -677 0
-678 676 0
678 677 -676 0
-679 344 342 0
-679 -344 -342 0
679 -344 342 0
679 344 -342 0
-680 344 0
-680 342 0
680 -344 -342 0
-681 -347 680 0
-681 347 -680 0
681 347 680 0
681 -347 -680 0
-682 347 0
-682 680 0
682 -347 -680 0
-683 -682 0
-683 -680 0
683 682 680 0
-684 -347 0
-684 683 0
684 347 -683 0
-685 350 -684 0
-685 -350 684 0
685 -350 -684 0
685 350 684 0
-686 350 0
-686 -684 0
686 -350 684 0
-687 353 686 0
-687 -353 -686 0
687 -353 686 0
687 353 -686 0
-688 353 0
-688 686 0
688 -353 -686 0
-689 356 688 0
-689 -356 -688 0
689 -356 688 0
689 356 -688 0
-690 356 0
-690 688 0
690 -356 -688 0
-691 -360 690 0
-691 360 -690 0
691 360 690 0
691 -360 -690 0
-692 360 0
-692 690 0
692 -360 -690 0
-693 -692 0
-693 -690 0
693 692 690 0
-694 -360 0
-694 693 0
694 360 -693 0
-695 -363 -694 0
-695 363 694 0
695 363 -694 0
695 -363 694 0
-696 363 0
-696 -694 0
696 -363 694 0
-697 -696 0
-697 694 0
697 696 -694 0
-698 -363 0
-698 697 0
698 363 -697 0
-699 366 -698 0
-699 -366 698 0
699 -366 -698 0
699 366 698 0
-700 366 0
-700 -698 0
700 -366 698 0
-701 -369 700 0
-701 369 -700 0
701 369 700 0
701 -369 -700 0
-702 369 0
-702 700 0
702 -369 -700 0
-703 -702 0
-703 -700 0
703 702 700 0
-704 -369 0
-704 703 0
704 369 -703 0
-705 371 -704 0
-705 -371 704 0
705 -371 -704 0
705 371 704 0
-706 -371 0
-706 -704 0
706 371 704 0
-707 -706 0
-707 704 0
707 706 -704 0
-708 371 0
-708 707 0
708 -371 -707 0
-709 373 287 0
-709 -373 -287 0
709 -373 287 0
709 373 -287 0
-710 709 -708 0
-710 -709 708 0
710 -709 -708 0
710 709 708 0
-711 287 0
-711 -708 0
711 -287 708 0
-712 373 0
-712 -708 0
712 -373 708 0
-713 -712 0
-713 -711 0
713 712 711 0
-714 373 0
-714 287 0
714 -373 -287 0
-715 -714 0
-715 713 0
715 714 -713 0
-716 -375 -715 0
-716 375 715 0
716 375 -715 0
716 -375 715 0
-717 -375 0
-717 -715 0
717 375 715 0
-718 377 717 0
-718 -377 -717 0
718 -377 717 0
718 377 -717 0
-719 -377 0
-719 717 0
719 377 -717 0
-720 -719 0
-720 -717 0
720 719 717 0
-721 377 0
-721 720 0
721 -377 -720 0
-722 379 297 0
-722 -379 -297 0
722 -379 297 0
722 379 -297 0
-723 722 -721 0
-723 -722 721 0
723 -722 -721 0
723 722 721 0
-724 297 0
-724 -721 0
724 -297 721 0
-725 379 0
-725 -721 0
725 -379 721 0
-726 -725 0
-726 -724 0
726 725 724 0
-727 379 0
-727 297 0
727 -379 -297 0
-728 -727 0
-728 726 0
728 727 -726 0
-729 -382 -728 0
-729 382 728 0
729 382 -728 0
729 -382 728 0
-730 382 0
-730 -728 0
730 -382 728 0
-731 -730 0
-731 728 0
731 730 -728 0
-732 -382 0
-732 731 0
732 382 -731 0
-733 385 -732 0
-733 -385 732 0
733 -385 -732 0
733 385 732 0
-734 -385 0
-734 -732 0
734 385 732 0
-735 -734 0
-735 732 0
735 734 -732 0
-736 385 0
-736 735 0
736 -385 -735 0
-737 -388 305 0
-737 388 -305 0
737 388 305 0
737 -388 -305 0
-738 737 -736 0
-738 -737 736 0
738 -737 -736 0
738 737 736 0
-739 305 0
-739 -736 0
739 -305 736 0
-740 -388 0
-740 -736 0
740 388 736 0
-741 -740 0
-741 -739 0
741 740 739 0
-742 -388 0
-742 305 0
742 388 -305 0
-743 -742 0
-743 741 0
743 742 -741 0
-744 392 307 0
-744 -392 -307 0
744 -392 307 0
744 392 -307 0
-745 744 -743 0
-745 -744 743 0
745 -744 -743 0
745 744 743 0
-746 307 0
-746 -743 0
746 -307 743 0
-747 392 0
-747 -743 0
747 -392 743 0
-748 -747 0
-748 -746 0
748 747 746 0
-749 392 0
-749 307 0
749 -392 -307 0
-750 -749 0
-750 748 0
750 749 -748 0
-751 395 309 0
-751 -395 -309 0
751 -395 309 0
751 395 -309 0
-752 751 -750 0
-752 -751 750 0
752 -751 -750 0
752 751 750 0
-753 309 0
-753 -750 0
753 -309 750 0
-754 395 0
-754 -750 0
754 -395 750 0
-755 -754 0
-755 -753 0
755 754 753 0
-756 395 0
-756 309 0
756 -395 -309 0
-757 -756 0
-757 755 0
757 756 -755 0
-758 398 -757 0
-758 -398 757 0
758 -398 -757 0
758 398 757 0
-759 398 0
-759 -757 0
759 -398 757 0
-760 400 315 0
-760 -400 -315 0
760 -400 315 0
760 400 -315 0
-761 760 759 0
-761 -760 -759 0
761 -760 759 0
761 760 -759 0
-762 315 0
-762 759 0
762 -315 -759 0
-763 400 0
-763 759 0
763 -400 -759 0
-764 -763 0
-764 -762 0
764 763 762 0
-765 400 0
-765 315 0
765 -400 -315 0
-766 -765 0
-766 764 0
766 765 -764 0
-767 402 317 0
-767 -402 -317 0
767 -402 317 0
767 402 -317 0
-768 767 -766 0
-768 -767 766 0
768 -767 -766 0
768 767 766 0
-769 317 0
-769 -766 0
769 -317 766 0
-770 402 0
-770 -766 0
770 -402 766 0
-771 -770 0
-771 -769 0
771 770 769 0
-772 402 0
-772 317 0
772 -402 -317 0
-773 -772 0
-773 771 0
773 772 -771 0
-774 404 -773 0
-774 -404 773 0
774 -404 -773 0
774 404 773 0
-775 404 0
-775 -773 0
775 -404 773 0
-776 406 323 0
-776 -406 -323 0
776 -406 323 0
776 406 -323 0
-777 776 775 0
-777 -776 -775 0
777 -776 775 0
777 776 -775 0
-778 323 0
-778 775 0
778 -323 -775 0
-779 406 0
-779 775 0
779 -406 -775 0
-780 -779 0
-780 -778 0
780 779 778 0
-781 406 0
-781 323 0
781 -406 -323 0
-782 -781 0
-782 780 0
782 781 -780 0
-783 -408 -782 0
-783 408 782 0
783 408 -782 0
783 -408 782 0
-784 408 0
-784 -782 0
784 -408 782 0
-785 -784 0
-785 782 0
785 784 -782 0
-786 -408 0
-786 785 0
786 408 -785 0
-787 409 -786 0
-787 -409 786 0
787 -409 -786 0
787 409 786 0
-788 409 0
-788 -786 0
788 -409 786 0
-789 -411 788 0
-789 411 -788 0
789 411 788 0
789 -411 -788 0
-790 411 0
-790 788 0
790 -411 -788 0
-791 -790 0
-791 -788 0
791 790 788 0
-792 -411 0
-792 791 0
792 411 -791 0
-793 413 333 0
-793 -413 -333 0
793 -413 333 0
793 413 -333 0
-794 793 -792 0
-794 -793 792 0
794 -793 -792 0
794 793 792 0
-795 333 0
-795 -792 0
795 -333 792 0
-796 413 0
-796 -792 0
796 -413 792 0
-797 -796 0
-797 -795 0
797 796 795 0
-798 413 0
-798 333 0
798 -413 -333 0
-799 -798 0
-799 797 0
799 798 -797 0
-800 -416 -799 0
-800 416 799 0
800 416 -799 0
800 -416 799 0
-801 416 0
-801 -799 0
801 -416 799 0
-802 -801 0
-802 799 0
802 801 -799 0
-803 -416 0
-803 802 0
803 416 -802 0
-804 418 337 0
-804 -418 -337 0
804 -418 337 0
804 418 -337 0
-805 804 -803 0
-805 -804 803 0
805 -804 -803 0
805 804 803 0
-806 337 0
-806 -803 0
806 -337 803 0
-807 418 0
-807 -803 0
807 -418 803 0
-808 -807 0
-808 -806 0
808 807 806 0
-809 418 0
-809 337 0
809 -418 -337 0
-810 -809 0
-810 808 0
810 809 -808 0
-811 420 339 0
-811 -420 -339 0
811 -420 339 0
811 420 -339 0
-812 811 -810 0
-812 -811 810 0
812 -811 -810 0
812 811 810 0
-813 339 0
-813 -810 0
813 -339 810 0
-814 420 0
-814 -810 0
814 -420 810 0
-815 -814 0
-815 -813 0
815 814 813 0
-816 420 0
-816 339 0
816 -420 -339 0
-817 -816 0
-817 815 0
817 816 -815 0
-818 525 521 0
-818 -525 -521 0
818 -525 521 0
818 525 -521 0
-819 525 0
-819 521 0
819 -525 -521 0
-820 529 819 0
-820 -529 -819 0
820 -529 819 0
820 529 -819 0
-821 529 0
-821 819 0
821 -529 -819 0
-822 -533 821 0
-822 533 -821 0
822 533 821 0
822 -533 -821 0
-823 533 0
-823 821 0
823 -533 -821 0
-824 -821 0
-824 -823 0
824 821 823 0
-825 -533 0
-825 824 0
825 533 -824 0
-826 -537 -825 0
-826 537 825 0
826 537 -825 0
826 -537 825 0
-827 537 0
-827 -825 0
827 -537 825 0
-828 825 0
-828 -827 0
828 -825 827 0
-829 -537 0
-829 828 0
829 537 -828 0
-830 -541 -829 0
-830 541 829 0
830 541 -829 0
830 -541 829 0
-831 541 0
-831 -829 0
831 -541 829 0
-832 829 0
-832 -831 0
832 -829 831 0
-833 -541 0
-833 832 0
833 541 -832 0
-834 543 -833 0
-834 -543 833 0
834 -543 -833 0
834 543 833 0
-835 543 0
-835 -833 0
835 -543 833 0
-836 -545 835 0
-836 545 -835 0
836 545 835 0
836 -545 -835 0
-837 545 0
-837 835 0
837 -545 -835 0
-838 -835 0
-838 -837 0
838 835 837 0
-839 -545 0
-839 838 0
839 545 -838 0
-840 -550 -839 0
-840 550 839 0
840 550 -839 0
840 -550 839 0
-841 550 0
-841 -839 0
841 -550 839 0
-842 839 0
-842 -841 0
842 -839 841 0
-843 -550 0
-843 842 0
843 550 -842 0
-844 556 -843 0
-844 -556 843 0
844 -556 -843 0
844 556 843 0
-845 556 0
-845 -843 0
845 -556 843 0
-846 561 845 0
-846 -561 -845 0
846 -561 845 0
846 561 -845 0
-847 561 0
-847 845 0
847 -561 -845 0
-848 -568 847 0
-848 568 -847 0
848 568 847 0
848 -568 -847 0
-849 568 0
-849 847 0
849 -568 -847 0
-850 -847 0
-850 -849 0
850 847 849 0
-851 -568 0
-851 850 0
851 568 -850 0
-852 -575 -851 0
-852 575 851 0
852 575 -851 0
852 -575 851 0
-853 575 0
-853 -851 0
853 -575 851 0
-854 851 0
-854 -853 0
854 -851 853 0
-855 -575 0
-855 854 0
855 575 -854 0
-856 -581 -855 0
-856 581 855 0
856 581 -855 0
856 -581 855 0
-857 581 0
-857 -855 0
857 -581 855 0
-858 855 0
-858 -857 0
858 -855 857 0
-859 -581 0
-859 858 0
859 581 -858 0
-860 -583 -859 0
-860 583 859 0
860 583 -859 0
860 -583 859 0
-861 583 0
-861 -859 0
861 -583 859 0
-862 859 0
-862 -861 0
862 -859 861 0
-863 -583 0
-863 862 0
863 583 -862 0
-864 588 -863 0
-864 -588 863 0
864 -588 -863 0
864 588 863 0
-865 588 0
-865 -863 0
865 -588 863 0
-866 -595 865 0
-866 595 -865 0
866 595 865 0
866 -595 -865 0
-867 595 0
-867 865 0
867 -595 -865 0
-868 -865 0
-868 -867 0
868 865 867 0
-869 -595 0
-869 868 0
869 595 -868 0
-870 -602 -869 0
-870 602 869 0
870 602 -869 0
870 -602 869 0
-871 602 0
-871 -869 0
871 -602 869 0
-872 869 0
-872 -871 0
872 -869 871 0
-873 -602 0
-873 872 0
873 602 -872 0
-874 -609 -873 0
-874 609 873 0
874 609 -873 0
874 -609 873 0
-875 609 0
-875 -873 0
875 -609 873 0
-876 873 0
-876 -875 0
876 -873 875 0
-877 -609 0
-877 876 0
877 609 -876 0
-878 616 -877 0
-878 -616 877 0
878 -616 -877 0
878 616 877 0
-879 616 0
-879 -877 0
879 -616 877 0
-880 -623 879 0
-880 623 -879 0
880 623 879 0
880 -623 -879 0
-881 623 0
-881 879 0
881 -623 -879 0
-882 -879 0
-882 -881 0
882 879 881 0
-883 -623 0
-883 882 0
883 623 -882 0
-884 -630 -883 0
-884 630 883 0
884 630 -883 0
884 -630 883 0
-885 630 0
-885 -883 0
885 -630 883 0
-886 883 0
-886 -885 0
886 -883 885 0
-887 -630 0
-887 886 0
887 630 -886 0
-888 636 -887 0
-888 -636 887 0
888 -636 -887 0
888 636 887 0
-889 636 0
-889 -887 0
889 -636 887 0
-890 638 889 0
-890 -638 -889 0
890 -638 889 0
890 638 -889 0
-891 638 0
-891 889 0
891 -638 -889 0
-892 641 891 0
-892 -641 -891 0
892 -641 891 0
892 641 -891 0
-893 641 0
-893 891 0
893 -641 -891 0
-894 -648 893 0
-894 648 -893 0
894 648 893 0
894 -648 -893 0
-895 648 0
-895 893 0
895 -648 -893 0
-896 -893 0
-896 -895 0
896 893 895 0
-897 -648 0
-897 896 0
897 648 -896 0
-898 -655 -897 0
-898 655 897 0
898 655 -897 0
898 -655 897 0
-899 655 0
-899 -897 0
899 -655 897 0
-900 897 0
-900 -899 0
900 -897 899 0
-901 -655 0
-901 900 0
901 655 -900 0
-902 -661 -901 0
-902 661 901 0
902 661 -901 0
902 -661 901 0
-903 661 0
-903 -901 0
903 -661 901 0
-904 901 0
-904 -903 0
904 -901 903 0
-905 -661 0
-905 904 0
905 661 -904 0
-906 -663 -905 0
-906 663 905 0
906 663 -905 0
906 -663 905 0
-907 663 0
-907 -905 0
907 -663 905 0
-908 905 0
-908 -907 0
908 -905 907 0
-909 -663 0
-909 908 0
909 663 -908 0
-910 666 -909 0
-910 -666 909 0
910 -666 -909 0
910 666 909 0
-911 666 0
-911 -909 0
911 -666 909 0
-912 673 911 0
-912 -673 -911 0
912 -673 911 0
912 673 -911 0
-913 673 0
-913 911 0
913 -673 -911 0
-914 341 -342 0
-914 -341 342 0
914 -341 -342 0
914 341 342 0
-915 341 0
-915 -342 0
915 -341 342 0
-916 521 679 0
-916 -521 -679 0
916 -521 679 0
916 521 -679 0
-917 916 915 0
-917 -916 -915 0
917 -916 915 0
917 916 -915 0
-918 679 0
-918 915 0
918 -679 -915 0
-919 521 0
-919 915 0
919 -521 -915 0
-920 -919 0
-920 -918 0
920 919 918 0
-921 521 0
-921 679 0
921 -521 -679 0
-922 -921 0
-922 920 0
922 921 -920 0
-923 525 681 0
-923 -525 -681 0
923 -525 681 0
923 525 -681 0
-924 923 -922 0
-924 -923 922 0
924 -923 -922 0
924 923 922 0
-925 681 0
-925 -922 0
925 -681 922 0
-926 525 0
-926 -922 0
926 -525 922 0
-927 -926 0
-927 -925 0
927 926 925 0
-928 525 0
-928 681 0
928 -525 -681 0
-929 -928 0
-929 927 0
929 928 -927 0
-930 529 685 0
-930 -529 -685 0
930 -529 685 0
930 529 -685 0
-931 930 -929 0
-931 -930 929 0
931 -930 -929 0
931 930 929 0
-932 685 0
-932 -929 0
932 -685 929 0
-933 529 0
-933 -929 0
933 -529 929 0
-934 -933 0
-934 -932 0
934 933 932 0
-935 529 0
-935 685 0
935 -529 -685 0
-936 -935 0
-936 934 0
936 935 -934 0
-937 533 687 0
-937 -533 -687 0
937 -533 687 0
937 533 -687 0
-938 937 -936 0
-938 -937 936 0
938 -937 -936 0
938 937 936 0
-939 687 0
-939 -936 0
939 -687 936 0
-940 533 0
-940 -936 0
940 -533 936 0
-941 -940 0
-941 -939 0
941 940 939 0
-942 533 0
-942 687 0
942 -533 -687 0
-943 -942 0
-943 941 0
943 942 -941 0
-944 537 689 0
-944 -537 -689 0
944 -537 689 0
944 537 -689 0
-945 944 -943 0
-945 -944 943 0
945 -944 -943 0
945 944 943 0
-946 689 0
-946 -943 0
946 -689 943 0
-947 537 0
-947 -943 0
947 -537 943 0
-948 -947 0
-948 -946 0
948 947 946 0
-949 537 0
-949 689 0
949 -537 -689 0
-950 -949 0
-950 948 0
950 949 -948 0
-951 541 691 0
-951 -541 -691 0
951 -541 691 0
951 541 -691 0
-952 951 -950 0
-952 -951 950 0
952 -951 -950 0
952 951 950 0
-953 691 0
-953 -950 0
953 -691 950 0
-954 541 0
-954 -950 0
954 -541 950 0
-955 -954 0
-955 -953 0
955 954 953 0
-956 541 0
-956 691 0
956 -541 -691 0
-957 -956 0
-957 955 0
957 956 -955 0
-958 543 695 0
-958 -543 -695 0
958 -543 695 0
958 543 -695 0
-959 958 -957 0
-959 -958 957 0
959 -958 -957 0
959 958 957 0
-960 695 0
-960 -957 0
960 -695 957 0
-961 543 0
-961 -957 0
961 -543 957 0
-962 -961 0
-962 -960 0
962 961 960 0
-963 543 0
-963 695 0
963 -543 -695 0
-964 -963 0
-964 962 0
964 963 -962 0
-965 545 699 0
-965 -545 -699 0
965 -545 699 0
965 545 -699 0
-966 965 -964 0
-966 -965 964 0
966 -965 -964 0
966 965 964 0
-967 699 0
-967 -964 0
967 -699 964 0
-968 545 0
-968 -964 0
968 -545 964 0
-969 -968 0
-969 -967 0
969 968 967 0
-970 545 0
-970 699 0
970 -545 -699 0
-971 -970 0
-971 969 0
971 970 -969 0
-972 550 701 0
-972 -550 -701 0
972 -550 701 0
972 550 -701 0
-973 972 -971 0
-973 -972 971 0
973 -972 -971 0
973 972 971 0
-974 701 0
-974 -971 0
974 -701 971 0
-975 550 0
-975 -971 0
975 -550 971 0
-976 -975 0
-976 -974 0
976 975 974 0
-977 550 0
-977 701 0
977 -550 -701 0
-978 -977 0
-978 976 0
978 977 -976 0
-979 556 705 0
-979 -556 -705 0
979 -556 705 0
979 556 -705 0
-980 979 -978 0
-980 -979 978 0
980 -979 -978 0
980 979 978 0
-981 705 0
-981 -978 0
981 -705 978 0
-982 556 0
-982 -978 0
982 -556 978 0
-983 -982 0
-983 -981 0
983 982 981 0
-984 556 0
-984 705 0
984 -556 -705 0
-985 -984 0
-985 983 0
985 984 -983 0
-986 561 710 0
-986 -561 -710 0
986 -561 710 0
986 561 -710 0
-987 986 -985 0
-987 -986 985 0
987 -986 -985 0
987 986 985 0
-988 710 0
-988 -985 0
988 -710 985 0
-989 561 0
-989 -985 0
989 -561 985 0
-990 -989 0
-990 -988 0
990 989 988 0
-991 561 0
-991 710 0
991 -561 -710 0
-992 -991 0
-992 990 0
992 991 -990 0
-993 568 716 0
-993 -568 -716 0
993 -568 716 0
993 568 -716 0
-994 993 -992 0
-994 -993 992 0
994 -993 -992 0
994 993 992 0
-995 716 0
-995 -992 0
995 -716 992 0
-996 568 0
-996 -992 0
996 -568 992 0
-997 -996 0
-997 -995 0
997 996 995 0
-998 568 0
-998 716 0
998 -568 -716 0
-999 -998 0
-999 997 0
999 998 -997 0
-1000 575 718 0
-1000 -575 -718 0
1000 -575 718 0
1000 575 -718 0
-1001 1000 -999 0
-1001 -1000 999 0
1001 -1000 -999 0
1001 1000 999 0
-1002 718 0
-1002 -999 0
1002 -718 999 0
-1003 575 0
-1003 -999 0
1003 -575 999 0
-1004 -1003 0
-1004 -1002 0
1004 1003 1002 0
-1005 575 0
-1005 718 0
1005 -575 -718 0
-1006 -1005 0
-1006 1004 0
1006 1005 -1004 0
-1007 581 723 0
-1007 -581 -723 0
1007 -581 723 0
1007 581 -723 0
-1008 1007 -1006 0
-1008 -1007 1006 0
1008 -1007 -1006 0
1008 1007 1006 0
-1009 723 0
-1009 -1006 0
1009 -723 1006 0
-1010 581 0
-1010 -1006 0
1010 -581 1006 0
-1011 -1010 0
-1011 -1009 0
1011 1010 1009 0
-1012 581 0
-1012 723 0
1012 -581 -723 0
-1013 -1012 0
-1013 1011 0
1013 1012 -1011 0
-1014 583 729 0
-1014 -583 -729 0
1014 -583 729 0
1014 583 -729 0
-1015 1014 -1013 0
-1015 -1014 1013 0
1015 -1014 -1013 0
1015 1014 1013 0
-1016 729 0
-1016 -1013 0
1016 -729 1013 0
-1017 583 0
-1017 -1013 0
1017 -583 1013 0
-1018 -1017 0
-1018 -1016 0
1018 1017 1016 0
-1019 583 0
-1019 729 0
1019 -583 -729 0
-1020 -1019 0
-1020 1018 0
1020 1019 -1018 0
-1021 588 733 0
-1021 -588 -733 0
1021 -588 733 0
1021 588 -733 0
-1022 1021 -1020 0
-1022 -1021 1020 0
1022 -1021 -1020 0
1022 1021 1020 0
-1023 733 0
-1023 -1020 0
1023 -733 1020 0
-1024 588 0
-1024 -1020 0
1024 -588 1020 0
-1025 -1024 0
-1025 -1023 0
1025 1024 1023 0
-1026 588 0
-1026 733 0
1026 -588 -733 0
-1027 -1026 0
-1027 1025 0
1027 1026 -1025 0
-1028 595 738 0
-1028 -595 -738 0
1028 -595 738 0
1028 595 -738 0
-1029 1028 -1027 0
-1029 -1028 1027 0
1029 -1028 -1027 0
1029 1028 1027 0
-1030 738 0
-1030 -1027 0
1030 -738 1027 0
-1031 595 0
-1031 -1027 0
1031 -595 1027 0
-1032 -1031 0
-1032 -1030 0
1032 1031 1030 0
-1033 595 0
-1033 738 0
1033 -595 -738 0
-1034 -1033 0
-1034 1032 0
1034 1033 -1032 0
-1035 602 745 0
-1035 -602 -745 0
1035 -602 745 0
1035 602 -745 0
-1036 1035 -1034 0
-1036 -1035 1034 0
1036 -1035 -1034 0
1036 1035 1034 0
-1037 745 0
-1037 -1034 0
1037 -745 1034 0
-1038 602 0
-1038 -1034 0
1038 -602 1034 0
-1039 -1038 0
-1039 -1037 0
1039 1038 1037 0
-1040 602 0
-1040 745 0
1040 -602 -745 0
-1041 -1040 0
-1041 1039 0
1041 1040 -1039 0
-1042 609 752 0
-1042 -609 -752 0
1042 -609 752 0
1042 609 -752 0
-1043 1042 -1041 0
-1043 -1042 1041 0
1043 -1042 -1041 0
1043 1042 1041 0
-1044 752 0
-1044 -1041 0
1044 -752 1041 0
-1045 609 0
-1045 -1041 0
1045 -609 1041 0
-1046 -1045 0
-1046 -1044 0
1046 1045 1044 0
-1047 609 0
-1047 752 0
1047 -609 -752 0
-1048 -1047 0
-1048 1046 0
1048 1047 -1046 0
-1049 616 758 0
-1049 -616 -758 0
1049 -616 758 0
1049 616 -758 0
-1050 1049 -1048 0
-1050 -1049 1048 0
1050 -1049 -1048 0
1050 1049 1048 0
-1051 758 0
-1051 -1048 0
1051 -758 1048 0
-1052 616 0
-1052 -1048 0
1052 -616 1048 0
-1053 -1052 0
-1053 -1051 0
1053 1052 1051 0
-1054 616 0
-1054 758 0
1054 -616 -758 0
-1055 -1054 0
-1055 1053 0
1055 1054 -1053 0
-1056 623 761 0
-1056 -623 -761 0
1056 -623 761 0
1056 623 -761 0
-1057 1056 -1055 0
-1057 -1056 1055 0
1057 -1056 -1055 0
1057 1056 1055 0
-1058 761 0
-1058 -1055 0
1058 -761 1055 0
-1059 623 0
-1059 -1055 0
1059 -623 1055 0
-1060 -1059 0
-1060 -1058 0
1060 1059 1058 0
-1061 623 0
-1061 761 0
1061 -623 -761 0
-1062 -1061 0
-1062 1060 0
1062 1061 -1060 0
-1063 630 768 0
-1063 -630 -768 0
1063 -630 768 0
1063 630 -768 0
-1064 1063 -1062 0
-1064 -1063 1062 0
1064 -1063 -1062 0
1064 1063 1062 0
-1065 768 0
-1065 -1062 0
1065 -768 1062 0
-1066 630 0
-1066 -1062 0
1066 -630 1062 0
-1067 -1066 0
-1067 -1065 0
1067 1066 1065 0
-1068 630 0
-1068 768 0
1068 -630 -768 0
-1069 -1068 0
-1069 1067 0
1069 1068 -1067 0
-1070 636 774 0
-1070 -636 -774 0
1070 -636 774 0
1070 636 -774 0
-1071 1070 -1069 0
-1071 -1070 1069 0
1071 -1070 -1069 0
1071 1070 1069 0
-1072 774 0
-1072 -1069 0
1072 -774 1069 0
-1073 636 0
-1073 -1069 0
1073 -636 1069 0
-1074 -1073 0
-1074 -1072 0
1074 1073 1072 0
-1075 636 0
-1075 774 0
1075 -636 -774 0
-1076 -1075 0
-1076 1074 0
1076 1075 -1074 0
-1077 638 777 0
-1077 -638 -777 0
1077 -638 777 0
1077 638 -777 0
-1078 1077 -1076 0
-1078 -1077 1076 0
1078 -1077 -1076 0
1078 1077 1076 0
-1079 777 0
-1079 -1076 0
1079 -777 1076 0
-1080 638 0
-1080 -1076 0
1080 -638 1076 0
-1081 -1080 0
-1081 -1079 0
1081 1080 1079 0
-1082 638 0
-1082 777 0
1082 -638 -777 0
-1083 -1082 0
-1083 1081 0
1083 1082 -1081 0
-1084 641 783 0
-1084 -641 -783 0
1084 -641 783 0
1084 641 -783 0
-1085 1084 -1083 0
-1085 -1084 1083 0
1085 -1084 -1083 0
1085 1084 1083 0
-1086 783 0
-1086 -1083 0
1086 -783 1083 0
-1087 641 0
-1087 -1083 0
1087 -641 1083 0
-1088 -1087 0
-1088 -1086 0
1088 1087 1086 0
-1089 641 0
-1089 783 0
1089 -641 -783 0
-1090 -1089 0
-1090 1088 0
1090 1089 -1088 0
-1091 648 787 0
-1091 -648 -787 0
1091 -648 787 0
1091 648 -787 0
-1092 1091 -1090 0
-1092 -1091 1090 0
1092 -1091 -1090 0
1092 1091 1090 0
-1093 787 0
-1093 -1090 0
1093 -787 1090 0
-1094 648 0
-1094 -1090 0
1094 -648 1090 0
-1095 -1094 0
-1095 -1093 0
1095 1094 1093 0
-1096 648 0
-1096 787 0
1096 -648 -787 0
-1097 -1096 0
-1097 1095 0
1097 1096 -1095 0
-1098 655 789 0
-1098 -655 -789 0
1098 -655 789 0
1098 655 -789 0
-1099 1098 -1097 0
-1099 -1098 1097 0
1099 -1098 -1097 0
1099 1098 1097 0
-1100 789 0
-1100 -1097 0
1100 -789 1097 0
-1101 655 0
-1101 -1097 0
1101 -655 1097 0
-1102 -1101 0
-1102 -1100 0
1102 1101 1100 0
-1103 655 0
-1103 789 0
1103 -655 -789 0
-1104 -1103 0
-1104 1102 0
1104 1103 -1102 0
-1105 661 794 0
-1105 -661 -794 0
1105 -661 794 0
1105 661 -794 0
-1106 1105 -1104 0
-1106 -1105 1104 0
1106 -1105 -1104 0
1106 1105 1104 0
-1107 794 0
-1107 -1104 0
1107 -794 1104 0
-1108 661 0
-1108 -1104 0
1108 -661 1104 0
-1109 -1108 0
-1109 -1107 0
1109 1108 1107 0
-1110 661 0
-1110 794 0
1110 -661 -794 0
-1111 -1110 0
-1111 1109 0
1111 1110 -1109 0
-1112 663 800 0
-1112 -663 -800 0
1112 -663 800 0
1112 663 -800 0
-1113 1112 -1111 0
-1113 -1112 1111 0
1113 -1112 -1111 0
1113 1112 1111 0
-1114 800 0
-1114 -1111 0
1114 -800 1111 0
-1115 663 0
-1115 -1111 0
1115 -663 1111 0
-1116 -1115 0
-1116 -1114 0
1116 1115 1114 0
-1117 663 0
-1117 800 0
1117 -663 -800 0
-1118 -1117 0
-1118 1116 0
1118 1117 -1116 0
-1119 666 805 0
-1119 -666 -805 0
1119 -666 805 0
1119 666 -805 0
-1120 1119 -1118 0
-1120 -1119 1118 0
1120 -1119 -1118 0
1120 1119 1118 0
-1121 805 0
-1121 -1118 0
1121 -805 1118 0
-1122 666 0
-1122 -1118 0
1122 -666 1118 0
-1123 -1122 0
-1123 -1121 0
1123 1122 1121 0
-1124 666 0
-1124 805 0
1124 -666 -805 0
-1125 -1124 0
-1125 1123 0
1125 1124 -1123 0
-1126 673 812 0
-1126 -673 -812 0
1126 -673 812 0
1126 673 -812 0
-1127 1126 -1125 0
-1127 -1126 1125 0
1127 -1126 -1125 0
1127 1126 1125 0
-1128 812 0
-1128 -1125 0
1128 -812 1125 0
-1129 673 0
-1129 -1125 0
1129 -673 1125 0
-1130 -1129 0
-1130 -1128 0
1130 1129 1128 0
-1131 673 0
-1131 812 0
1131 -673 -812 0
-1132 -1131 0
-1132 1130 0
1132 1131 -1130 0
-1133 830 846 0
-1133 -830 -846 0
1133 -830 846 0
1133 830 -846 0
-1134 1133 892 0
-1134 -1133 -892 0
1134 -1133 892 0
1134 1133 -892 0
-1135 924 1001 0
-1135 -924 -1001 0
1135 -924 1001 0
1135 924 -1001 0
-1136 1135 1064 0
-1136 -1135 -1064 0
1136 -1135 1064 0
1136 1135 -1064 0
-1137 834 848 0
-1137 -834 -848 0
1137 -834 848 0
1137 834 -848 0
-1138 1137 894 0
-1138 -1137 -894 0
1138 -1137 894 0
1138 1137 -894 0
-1139 931 1008 0
-1139 -931 -1008 0
1139 -931 1008 0
1139 931 -1008 0
-1140 1139 1071 0
-1140 -1139 -1071 0
1140 -1139 1071 0
1140 1139 -1071 0
-1141 836 852 0
-1141 -836 -852 0
1141 -836 852 0
1141 836 -852 0
-1142 1141 898 0
-1142 -1141 -898 0
1142 -1141 898 0
1142 1141 -898 0
-1143 938 1015 0
-1143 -938 -1015 0
1143 -938 1015 0
1143 938 -1015 0
-1144 1143 1078 0
-1144 -1143 -1078 0
1144 -1143 1078 0
1144 1143 -1078 0
-1145 840 856 0
-1145 -840 -856 0
1145 -840 856 0
1145 840 -856 0
-1146 1145 902 0
-1146 -1145 -902 0
1146 -1145 902 0
1146 1145 -902 0
-1147 945 1022 0
-1147 -945 -1022 0
1147 -945 1022 0
1147 945 -1022 0
-1148 1147 1085 0
-1148 -1147 -1085 0
1148 -1147 1085 0
1148 1147 -1085 0
-1149 844 860 0
-1149 -844 -860 0
1149 -844 860 0
1149 844 -860 0
-1150 1149 906 0
-1150 -1149 -906 0
1150 -1149 906 0
1150 1149 -906 0
-1151 952 1029 0
-1151 -952 -1029 0
1151 -952 1029 0
1151 952 -1029 0
-1152 1151 1092 0
-1152 -1151 -1092 0
1152 -1151 1092 0
1152 1151 -1092 0
-1153 846 864 0
-1153 -846 -864 0
1153 -846 864 0
1153 846 -864 0
-1154 1153 910 0
-1154 -1153 -910 0
1154 -1153 910 0
1154 1153 -910 0
-1155 959 1036 0
-1155 -959 -1036 0
1155 -959 1036 0
1155 959 -1036 0
-1156 1155 1099 0
-1156 -1155 -1099 0
1156 -1155 1099 0
1156 1155 -1099 0
-1157 848 866 0
-1157 -848 -866 0
1157 -848 866 0
1157 848 -866 0
-1158 1157 912 0
-1158 -1157 -912 0
1158 -1157 912 0
1158 1157 -912 0
-1159 966 1043 0
-1159 -966 -1043 0
1159 -966 1043 0
1159 966 -1043 0
-1160 1159 1106 0
-1160 -1159 -1106 0
1160 -1159 1106 0
1160 1159 -1106 0
-1161 852 870 0
-1161 -852 -870 0
1161 -852 870 0
1161 852 -870 0
-1162 1161 341 0
-1162 -1161 -341 0
1162 -1161 341 0
1162 1161 -341 0
-1163 973 1050 0
-1163 -973 -1050 0
1163 -973 1050 0
1163 973 -1050 0
-1164 1163 1113 0
-1164 -1163 -1113 0
1164 -1163 1113 0
1164 1163 -1113 0
-1165 856 874 0
-1165 -856 -874 0
1165 -856 874 0
1165 856 -874 0
-1166 1165 -521 0
-1166 -1165 521 0
1166 -1165 -521 0
1166 1165 521 0
-1167 836 0
-1167 -24 0
1167 -836 24 0
-1168 980 1057 0
-1168 -980 -1057 0
1168 -980 1057 0
1168 980 -1057 0
-1169 1168 1120 0
-1169 -1168 -1120 0
1169 -1168 1120 0
1169 1168 -1120 0
-1170 966 0
-1170 24 0
1170 -966 -24 0
-1171 860 878 0
-1171 -860 -878 0
1171 -860 878 0
1171 860 -878 0
-1172 1171 818 0
-1172 -1171 -818 0
1172 -1171 818 0
1172 1171 -818 0
-1173 840 0
-1173 -75 0
1173 -840 75 0
-1174 1173 -840 0
-1174 -1173 840 0
1174 -1173 -840 0
1174 1173 840 0
-1175 987 1064 0
-1175 -987 -1064 0
1175 -987 1064 0
1175 987 -1064 0
-1176 1175 1127 0
-1176 -1175 -1127 0
1176 -1175 1127 0
1176 1175 -1127 0
-1177 -973 0
-1177 -281 0
1177 973 281 0
-1178 973 0
-1178 281 0
1178 -973 -281 0
-1179 -1178 0
-1179 1177 0
1179 1178 -1177 0
-1180 864 880 0
-1180 -864 -880 0
1180 -864 880 0
1180 864 -880 0
-1181 1180 820 0
-1181 -1180 -820 0
1181 -1180 820 0
1181 1180 -820 0
-1182 844 0
-1182 209 0
1182 -844 -209 0
-1183 994 1071 0
-1183 -994 -1071 0
1183 -994 1071 0
1183 994 -1071 0
-1184 1183 914 0
-1184 -1183 -914 0
1184 -1183 914 0
1184 1183 -914 0
-1185 -980 0
-1185 -285 0
1185 980 285 0
-1186 980 0
-1186 285 0
1186 -980 -285 0
-1187 -1186 0
-1187 1185 0
1187 1186 -1185 0
-1188 866 884 0
-1188 -866 -884 0
1188 -866 884 0
1188 866 -884 0
-1189 1188 822 0
-1189 -1188 -822 0
1189 -1188 822 0
1189 1188 -822 0
-1190 846 0
-1190 213 0
1190 -846 -213 0
-1191 1001 1078 0
-1191 -1001 -1078 0
1191 -1001 1078 0
1191 1001 -1078 0
-1192 1191 917 0
-1192 -1191 -917 0
1192 -1191 917 0
1192 1191 -917 0
-1193 987 0
-1193 287 0
1193 -987 -287 0
-1194 870 888 0
-1194 -870 -888 0
1194 -870 888 0
1194 870 -888 0
-1195 1194 826 0
-1195 -1194 -826 0
1195 -1194 826 0
1195 1194 -826 0
-1196 848 0
-1196 215 0
1196 -848 -215 0
-1197 1196 -848 0
-1197 -1196 848 0
1197 -1196 -848 0
1197 1196 848 0
-1198 1008 1085 0
-1198 -1008 -1085 0
1198 -1008 1085 0
1198 1008 -1085 0
-1199 1198 924 0
-1199 -1198 -924 0
1199 -1198 924 0
1199 1198 -924 0
-1200 994 0
-1200 291 0
1200 -994 -291 0
-1201 874 890 0
-1201 -874 -890 0
1201 -874 890 0
1201 874 -890 0
-1202 1201 830 0
-1202 -1201 -830 0
1202 -1201 830 0
1202 1201 -830 0
-1203 852 0
-1203 219 0
1203 -852 -219 0
-1204 1015 1092 0
-1204 -1015 -1092 0
1204 -1015 1092 0
1204 1015 -1092 0
-1205 1204 931 0
-1205 -1204 -931 0
1205 -1204 931 0
1205 1204 -931 0
-1206 -1001 0
-1206 -295 0
1206 1001 295 0
-1207 1001 0
-1207 295 0
1207 -1001 -295 0
-1208 -1207 0
-1208 1206 0
1208 1207 -1206 0
-1209 878 892 0
-1209 -878 -892 0
1209 -878 892 0
1209 878 -892 0
-1210 1209 834 0
-1210 -1209 -834 0
1210 -1209 834 0
1210 1209 -834 0
-1211 856 0
-1211 223 0
1211 -856 -223 0
-1212 1211 -856 0
-1212 -1211 856 0
1212 -1211 -856 0
1212 1211 856 0
-1213 1022 1099 0
-1213 -1022 -1099 0
1213 -1022 1099 0
1213 1022 -1099 0
-1214 1213 938 0
-1214 -1213 -938 0
1214 -1213 938 0
1214 1213 -938 0
-1215 -1008 0
-1215 -297 0
1215 1008 297 0
-1216 1008 0
-1216 297 0
1216 -1008 -297 0
-1217 -1216 0
-1217 1215 0
1217 1216 -1215 0
-1218 880 894 0
-1218 -880 -894 0
1218 -880 894 0
1218 880 -894 0
-1219 1218 836 0
-1219 -1218 -836 0
1219 -1218 836 0
1219 1218 -836 0
-1220 860 0
-1220 227 0
1220 -860 -227 0
-1221 1029 1106 0
-1221 -1029 -1106 0
1221 -1029 1106 0
1221 1029 -1106 0
-1222 1221 945 0
-1222 -1221 -945 0
1222 -1221 945 0
1222 1221 -945 0
-1223 -1015 0
-1223 -299 0
1223 1015 299 0
-1224 1015 0
-1224 299 0
1224 -1015 -299 0
-1225 -1224 0
-1225 1223 0
1225 1224 -1223 0
-1226 884 898 0
-1226 -884 -898 0
1226 -884 898 0
1226 884 -898 0
-1227 1226 840 0
-1227 -1226 -840 0
1227 -1226 840 0
1227 1226 -840 0
-1228 864 0
-1228 231 0
1228 -864 -231 0
-1229 1036 1113 0
-1229 -1036 -1113 0
1229 -1036 1113 0
1229 1036 -1113 0
-1230 1229 952 0
-1230 -1229 -952 0
1230 -1229 952 0
1230 1229 -952 0
-1231 -1022 0
-1231 -303 0
1231 1022 303 0
-1232 1022 0
-1232 303 0
1232 -1022 -303 0
-1233 -1232 0
-1233 1231 0
1233 1232 -1231 0
-1234 888 902 0
-1234 -888 -902 0
1234 -888 902 0
1234 888 -902 0
-1235 1234 844 0
-1235 -1234 -844 0
1235 -1234 844 0
1235 1234 -844 0
-1236 866 0
-1236 235 0
1236 -866 -235 0
-1237 1236 -866 0
-1237 -1236 866 0
1237 -1236 -866 0
1237 1236 866 0
-1238 1043 1120 0
-1238 -1043 -1120 0
1238 -1043 1120 0
1238 1043 -1120 0
-1239 1238 959 0
-1239 -1238 -959 0
1239 -1238 959 0
1239 1238 -959 0
-1240 1029 0
-1240 305 0
1240 -1029 -305 0
-1241 890 906 0
-1241 -890 -906 0
1241 -890 906 0
1241 890 -906 0
-1242 1241 846 0
-1242 -1241 -846 0
1242 -1241 846 0
1242 1241 -846 0
-1243 870 0
-1243 239 0
1243 -870 -239 0
-1244 1243 -870 0
-1244 -1243 870 0
1244 -1243 -870 0
1244 1243 870 0
-1245 1050 1127 0
-1245 -1050 -1127 0
1245 -1050 1127 0
1245 1050 -1127 0
-1246 1245 966 0
-1246 -1245 -966 0
1246 -1245 966 0
1246 1245 -966 0
-1247 1036 0
-1247 307 0
1247 -1036 -307 0
-1248 892 910 0
-1248 -892 -910 0
1248 -892 910 0
1248 892 -910 0
-1249 1248 848 0
-1249 -1248 -848 0
1249 -1248 848 0
1249 1248 -848 0
-1250 874 0
-1250 243 0
1250 -874 -243 0
-1251 1250 -874 0
-1251 -1250 874 0
1251 -1250 -874 0
1251 1250 874 0
-1252 1057 914 0
-1252 -1057 -914 0
1252 -1057 914 0
1252 1057 -914 0
-1253 1252 973 0
-1253 -1252 -973 0
1253 -1252 973 0
1253 1252 -973 0
-1254 -1043 0
-1254 -309 0
1254 1043 309 0
-1255 1043 0
-1255 309 0
1255 -1043 -309 0
-1256 -1255 0
-1256 1254 0
1256 1255 -1254 0
-1257 894 912 0
-1257 -894 -912 0
1257 -894 912 0
1257 894 -912 0
-1258 1257 852 0
-1258 -1257 -852 0
1258 -1257 852 0
1258 1257 -852 0
-1259 878 0
-1259 247 0
1259 -878 -247 0
-1260 1064 917 0
-1260 -1064 -917 0
1260 -1064 917 0
1260 1064 -917 0
-1261 1260 980 0
-1261 -1260 -980 0
1261 -1260 980 0
1261 1260 -980 0
-1262 1050 0
-1262 311 0
1262 -1050 -311 0
-1263 898 341 0
-1263 -898 -341 0
1263 -898 341 0
1263 898 -341 0
-1264 1263 856 0
-1264 -1263 -856 0
1264 -1263 856 0
1264 1263 -856 0
-1265 880 0
-1265 249 0
1265 -880 -249 0
-1266 1071 924 0
-1266 -1071 -924 0
1266 -1071 924 0
1266 1071 -924 0
-1267 1266 987 0
-1267 -1266 -987 0
1267 -1266 987 0
1267 1266 -987 0
-1268 1057 0
-1268 315 0
1268 -1057 -315 0
-1269 902 -521 0
-1269 -902 521 0
1269 -902 -521 0
1269 902 521 0
-1270 1269 860 0
-1270 -1269 -860 0
1270 -1269 860 0
1270 1269 -860 0
-1271 884 0
-1271 251 0
1271 -884 -251 0
-1272 1078 931 0
-1272 -1078 -931 0
1272 -1078 931 0
1272 1078 -931 0
-1273 1272 994 0
-1273 -1272 -994 0
1273 -1272 994 0
1273 1272 -994 0
-1274 1064 0
-1274 317 0
1274 -1064 -317 0
-1275 906 818 0
-1275 -906 -818 0
1275 -906 818 0
1275 906 -818 0
-1276 1275 864 0
-1276 -1275 -864 0
1276 -1275 864 0
1276 1275 -864 0
-1277 888 0
-1277 255 0
1277 -888 -255 0
-1278 1085 938 0
-1278 -1085 -938 0
1278 -1085 938 0
1278 1085 -938 0
-1279 1278 1001 0
-1279 -1278 -1001 0
1279 -1278 1001 0
1279 1278 -1001 0
-1280 1071 0
-1280 319 0
1280 -1071 -319 0
-1281 910 820 0
-1281 -910 -820 0
1281 -910 820 0
1281 910 -820 0
-1282 1281 866 0
-1282 -1281 -866 0
1282 -1281 866 0
1282 1281 -866 0
-1283 890 0
-1283 257 0
1283 -890 -257 0
-1284 1283 -890 0
-1284 -1283 890 0
1284 -1283 -890 0
1284 1283 890 0
-1285 1092 945 0
-1285 -1092 -945 0
1285 -1092 945 0
1285 1092 -945 0
-1286 1285 1008 0
-1286 -1285 -1008 0
1286 -1285 1008 0
1286 1285 -1008 0
-1287 1078 0
-1287 323 0
1287 -1078 -323 0
-1288 912 822 0
-1288 -912 -822 0
1288 -912 822 0
1288 912 -822 0
-1289 1288 870 0
-1289 -1288 -870 0
1289 -1288 870 0
1289 1288 -870 0
-1290 892 0
-1290 261 0
1290 -892 -261 0
-1291 1099 952 0
-1291 -1099 -952 0
1291 -1099 952 0
1291 1099 -952 0
-1292 1291 1015 0
-1292 -1291 -1015 0
1292 -1291 1015 0
1292 1291 -1015 0
-1293 -1085 0
-1293 -325 0
1293 1085 325 0
-1294 1085 0
-1294 325 0
1294 -1085 -325 0
-1295 -1294 0
-1295 1293 0
1295 1294 -1293 0
-1296 341 826 0
-1296 -341 -826 0
1296 -341 826 0
1296 341 -826 0
-1297 1296 874 0
-1297 -1296 -874 0
1297 -1296 874 0
1297 1296 -874 0
-1298 894 0
-1298 263 0
1298 -894 -263 0
-1299 1106 959 0
-1299 -1106 -959 0
1299 -1106 959 0
1299 1106 -959 0
-1300 1299 1022 0
-1300 -1299 -1022 0
1300 -1299 1022 0
1300 1299 -1022 0
-1301 1092 0
-1301 327 0
1301 -1092 -327 0
-1302 -521 830 0
-1302 521 -830 0
1302 521 830 0
1302 -521 -830 0
-1303 1302 878 0
-1303 -1302 -878 0
1303 -1302 878 0
1303 1302 -878 0
-1304 898 0
-1304 267 0
1304 -898 -267 0
-1305 1113 966 0
-1305 -1113 -966 0
1305 -1113 966 0
1305 1113 -966 0
-1306 1305 1029 0
-1306 -1305 -1029 0
1306 -1305 1029 0
1306 1305 -1029 0
-1307 -1099 0
-1307 -329 0
1307 1099 329 0
-1308 1099 0
-1308 329 0
1308 -1099 -329 0
-1309 -1308 0
-1309 1307 0
1309 1308 -1307 0
-1310 818 834 0
-1310 -818 -834 0
1310 -818 834 0
1310 818 -834 0
-1311 1310 880 0
-1311 -1310 -880 0
1311 -1310 880 0
1311 1310 -880 0
-1312 902 0
-1312 269 0
1312 -902 -269 0
-1313 1312 -902 0
-1313 -1312 902 0
1313 -1312 -902 0
1313 1312 902 0
-1314 1120 973 0
-1314 -1120 -973 0
1314 -1120 973 0
1314 1120 -973 0
-1315 1314 1036 0
-1315 -1314 -1036 0
1315 -1314 1036 0
1315 1314 -1036 0
-1316 1106 0
-1316 333 0
1316 -1106 -333 0
-1317 820 836 0
-1317 -820 -836 0
1317 -820 836 0
1317 820 -836 0
-1318 1317 884 0
-1318 -1317 -884 0
1318 -1317 884 0
1318 1317 -884 0
-1319 906 0
-1319 271 0
1319 -906 -271 0
-1320 1127 980 0
-1320 -1127 -980 0
1320 -1127 980 0
1320 1127 -980 0
-1321 1320 1043 0
-1321 -1320 -1043 0
1321 -1320 1043 0
1321 1320 -1043 0
-1322 -1113 0
-1322 -335 0
1322 1113 335 0
-1323 1113 0
-1323 335 0
1323 -1113 -335 0
-1324 -1323 0
-1324 1322 0
1324 1323 -1322 0
-1325 822 840 0
-1325 -822 -840 0
1325 -822 840 0
1325 822 -840 0
-1326 1325 888 0
-1326 -1325 -888 0
1326 -1325 888 0
1326 1325 -888 0
-1327 910 0
-1327 275 0
1327 -910 -275 0
-1328 1327 -910 0
-1328 -1327 910 0
1328 -1327 -910 0
1328 1327 910 0
-1329 914 987 0
-1329 -914 -987 0
1329 -914 987 0
1329 914 -987 0
-1330 1329 1050 0
-1330 -1329 -1050 0
1330 -1329 1050 0
1330 1329 -1050 0
-1331 -1120 0
-1331 -337 0
1331 1120 337 0
-1332 1120 0
-1332 337 0
1332 -1120 -337 0
-1333 -1332 0
-1333 1331 0
1333 1332 -1331 0
-1334 826 844 0
-1334 -826 -844 0
1334 -826 844 0
1334 826 -844 0
-1335 1334 890 0
-1335 -1334 -890 0
1335 -1334 890 0
1335 1334 -890 0
-1336 912 0
-1336 277 0
1336 -912 -277 0
-1337 917 994 0
-1337 -917 -994 0
1337 -917 994 0
1337 917 -994 0
-1338 1337 1057 0
-1338 -1337 -1057 0
1338 -1337 1057 0
1338 1337 -1057 0
-1339 1127 0
-1339 339 0
1339 -1127 -339 0
-1340 830 -822 0
-1340 -830 822 0
1340 -830 -822 0
1340 830 822 0
-1341 -830 0
-1341 -822 0
1341 830 822 0
-1342 -1341 0
-1342 822 0
1342 1341 -822 0
-1343 830 0
-1343 1342 0
1343 -830 -1342 0
-1344 -1167 -1343 0
-1344 1167 1343 0
1344 1167 -1343 0
1344 -1167 1343 0
-1345 1167 0
-1345 -1343 0
1345 -1167 1343 0
-1346 -1345 0
-1346 1343 0
1346 1345 -1343 0
-1347 -1167 0
-1347 1346 0
1347 1167 -1346 0
-1348 -1174 -1347 0
-1348 1174 1347 0
1348 1174 -1347 0
1348 -1174 1347 0
-1349 1174 0
-1349 -1347 0
1349 -1174 1347 0
-1350 -1349 0
-1350 1347 0
1350 1349 -1347 0
-1351 -1174 0
-1351 1350 0
1351 1174 -1350 0
-1352 1182 -1351 0
-1352 -1182 1351 0
1352 -1182 -1351 0
1352 1182 1351 0
-1353 1182 0
-1353 -1351 0
1353 -1182 1351 0
-1354 -1190 1353 0
-1354 1190 -1353 0
1354 1190 1353 0
1354 -1190 -1353 0
-1355 1190 0
-1355 1353 0
1355 -1190 -1353 0
-1356 -1355 0
-1356 -1353 0
1356 1355 1353 0
-1357 -1190 0
-1357 1356 0
1357 1190 -1356 0
-1358 -1197 -1357 0
-1358 1197 1357 0
1358 1197 -1357 0
1358 -1197 1357 0
-1359 1197 0
-1359 -1357 0
1359 -1197 1357 0
-1360 -1359 0
-1360 1357 0
1360 1359 -1357 0
-1361 -1197 0
-1361 1360 0
1361 1197 -1360 0
-1362 -1203 -1361 0
-1362 1203 1361 0
1362 1203 -1361 0
1362 -1203 1361 0
-1363 1203 0
-1363 -1361 0
1363 -1203 1361 0
-1364 -1363 0
-1364 1361 0
1364 1363 -1361 0
-1365 -1203 0
-1365 1364 0
1365 1203 -1364 0
-1366 -1212 -1365 0
-1366 1212 1365 0
1366 1212 -1365 0
1366 -1212 1365 0
-1367 1212 0
-1367 -1365 0
1367 -1212 1365 0
-1368 -1367 0
-1368 1365 0
1368 1367 -1365 0
-1369 -1212 0
-1369 1368 0
1369 1212 -1368 0
-1370 -1220 -1369 0
-1370 1220 1369 0
1370 1220 -1369 0
1370 -1220 1369 0
-1371 1220 0
-1371 -1369 0
1371 -1220 1369 0
-1372 -1371 0
-1372 1369 0
1372 1371 -1369 0
-1373 -1220 0
-1373 1372 0
1373 1220 -1372 0
-1374 1228 -1373 0
-1374 -1228 1373 0
1374 -1228 -1373 0
1374 1228 1373 0
-1375 1228 0
-1375 -1373 0
1375 -1228 1373 0
-1376 1237 1375 0
-1376 -1237 -1375 0
1376 -1237 1375 0
1376 1237 -1375 0
-1377 1237 0
-1377 1375 0
1377 -1237 -1375 0
-1378 1244 1377 0
-1378 -1244 -1377 0
1378 -1244 1377 0
1378 1244 -1377 0
-1379 1244 0
-1379 1377 0
1379 -1244 -1377 0
-1380 1251 1379 0
-1380 -1251 -1379 0
1380 -1251 1379 0
1380 1251 -1379 0
-1381 1251 0
-1381 1379 0
1381 -1251 -1379 0
-1382 1259 1381 0
-1382 -1259 -1381 0
1382 -1259 1381 0
1382 1259 -1381 0
-1383 1259 0
-1383 1381 0
1383 -1259 -1381 0
-1384 1265 1383 0
-1384 -1265 -1383 0
1384 -1265 1383 0
1384 1265 -1383 0
-1385 1265 0
-1385 1383 0
1385 -1265 -1383 0
-1386 -1271 1385 0
-1386 1271 -1385 0
1386 1271 1385 0
1386 -1271 -1385 0
-1387 1271 0
-1387 1385 0
1387 -1271 -1385 0
-1388 -1387 0
-1388 -1385 0
1388 1387 1385 0
-1389 -1271 0
-1389 1388 0
1389 1271 -1388 0
-1390 -1277 -1389 0
-1390 1277 1389 0
1390 1277 -1389 0
1390 -1277 1389 0
-1391 1277 0
-1391 -1389 0
1391 -1277 1389 0
-1392 -1391 0
-1392 1389 0
1392 1391 -1389 0
-1393 -1277 0
-1393 1392 0
1393 1277 -1392 0
-1394 -1284 -1393 0
-1394 1284 1393 0
1394 1284 -1393 0
1394 -1284 1393 0
-1395 1284 0
-1395 -1393 0
1395 -1284 1393 0
-1396 -1395 0
-1396 1393 0
1396 1395 -1393 0
-1397 -1284 0
-1397 1396 0
1397 1284 -1396 0
-1398 1290 -1397 0
-1398 -1290 1397 0
1398 -1290 -1397 0
1398 1290 1397 0
-1399 1290 0
-1399 -1397 0
1399 -1290 1397 0
-1400 -1298 1399 0
-1400 1298 -1399 0
1400 1298 1399 0
1400 -1298 -1399 0
-1401 1298 0
-1401 1399 0
1401 -1298 -1399 0
-1402 -1401 0
-1402 -1399 0
1402 1401 1399 0
-1403 -1298 0
-1403 1402 0
1403 1298 -1402 0
-1404 1304 -1403 0
-1404 -1304 1403 0
1404 -1304 -1403 0
1404 1304 1403 0
-1405 1304 0
-1405 -1403 0
1405 -1304 1403 0
-1406 -1313 1405 0
-1406 1313 -1405 0
1406 1313 1405 0
1406 -1313 -1405 0
-1407 1313 0
-1407 1405 0
1407 -1313 -1405 0
-1408 -1407 0
-1408 -1405 0
1408 1407 1405 0
-1409 -1313 0
-1409 1408 0
1409 1313 -1408 0
-1410 -1319 -1409 0
-1410 1319 1409 0
1410 1319 -1409 0
1410 -1319 1409 0
-1411 1319 0
-1411 -1409 0
1411 -1319 1409 0
-1412 -1411 0
-1412 1409 0
1412 1411 -1409 0
-1413 -1319 0
-1413 1412 0
1413 1319 -1412 0
-1414 1328 -1413 0
-1414 -1328 1413 0
1414 -1328 -1413 0
1414 1328 1413 0
-1415 1328 0
-1415 -1413 0
1415 -1328 1413 0
-1416 -1336 1415 0
-1416 1336 -1415 0
1416 1336 1415 0
1416 -1336 -1415 0
-1417 1336 0
-1417 1415 0
1417 -1336 -1415 0
-1418 -1417 0
-1418 -1415 0
1418 1417 1415 0
-1419 -1336 0
-1419 1418 0
1419 1336 -1418 0
-1420 -1146 1142 0
-1420 1146 -1142 0
1420 1146 1142 0
1420 -1146 -1142 0
-1421 1146 0
-1421 1142 0
1421 -1146 -1142 0
-1422 -1142 0
-1422 -1421 0
1422 1142 1421 0
-1423 -1146 0
-1423 1422 0
1423 1146 -1422 0
-1424 1150 -1423 0
-1424 -1150 1423 0
1424 -1150 -1423 0
1424 1150 1423 0
-1425 1150 0
-1425 -1423 0
1425 -1150 1423 0
-1426 1154 1425 0
-1426 -1154 -1425 0
1426 -1154 1425 0
1426 1154 -1425 0
-1427 1154 0
-1427 1425 0
1427 -1154 -1425 0
-1428 1158 1427 0
-1428 -1158 -1427 0
1428 -1158 1427 0
1428 1158 -1427 0
-1429 1158 0
-1429 1427 0
1429 -1158 -1427 0
-1430 -1162 1429 0
-1430 1162 -1429 0
1430 1162 1429 0
1430 -1162 -1429 0
-1431 1162 0
-1431 1429 0
1431 -1162 -1429 0
-1432 -1429 0
-1432 -1431 0
1432 1429 1431 0
-1433 -1162 0
-1433 1432 0
1433 1162 -1432 0
-1434 1166 -1433 0
-1434 -1166 1433 0
1434 -1166 -1433 0
1434 1166 1433 0
-1435 1166 0
-1435 -1433 0
1435 -1166 1433 0
-1436 1172 1435 0
-1436 -1172 -1435 0
1436 -1172 1435 0
1436 1172 -1435 0
-1437 1172 0
-1437 1435 0
1437 -1172 -1435 0
-1438 1181 1437 0
-1438 -1181 -1437 0
1438 -1181 1437 0
1438 1181 -1437 0
-1439 1181 0
-1439 1437 0
1439 -1181 -1437 0
-1440 -1189 1439 0
-1440 1189 -1439 0
1440 1189 1439 0
1440 -1189 -1439 0
-1441 1189 0
-1441 1439 0
1441 -1189 -1439 0
-1442 -1439 0
-1442 -1441 0
1442 1439 1441 0
-1443 -1189 0
-1443 1442 0
1443 1189 -1442 0
-1444 1195 -1443 0
-1444 -1195 1443 0
1444 -1195 -1443 0
1444 1195 1443 0
-1445 1195 0
-1445 -1443 0
1445 -1195 1443 0
-1446 -1202 1445 0
-1446 1202 -1445 0
1446 1202 1445 0
1446 -1202 -1445 0
-1447 1202 0
-1447 1445 0
1447 -1202 -1445 0
-1448 -1445 0
-1448 -1447 0
1448 1445 1447 0
-1449 -1202 0
-1449 1448 0
1449 1202 -1448 0
-1450 -1210 -1449 0
-1450 1210 1449 0
1450 1210 -1449 0
1450 -1210 1449 0
-1451 1210 0
-1451 -1449 0
1451 -1210 1449 0
-1452 1449 0
-1452 -1451 0
1452 -1449 1451 0
-1453 -1210 0
-1453 1452 0
1453 1210 -1452 0
-1454 1219 -1453 0
-1454 -1219 1453 0
1454 -1219 -1453 0
1454 1219 1453 0
-1455 1219 0
-1455 -1453 0
1455 -1219 1453 0
-1456 -1227 1455 0
-1456 1227 -1455 0
1456 1227 1455 0
1456 -1227 -1455 0
-1457 1227 0
-1457 1455 0
1457 -1227 -1455 0
-1458 -1455 0
-1458 -1457 0
1458 1455 1457 0
-1459 -1227 0
-1459 1458 0
1459 1227 -1458 0
-1460 1235 -1459 0
-1460 -1235 1459 0
1460 -1235 -1459 0
1460 1235 1459 0
-1461 1235 0
-1461 -1459 0
1461 -1235 1459 0
-1462 -1242 1461 0
-1462 1242 -1461 0
1462 1242 1461 0
1462 -1242 -1461 0
-1463 1242 0
-1463 1461 0
1463 -1242 -1461 0
-1464 -1461 0
-1464 -1463 0
1464 1461 1463 0
-1465 -1242 0
-1465 1464 0
1465 1242 -1464 0
-1466 1249 -1465 0
-1466 -1249 1465 0
1466 -1249 -1465 0
1466 1249 1465 0
-1467 1249 0
-1467 -1465 0
1467 -1249 1465 0
-1468 1258 1467 0
-1468 -1258 -1467 0
1468 -1258 1467 0
1468 1258 -1467 0
-1469 1258 0
-1469 1467 0
1469 -1258 -1467 0
-1470 1264 1469 0
-1470 -1264 -1469 0
1470 -1264 1469 0
1470 1264 -1469 0
-1471 1264 0
-1471 1469 0
1471 -1264 -1469 0
-1472 1270 1471 0
-1472 -1270 -1471 0
1472 -1270 1471 0
1472 1270 -1471 0
-1473 1270 0
-1473 1471 0
1473 -1270 -1471 0
-1474 1276 1473 0
-1474 -1276 -1473 0
1474 -1276 1473 0
1474 1276 -1473 0
-1475 1276 0
-1475 1473 0
1475 -1276 -1473 0
-1476 -1282 1475 0
-1476 1282 -1475 0
1476 1282 1475 0
1476 -1282 -1475 0
-1477 1282 0
-1477 1475 0
1477 -1282 -1475 0
-1478 -1475 0
-1478 -1477 0
1478 1475 1477 0
-1479 -1282 0
-1479 1478 0
1479 1282 -1478 0
-1480 -1289 -1479 0
-1480 1289 1479 0
1480 1289 -1479 0
1480 -1289 1479 0
-1481 1289 0
-1481 -1479 0
1481 -1289 1479 0
-1482 1479 0
-1482 -1481 0
1482 -1479 1481 0
-1483 -1289 0
-1483 1482 0
1483 1289 -1482 0
-1484 1297 -1483 0
-1484 -1297 1483 0
1484 -1297 -1483 0
1484 1297 1483 0
-1485 1297 0
-1485 -1483 0
1485 -1297 1483 0
-1486 -1303 1485 0
-1486 1303 -1485 0
1486 1303 1485 0
1486 -1303 -1485 0
-1487 1303 0
-1487 1485 0
1487 -1303 -1485 0
-1488 -1485 0
-1488 -1487 0
1488 1485 1487 0
-1489 -1303 0
-1489 1488 0
1489 1303 -1488 0
-1490 -1311 -1489 0
-1490 1311 1489 0
1490 1311 -1489 0
1490 -1311 1489 0
-1491 1311 0
-1491 -1489 0
1491 -1311 1489 0
-1492 1489 0
-1492 -1491 0
1492 -1489 1491 0
-1493 -1311 0
-1493 1492 0
1493 1311 -1492 0
-1494 1318 -1493 0
-1494 -1318 1493 0
1494 -1318 -1493 0
1494 1318 1493 0
-1495 1318 0
-1495 -1493 0
1495 -1318 1493 0
-1496 1326 1495 0
-1496 -1326 -1495 0
1496 -1326 1495 0
1496 1326 -1495 0
-1497 1326 0
-1497 1495 0
1497 -1326 -1495 0
-1498 -1335 1497 0
-1498 1335 -1497 0
1498 1335 1497 0
1498 -1335 -1497 0
-1499 1335 0
-1499 1497 0
1499 -1335 -1497 0
-1500 -1497 0
-1500 -1499 0
1500 1497 1499 0
-1501 -1335 0
-1501 1500 0
1501 1335 -1500 0
-1502 1134 341 0
-1502 -1134 -341 0
1502 -1134 341 0
1502 1134 -341 0
-1503 1134 0
-1503 341 0
1503 -1134 -341 0
-1504 1138 -341 0
-1504 -1138 341 0
1504 -1138 -341 0
1504 1138 341 0
-1505 1504 1503 0
-1505 -1504 -1503 0
1505 -1504 1503 0
1505 1504 -1503 0
-1506 -341 0
-1506 1503 0
1506 341 -1503 0
-1507 1138 0
-1507 1503 0
1507 -1138 -1503 0
-1508 -1507 0
-1508 -1506 0
1508 1507 1506 0
-1509 1138 0
-1509 -341 0
1509 -1138 341 0
-1510 -1509 0
-1510 1508 0
1510 1509 -1508 0
-1511 -1142 -818 0
-1511 1142 818 0
1511 1142 -818 0
1511 -1142 818 0
-1512 1511 -1510 0
-1512 -1511 1510 0
1512 -1511 -1510 0
1512 1511 1510 0
-1513 -818 0
-1513 -1510 0
1513 818 1510 0
-1514 -1142 0
-1514 -1510 0
1514 1142 1510 0
-1515 -1514 0
-1515 -1513 0
1515 1514 1513 0
-1516 -1142 0
-1516 -818 0
1516 1142 818 0
-1517 -1516 0
-1517 1515 0
1517 1516 -1515 0
-1518 1420 -820 0
-1518 -1420 820 0
1518 -1420 -820 0
1518 1420 820 0
-1519 1518 -1517 0
-1519 -1518 1517 0
1519 -1518 -1517 0
1519 1518 1517 0
-1520 -820 0
-1520 -1517 0
1520 820 1517 0
-1521 1420 0
-1521 -1517 0
1521 -1420 1517 0
-1522 -1521 0
-1522 -1520 0
1522 1521 1520 0
-1523 1420 0
-1523 -820 0
1523 -1420 820 0
-1524 -1523 0
-1524 1522 0
1524 1523 -1522 0
-1525 1424 822 0
-1525 -1424 -822 0
1525 -1424 822 0
1525 1424 -822 0
-1526 1525 -1524 0
-1526 -1525 1524 0
1526 -1525 -1524 0
1526 1525 1524 0
-1527 822 0
-1527 -1524 0
1527 -822 1524 0
-1528 1424 0
-1528 -1524 0
1528 -1424 1524 0
-1529 -1528 0
-1529 -1527 0
1529 1528 1527 0
-1530 1424 0
-1530 822 0
1530 -1424 -822 0
-1531 -1530 0
-1531 1529 0
1531 1530 -1529 0
-1532 1426 822 0
-1532 -1426 -822 0
1532 -1426 822 0
1532 1426 -822 0
-1533 1532 -1531 0
-1533 -1532 1531 0
1533 -1532 -1531 0
1533 1532 1531 0
-1534 822 0
-1534 -1531 0
1534 -822 1531 0
-1535 1426 0
-1535 -1531 0
1535 -1426 1531 0
-1536 -1535 0
-1536 -1534 0
1536 1535 1534 0
-1537 1426 0
-1537 822 0
1537 -1426 -822 0
-1538 -1537 0
-1538 1536 0
1538 1537 -1536 0
-1539 1428 1340 0
-1539 -1428 -1340 0
1539 -1428 1340 0
1539 1428 -1340 0
-1540 1539 -1538 0
-1540 -1539 1538 0
1540 -1539 -1538 0
1540 1539 1538 0
-1541 1340 0
-1541 -1538 0
1541 -1340 1538 0
-1542 1428 0
-1542 -1538 0
1542 -1428 1538 0
-1543 -1542 0
-1543 -1541 0
1543 1542 1541 0
-1544 1428 0
-1544 1340 0
1544 -1428 -1340 0
-1545 -1544 0
-1545 1543 0
1545 1544 -1543 0
-1546 1430 1343 0
-1546 -1430 -1343 0
1546 -1430 1343 0
1546 1430 -1343 0
-1547 1546 -1545 0
-1547 -1546 1545 0
1547 -1546 -1545 0
1547 1546 1545 0
-1548 1343 0
-1548 -1545 0
1548 -1343 1545 0
-1549 1430 0
-1549 -1545 0
1549 -1430 1545 0
-1550 -1549 0
-1550 -1548 0
1550 1549 1548 0
-1551 1430 0
-1551 1343 0
1551 -1430 -1343 0
-1552 -1551 0
-1552 1550 0
1552 1551 -1550 0
-1553 1434 1344 0
-1553 -1434 -1344 0
1553 -1434 1344 0
1553 1434 -1344 0
-1554 1553 -1552 0
-1554 -1553 1552 0
1554 -1553 -1552 0
1554 1553 1552 0
-1555 1344 0
-1555 -1552 0
1555 -1344 1552 0
-1556 1434 0
-1556 -1552 0
1556 -1434 1552 0
-1557 -1556 0
-1557 -1555 0
1557 1556 1555 0
-1558 1434 0
-1558 1344 0
1558 -1434 -1344 0
-1559 -1558 0
-1559 1557 0
1559 1558 -1557 0
-1560 1436 1348 0
-1560 -1436 -1348 0
1560 -1436 1348 0
1560 1436 -1348 0
-1561 1560 -1559 0
-1561 -1560 1559 0
1561 -1560 -1559 0
1561 1560 1559 0
-1562 1348 0
-1562 -1559 0
1562 -1348 1559 0
-1563 1436 0
-1563 -1559 0
1563 -1436 1559 0
-1564 -1563 0
-1564 -1562 0
1564 1563 1562 0
-1565 1436 0
-1565 1348 0
1565 -1436 -1348 0
-1566 -1565 0
-1566 1564 0
1566 1565 -1564 0
-1567 1438 1352 0
-1567 -1438 -1352 0
1567 -1438 1352 0
1567 1438 -1352 0
-1568 1567 -1566 0
-1568 -1567 1566 0
1568 -1567 -1566 0
1568 1567 1566 0
-1569 1352 0
-1569 -1566 0
1569 -1352 1566 0
-1570 1438 0
-1570 -1566 0
1570 -1438 1566 0
-1571 -1570 0
-1571 -1569 0
1571 1570 1569 0
-1572 1438 0
-1572 1352 0
1572 -1438 -1352 0
-1573 -1572 0
-1573 1571 0
1573 1572 -1571 0
-1574 1440 1354 0
-1574 -1440 -1354 0
1574 -1440 1354 0
1574 1440 -1354 0
-1575 1574 -1573 0
-1575 -1574 1573 0
1575 -1574 -1573 0
1575 1574 1573 0
-1576 1354 0
-1576 -1573 0
1576 -1354 1573 0
-1577 1440 0
-1577 -1573 0
1577 -1440 1573 0
-1578 -1577 0
-1578 -1576 0
1578 1577 1576 0
-1579 1440 0
-1579 1354 0
1579 -1440 -1354 0
-1580 -1579 0
-1580 1578 0
1580 1579 -1578 0
-1581 1444 1358 0
-1581 -1444 -1358 0
1581 -1444 1358 0
1581 1444 -1358 0
-1582 1581 -1580 0
-1582 -1581 1580 0
1582 -1581 -1580 0
1582 1581 1580 0
-1583 1358 0
-1583 -1580 0
1583 -1358 1580 0
-1584 1444 0
-1584 -1580 0
1584 -1444 1580 0
-1585 -1584 0
-1585 -1583 0
1585 1584 1583 0
-1586 1444 0
-1586 1358 0
1586 -1444 -1358 0
-1587 -1586 0
-1587 1585 0
1587 1586 -1585 0
-1588 1446 1362 0
-1588 -1446 -1362 0
1588 -1446 1362 0
1588 1446 -1362 0
-1589 1588 -1587 0
-1589 -1588 1587 0
1589 -1588 -1587 0
1589 1588 1587 0
-1590 1362 0
-1590 -1587 0
1590 -1362 1587 0
-1591 1446 0
-1591 -1587 0
1591 -1446 1587 0
-1592 -1591 0
-1592 -1590 0
1592 1591 1590 0
-1593 1446 0
-1593 1362 0
1593 -1446 -1362 0
-1594 -1593 0
-1594 1592 0
1594 1593 -1592 0
-1595 1450 1366 0
-1595 -1450 -1366 0
1595 -1450 1366 0
1595 1450 -1366 0
-1596 1595 -1594 0
-1596 -1595 1594 0
1596 -1595 -1594 0
1596 1595 1594 0
-1597 1366 0
-1597 -1594 0
1597 -1366 1594 0
-1598 1450 0
-1598 -1594 0
1598 -1450 1594 0
-1599 -1598 0
-1599 -1597 0
1599 1598 1597 0
-1600 1450 0
-1600 1366 0
1600 -1450 -1366 0
-1601 -1600 0
-1601 1599 0
1601 1600 -1599 0
-1602 1454 1370 0
-1602 -1454 -1370 0
1602 -1454 1370 0
1602 1454 -1370 0
-1603 1602 -1601 0
-1603 -1602 1601 0
1603 -1602 -1601 0
1603 1602 1601 0
-1604 1370 0
-1604 -1601 0
1604 -1370 1601 0
-1605 1454 0
-1605 -1601 0
1605 -1454 1601 0
-1606 -1605 0
-1606 -1604 0
1606 1605 1604 0
-1607 1454 0
-1607 1370 0
1607 -1454 -1370 0
-1608 -1607 0
-1608 1606 0
1608 1607 -1606 0
-1609 1456 1374 0
-1609 -1456 -1374 0
1609 -1456 1374 0
1609 1456 -1374 0
-1610 1609 -1608 0
-1610 -1609 1608 0
1610 -1609 -1608 0
1610 1609 1608 0
-1611 1374 0
-1611 -1608 0
1611 -1374 1608 0
-1612 1456 0
-1612 -1608 0
1612 -1456 1608 0
-1613 -1612 0
-1613 -1611 0
1613 1612 1611 0
-1614 1456 0
-1614 1374 0
1614 -1456 -1374 0
-1615 -1614 0
-1615 1613 0
1615 1614 -1613 0
-1616 1460 1376 0
-1616 -1460 -1376 0
1616 -1460 1376 0
1616 1460 -1376 0
-1617 1616 -1615 0
-1617 -1616 1615 0
1617 -1616 -1615 0
1617 1616 1615 0
-1618 1376 0
-1618 -1615 0
1618 -1376 1615 0
-1619 1460 0
-1619 -1615 0
1619 -1460 1615 0
-1620 -1619 0
-1620 -1618 0
1620 1619 1618 0
-1621 1460 0
-1621 1376 0
1621 -1460 -1376 0
-1622 -1621 0
-1622 1620 0
1622 1621 -1620 0
-1623 1462 1378 0
-1623 -1462 -1378 0
1623 -1462 1378 0
1623 1462 -1378 0
-1624 1623 -1622 0
-1624 -1623 1622 0
1624 -1623 -1622 0
1624 1623 1622 0
-1625 1378 0
-1625 -1622 0
1625 -1378 1622 0
-1626 1462 0
-1626 -1622 0
1626 -1462 1622 0
-1627 -1626 0
-1627 -1625 0
1627 1626 1625 0
-1628 1462 0
-1628 1378 0
1628 -1462 -1378 0
-1629 -1628 0
-1629 1627 0
1629 1628 -1627 0
-1630 1466 1380 0
-1630 -1466 -1380 0
1630 -1466 1380 0
1630 1466 -1380 0
-1631 1630 -1629 0
-1631 -1630 1629 0
1631 -1630 -1629 0
1631 1630 1629 0
-1632 1380 0
-1632 -1629 0
1632 -1380 1629 0
-1633 1466 0
-1633 -1629 0
1633 -1466 1629 0
-1634 -1633 0
-1634 -1632 0
1634 1633 1632 0
-1635 1466 0
-1635 1380 0
1635 -1466 -1380 0
-1636 -1635 0
-1636 1634 0
1636 1635 -1634 0
-1637 1468 1382 0
-1637 -1468 -1382 0
1637 -1468 1382 0
1637 1468 -1382 0
-1638 1637 -1636 0
-1638 -1637 1636 0
1638 -1637 -1636 0
1638 1637 1636 0
-1639 1382 0
-1639 -1636 0
1639 -1382 1636 0
-1640 1468 0
-1640 -1636 0
1640 -1468 1636 0
-1641 -1640 0
-1641 -1639 0
1641 1640 1639 0
-1642 1468 0
-1642 1382 0
1642 -1468 -1382 0
-1643 -1642 0
-1643 1641 0
1643 1642 -1641 0
-1644 1470 1384 0
-1644 -1470 -1384 0
1644 -1470 1384 0
1644 1470 -1384 0
-1645 1644 -1643 0
-1645 -1644 1643 0
1645 -1644 -1643 0
1645 1644 1643 0
-1646 1384 0
-1646 -1643 0
1646 -1384 1643 0
-1647 1470 0
-1647 -1643 0
1647 -1470 1643 0
-1648 -1647 0
-1648 -1646 0
1648 1647 1646 0
-1649 1470 0
-1649 1384 0
1649 -1470 -1384 0
-1650 -1649 0
-1650 1648 0
1650 1649 -1648 0
-1651 1472 1386 0
-1651 -1472 -1386 0
1651 -1472 1386 0
1651 1472 -1386 0
-1652 1651 -1650 0
-1652 -1651 1650 0
1652 -1651 -1650 0
1652 1651 1650 0
-1653 1386 0
-1653 -1650 0
1653 -1386 1650 0
-1654 1472 0
-1654 -1650 0
1654 -1472 1650 0
-1655 -1654 0
-1655 -1653 0
1655 1654 1653 0
-1656 1472 0
-1656 1386 0
1656 -1472 -1386 0
-1657 -1656 0
-1657 1655 0
1657 1656 -1655 0
-1658 1474 1390 0
-1658 -1474 -1390 0
1658 -1474 1390 0
1658 1474 -1390 0
-1659 1658 -1657 0
-1659 -1658 1657 0
1659 -1658 -1657 0
1659 1658 1657 0
-1660 1390 0
-1660 -1657 0
1660 -1390 1657 0
-1661 1474 0
-1661 -1657 0
1661 -1474 1657 0
-1662 -1661 0
-1662 -1660 0
1662 1661 1660 0
-1663 1474 0
-1663 1390 0
1663 -1474 -1390 0
-1664 -1663 0
-1664 1662 0
1664 1663 -1662 0
-1665 1476 1394 0
-1665 -1476 -1394 0
1665 -1476 1394 0
1665 1476 -1394 0
-1666 1665 -1664 0
-1666 -1665 1664 0
1666 -1665 -1664 0
1666 1665 1664 0
-1667 1394 0
-1667 -1664 0
1667 -1394 1664 0
-1668 1476 0
-1668 -1664 0
1668 -1476 1664 0
-1669 -1668 0
-1669 -1667 0
1669 1668 1667 0
-1670 1476 0
-1670 1394 0
1670 -1476 -1394 0
-1671 -1670 0
-1671 1669 0
1671 1670 -1669 0
-1672 1480 1398 0
-1672 -1480 -1398 0
1672 -1480 1398 0
1672 1480 -1398 0
-1673 1672 -1671 0
-1673 -1672 1671 0
1673 -1672 -1671 0
1673 1672 1671 0
-1674 1398 0
-1674 -1671 0
1674 -1398 1671 0
-1675 1480 0
-1675 -1671 0
1675 -1480 1671 0
-1676 -1675 0
-1676 -1674 0
1676 1675 1674 0
-1677 1480 0
-1677 1398 0
1677 -1480 -1398 0
-1678 -1677 0
-1678 1676 0
1678 1677 -1676 0
-1679 1484 1400 0
-1679 -1484 -1400 0
1679 -1484 1400 0
1679 1484 -1400 0
-1680 1679 -1678 0
-1680 -1679 1678 0
1680 -1679 -1678 0
1680 1679 1678 0
-1681 1400 0
-1681 -1678 0
1681 -1400 1678 0
-1682 1484 0
-1682 -1678 0
1682 -1484 1678 0
-1683 -1682 0
-1683 -1681 0
1683 1682 1681 0
-1684 1484 0
-1684 1400 0
1684 -1484 -1400 0
-1685 -1684 0
-1685 1683 0
1685 1684 -1683 0
-1686 1486 1404 0
-1686 -1486 -1404 0
1686 -1486 1404 0
1686 1486 -1404 0
-1687 1686 -1685 0
-1687 -1686 1685 0
1687 -1686 -1685 0
1687 1686 1685 0
-1688 1404 0
-1688 -1685 0
1688 -1404 1685 0
-1689 1486 0
-1689 -1685 0
1689 -1486 1685 0
-1690 -1689 0
-1690 -1688 0
1690 1689 1688 0
-1691 1486 0
-1691 1404 0
1691 -1486 -1404 0
-1692 -1691 0
-1692 1690 0
1692 1691 -1690 0
-1693 1490 1406 0
-1693 -1490 -1406 0
1693 -1490 1406 0
1693 1490 -1406 0
-1694 1693 -1692 0
-1694 -1693 1692 0
1694 -1693 -1692 0
1694 1693 1692 0
-1695 1406 0
-1695 -1692 0
1695 -1406 1692 0
-1696 1490 0
-1696 -1692 0
1696 -1490 1692 0
-1697 -1696 0
-1697 -1695 0
1697 1696 1695 0
-1698 1490 0
-1698 1406 0
1698 -1490 -1406 0
-1699 -1698 0
-1699 1697 0
1699 1698 -1697 0
-1700 1494 1410 0
-1700 -1494 -1410 0
1700 -1494 1410 0
1700 1494 -1410 0
-1701 1700 -1699 0
-1701 -1700 1699 0
1701 -1700 -1699 0
1701 1700 1699 0
-1702 1410 0
-1702 -1699 0
1702 -1410 1699 0
-1703 1494 0
-1703 -1699 0
1703 -1494 1699 0
-1704 -1703 0
-1704 -1702 0
1704 1703 1702 0
-1705 1494 0
-1705 1410 0
1705 -1494 -1410 0
-1706 -1705 0
-1706 1704 0
1706 1705 -1704 0
-1707 1496 1414 0
-1707 -1496 -1414 0
1707 -1496 1414 0
1707 1496 -1414 0
-1708 1707 -1706 0
-1708 -1707 1706 0
1708 -1707 -1706 0
1708 1707 1706 0
-1709 1414 0
-1709 -1706 0
1709 -1414 1706 0
-1710 1496 0
-1710 -1706 0
1710 -1496 1706 0
-1711 -1710 0
-1711 -1709 0
1711 1710 1709 0
-1712 1496 0
-1712 1414 0
1712 -1496 -1414 0
-1713 -1712 0
-1713 1711 0
1713 1712 -1711 0
-1714 1498 1416 0
-1714 -1498 -1416 0
1714 -1498 1416 0
1714 1498 -1416 0
-1715 1714 -1713 0
-1715 -1714 1713 0
1715 -1714 -1713 0
1715 1714 1713 0
-1716 1416 0
-1716 -1713 0
1716 -1416 1713 0
-1717 1498 0
-1717 -1713 0
1717 -1498 1713 0
-1718 -1717 0
-1718 -1716 0
1718 1717 1716 0
-1719 1498 0
-1719 1416 0
1719 -1498 -1416 0
-1720 -1719 0
-1720 1718 0
1720 1719 -1718 0
-1721 1140 917 0
-1721 -1140 -917 0
1721 -1140 917 0
1721 1140 -917 0
-1722 1721 1136 0
-1722 -1721 -1136 0
1722 -1721 1136 0
1722 1721 -1136 0
-1723 917 0
-1723 1136 0
1723 -917 -1136 0
-1724 1140 0
-1724 1136 0
1724 -1140 -1136 0
-1725 -1724 0
-1725 -1723 0
1725 1724 1723 0
-1726 1140 0
-1726 917 0
1726 -1140 -917 0
-1727 -1726 0
-1727 1725 0
1727 1726 -1725 0
-1728 -1144 -1727 0
-1728 1144 1727 0
1728 1144 -1727 0
1728 -1144 1727 0
-1729 1144 0
-1729 -1727 0
1729 -1144 1727 0
-1730 -1729 0
-1730 1727 0
1730 1729 -1727 0
-1731 -1144 0
-1731 1730 0
1731 1144 -1730 0
-1732 1148 931 0
-1732 -1148 -931 0
1732 -1148 931 0
1732 1148 -931 0
-1733 1732 -1731 0
-1733 -1732 1731 0
1733 -1732 -1731 0
1733 1732 1731 0
-1734 931 0
-1734 -1731 0
1734 -931 1731 0
-1735 1148 0
-1735 -1731 0
1735 -1148 1731 0
-1736 -1735 0
-1736 -1734 0
1736 1735 1734 0
-1737 1148 0
-1737 931 0
1737 -1148 -931 0
-1738 -1737 0
-1738 1736 0
1738 1737 -1736 0
-1739 1152 -1738 0
-1739 -1152 1738 0
1739 -1152 -1738 0
1739 1152 1738 0
-1740 1152 0
-1740 -1738 0
1740 -1152 1738 0
-1741 1156 945 0
-1741 -1156 -945 0
1741 -1156 945 0
1741 1156 -945 0
-1742 1741 1740 0
-1742 -1741 -1740 0
1742 -1741 1740 0
1742 1741 -1740 0
-1743 945 0
-1743 1740 0
1743 -945 -1740 0
-1744 1156 0
-1744 1740 0
1744 -1156 -1740 0
-1745 -1744 0
-1745 -1743 0
1745 1744 1743 0
-1746 1156 0
-1746 945 0
1746 -1156 -945 0
-1747 -1746 0
-1747 1745 0
1747 1746 -1745 0
-1748 -1160 -1747 0
-1748 1160 1747 0
1748 1160 -1747 0
1748 -1160 1747 0
-1749 1160 0
-1749 -1747 0
1749 -1160 1747 0
-1750 -1749 0
-1750 1747 0
1750 1749 -1747 0
-1751 -1160 0
-1751 1750 0
1751 1160 -1750 0
-1752 1164 959 0
-1752 -1164 -959 0
1752 -1164 959 0
1752 1164 -959 0
-1753 1752 -1751 0
-1753 -1752 1751 0
1753 -1752 -1751 0
1753 1752 1751 0
-1754 959 0
-1754 -1751 0
1754 -959 1751 0
-1755 1164 0
-1755 -1751 0
1755 -1164 1751 0
-1756 -1755 0
-1756 -1754 0
1756 1755 1754 0
-1757 1164 0
-1757 959 0
1757 -1164 -959 0
-1758 -1757 0
-1758 1756 0
1758 1757 -1756 0
-1759 1169 1170 0
-1759 -1169 -1170 0
1759 -1169 1170 0
1759 1169 -1170 0
-1760 1759 -1758 0
-1760 -1759 1758 0
1760 -1759 -1758 0
1760 1759 1758 0
-1761 1170 0
-1761 -1758 0
1761 -1170 1758 0
-1762 1169 0
-1762 -1758 0
1762 -1169 1758 0
-1763 -1762 0
-1763 -1761 0
1763 1762 1761 0
-1764 1169 0
-1764 1170 0
1764 -1169 -1170 0
-1765 -1764 0
-1765 1763 0
1765 1764 -1763 0
-1766 1176 -1179 0
-1766 -1176 1179 0
1766 -1176 -1179 0
1766 1176 1179 0
-1767 1766 -1765 0
-1767 -1766 1765 0
1767 -1766 -1765 0
1767 1766 1765 0
-1768 -1179 0
-1768 -1765 0
1768 1179 1765 0
-1769 1176 0
-1769 -1765 0
1769 -1176 1765 0
-1770 -1769 0
-1770 -1768 0
1770 1769 1768 0
-1771 1176 0
-1771 -1179 0
1771 -1176 1179 0
-1772 -1771 0
-1772 1770 0
1772 1771 -1770 0
-1773 1184 -1187 0
-1773 -1184 1187 0
1773 -1184 -1187 0
1773 1184 1187 0
-1774 1773 -1772 0
-1774 -1773 1772 0
1774 -1773 -1772 0
1774 1773 1772 0
-1775 -1187 0
-1775 -1772 0
1775 1187 1772 0
-1776 1184 0
-1776 -1772 0
1776 -1184 1772 0
-1777 -1776 0
-1777 -1775 0
1777 1776 1775 0
-1778 1184 0
-1778 -1187 0
1778 -1184 1187 0
-1779 -1778 0
-1779 1777 0
1779 1778 -1777 0
-1780 1192 1193 0
-1780 -1192 -1193 0
1780 -1192 1193 0
1780 1192 -1193 0
-1781 1780 -1779 0
-1781 -1780 1779 0
1781 -1780 -1779 0
1781 1780 1779 0
-1782 1193 0
-1782 -1779 0
1782 -1193 1779 0
-1783 1192 0
-1783 -1779 0
1783 -1192 1779 0
-1784 -1783 0
-1784 -1782 0
1784 1783 1782 0
-1785 1192 0
-1785 1193 0
1785 -1192 -1193 0
-1786 -1785 0
-1786 1784 0
1786 1785 -1784 0
-1787 1199 1200 0
-1787 -1199 -1200 0
1787 -1199 1200 0
1787 1199 -1200 0
-1788 1787 -1786 0
-1788 -1787 1786 0
1788 -1787 -1786 0
1788 1787 1786 0
-1789 1200 0
-1789 -1786 0
1789 -1200 1786 0
-1790 1199 0
-1790 -1786 0
1790 -1199 1786 0
-1791 -1790 0
-1791 -1789 0
1791 1790 1789 0
-1792 1199 0
-1792 1200 0
1792 -1199 -1200 0
-1793 -1792 0
-1793 1791 0
1793 1792 -1791 0
-1794 1205 -1208 0
-1794 -1205 1208 0
1794 -1205 -1208 0
1794 1205 1208 0
-1795 1794 -1793 0
-1795 -1794 1793 0
1795 -1794 -1793 0
1795 1794 1793 0
-1796 -1208 0
-1796 -1793 0
1796 1208 1793 0
-1797 1205 0
-1797 -1793 0
1797 -1205 1793 0
-1798 -1797 0
-1798 -1796 0
1798 1797 1796 0
-1799 1205 0
-1799 -1208 0
1799 -1205 1208 0
-1800 -1799 0
-1800 1798 0
1800 1799 -1798 0
-1801 1214 -1217 0
-1801 -1214 1217 0
1801 -1214 -1217 0
1801 1214 1217 0
-1802 1801 -1800 0
-1802 -1801 1800 0
1802 -1801 -1800 0
1802 1801 1800 0
-1803 -1217 0
-1803 -1800 0
1803 1217 1800 0
-1804 1214 0
-1804 -1800 0
1804 -1214 1800 0
-1805 -1804 0
-1805 -1803 0
1805 1804 1803 0
-1806 1214 0
-1806 -1217 0
1806 -1214 1217 0
-1807 -1806 0
-1807 1805 0
1807 1806 -1805 0
-1808 1222 -1225 0
-1808 -1222 1225 0
1808 -1222 -1225 0
1808 1222 1225 0
-1809 1808 -1807 0
-1809 -1808 1807 0
1809 -1808 -1807 0
1809 1808 1807 0
-1810 -1225 0
-1810 -1807 0
1810 1225 1807 0
-1811 1222 0
-1811 -1807 0
1811 -1222 1807 0
-1812 -1811 0
-1812 -1810 0
1812 1811 1810 0
-1813 1222 0
-1813 -1225 0
1813 -1222 1225 0
-1814 -1813 0
-1814 1812 0
1814 1813 -1812 0
-1815 1230 -1233 0
-1815 -1230 1233 0
1815 -1230 -1233 0
1815 1230 1233 0
-1816 1815 -1814 0
-1816 -1815 1814 0
1816 -1815 -1814 0
1816 1815 1814 0
-1817 -1233 0
-1817 -1814 0
1817 1233 1814 0
-1818 1230 0
-1818 -1814 0
1818 -1230 1814 0
-1819 -1818 0
-1819 -1817 0
1819 1818 1817 0
-1820 1230 0
-1820 -1233 0
1820 -1230 1233 0
-1821 -1820 0
-1821 1819 0
1821 1820 -1819 0
-1822 1239 1240 0
-1822 -1239 -1240 0
1822 -1239 1240 0
1822 1239 -1240 0
-1823 1822 -1821 0
-1823 -1822 1821 0
1823 -1822 -1821 0
1823 1822 1821 0
-1824 1240 0
-1824 -1821 0
1824 -1240 1821 0
-1825 1239 0
-1825 -1821 0
1825 -1239 1821 0
-1826 -1825 0
-1826 -1824 0
1826 1825 1824 0
-1827 1239 0
-1827 1240 0
1827 -1239 -1240 0
-1828 -1827 0
-1828 1826 0
1828 1827 -1826 0
-1829 1246 1247 0
-1829 -1246 -1247 0
1829 -1246 1247 0
1829 1246 -1247 0
-1830 1829 -1828 0
-1830 -1829 1828 0
1830 -1829 -1828 0
1830 1829 1828 0
-1831 1247 0
-1831 -1828 0
1831 -1247 1828 0
-1832 1246 0
-1832 -1828 0
1832 -1246 1828 0
-1833 -1832 0
-1833 -1831 0
1833 1832 1831 0
-1834 1246 0
-1834 1247 0
1834 -1246 -1247 0
-1835 -1834 0
-1835 1833 0
1835 1834 -1833 0
-1836 1253 -1256 0
-1836 -1253 1256 0
1836 -1253 -1256 0
1836 1253 1256 0
-1837 1836 -1835 0
-1837 -1836 1835 0
1837 -1836 -1835 0
1837 1836 1835 0
-1838 -1256 0
-1838 -1835 0
1838 1256 1835 0
-1839 1253 0
-1839 -1835 0
1839 -1253 1835 0
-1840 -1839 0
-1840 -1838 0
1840 1839 1838 0
-1841 1253 0
-1841 -1256 0
1841 -1253 1256 0
-1842 -1841 0
-1842 1840 0
1842 1841 -1840 0
-1843 1261 1262 0
-1843 -1261 -1262 0
1843 -1261 1262 0
1843 1261 -1262 0
-1844 1843 -1842 0
-1844 -1843 1842 0
1844 -1843 -1842 0
1844 1843 1842 0
-1845 1262 0
-1845 -1842 0
1845 -1262 1842 0
-1846 1261 0
-1846 -1842 0
1846 -1261 1842 0
-1847 -1846 0
-1847 -1845 0
1847 1846 1845 0
-1848 1261 0
-1848 1262 0
1848 -1261 -1262 0
-1849 -1848 0
-1849 1847 0
1849 1848 -1847 0
-1850 1267 1268 0
-1850 -1267 -1268 0
1850 -1267 1268 0
1850 1267 -1268 0
-1851 1850 -1849 0
-1851 -1850 1849 0
1851 -1850 -1849 0
1851 1850 1849 0
-1852 1268 0
-1852 -1849 0
1852 -1268 1849 0
-1853 1267 0
-1853 -1849 0
1853 -1267 1849 0
-1854 -1853 0
-1854 -1852 0
1854 1853 1852 0
-1855 1267 0
-1855 1268 0
1855 -1267 -1268 0
-1856 -1855 0
-1856 1854 0
1856 1855 -1854 0
-1857 1273 1274 0
-1857 -1273 -1274 0
1857 -1273 1274 0
1857 1273 -1274 0
-1858 1857 -1856 0
-1858 -1857 1856 0
1858 -1857 -1856 0
1858 1857 1856 0
-1859 1274 0
-1859 -1856 0
1859 -1274 1856 0
-1860 1273 0
-1860 -1856 0
1860 -1273 1856 0
-1861 -1860 0
-1861 -1859 0
1861 1860 1859 0
-1862 1273 0
-1862 1274 0
1862 -1273 -1274 0
-1863 -1862 0
-1863 1861 0
1863 1862 -1861 0
-1864 1279 1280 0
-1864 -1279 -1280 0
1864 -1279 1280 0
1864 1279 -1280 0
-1865 1864 -1863 0
-1865 -1864 1863 0
1865 -1864 -1863 0
1865 1864 1863 0
-1866 1280 0
-1866 -1863 0
1866 -1280 1863 0
-1867 1279 0
-1867 -1863 0
1867 -1279 1863 0
-1868 -1867 0
-1868 -1866 0
1868 1867 1866 0
-1869 1279 0
-1869 1280 0
1869 -1279 -1280 0
-1870 -1869 0
-1870 1868 0
1870 1869 -1868 0
-1871 1286 1287 0
-1871 -1286 -1287 0
1871 -1286 1287 0
1871 1286 -1287 0
-1872 1871 -1870 0
-1872 -1871 1870 0
1872 -1871 -1870 0
1872 1871 1870 0
-1873 1287 0
-1873 -1870 0
1873 -1287 1870 0
-1874 1286 0
-1874 -1870 0
1874 -1286 1870 0
-1875 -1874 0
-1875 -1873 0
1875 1874 1873 0
-1876 1286 0
-1876 1287 0
1876 -1286 -1287 0
-1877 -1876 0
-1877 1875 0
1877 1876 -1875 0
-1878 1292 -1295 0
-1878 -1292 1295 0
1878 -1292 -1295 0
1878 1292 1295 0
-1879 1878 -1877 0
-1879 -1878 1877 0
1879 -1878 -1877 0
1879 1878 1877 0
-1880 -1295 0
-1880 -1877 0
1880 1295 1877 0
-1881 1292 0
-1881 -1877 0
1881 -1292 1877 0
-1882 -1881 0
-1882 -1880 0
1882 1881 1880 0
-1883 1292 0
-1883 -1295 0
1883 -1292 1295 0
-1884 -1883 0
-1884 1882 0
1884 1883 -1882 0
-1885 1300 1301 0
-1885 -1300 -1301 0
1885 -1300 1301 0
1885 1300 -1301 0
-1886 1885 -1884 0
-1886 -1885 1884 0
1886 -1885 -1884 0
1886 1885 1884 0
-1887 1301 0
-1887 -1884 0
1887 -1301 1884 0
-1888 1300 0
-1888 -1884 0
1888 -1300 1884 0
-1889 -1888 0
-1889 -1887 0
1889 1888 1887 0
-1890 1300 0
-1890 1301 0
1890 -1300 -1301 0
-1891 -1890 0
-1891 1889 0
1891 1890 -1889 0
-1892 1306 -1309 0
-1892 -1306 1309 0
1892 -1306 -1309 0
1892 1306 1309 0
-1893 1892 -1891 0
-1893 -1892 1891 0
1893 -1892 -1891 0
1893 1892 1891 0
-1894 -1309 0
-1894 -1891 0
1894 1309 1891 0
-1895 1306 0
-1895 -1891 0
1895 -1306 1891 0
-1896 -1895 0
-1896 -1894 0
1896 1895 1894 0
-1897 1306 0
-1897 -1309 0
1897 -1306 1309 0
-1898 -1897 0
-1898 1896 0
1898 1897 -1896 0
-1899 1315 1316 0
-1899 -1315 -1316 0
1899 -1315 1316 0
1899 1315 -1316 0
-1900 1899 -1898 0
-1900 -1899 1898 0
1900 -1899 -1898 0
1900 1899 1898 0
-1901 1316 0
-1901 -1898 0
1901 -1316 1898 0
-1902 1315 0
-1902 -1898 0
1902 -1315 1898 0
-1903 -1902 0
-1903 -1901 0
1903 1902 1901 0
-1904 1315 0
-1904 1316 0
1904 -1315 -1316 0
-1905 -1904 0
-1905 1903 0
1905 1904 -1903 0
-1906 1321 -1324 0
-1906 -1321 1324 0
1906 -1321 -1324 0
1906 1321 1324 0
-1907 1906 -1905 0
-1907 -1906 1905 0
1907 -1906 -1905 0
1907 1906 1905 0
-1908 -1324 0
-1908 -1905 0
1908 1324 1905 0
-1909 1321 0
-1909 -1905 0
1909 -1321 1905 0
-1910 -1909 0
-1910 -1908 0
1910 1909 1908 0
-1911 1321 0
-1911 -1324 0
1911 -1321 1324 0
-1912 -1911 0
-1912 1910 0
1912 1911 -1910 0
-1913 1330 -1333 0
-1913 -1330 1333 0
1913 -1330 -1333 0
1913 1330 1333 0
-1914 1913 -1912 0
-1914 -1913 1912 0
1914 -1913 -1912 0
1914 1913 1912 0
-1915 -1333 0
-1915 -1912 0
1915 1333 1912 0
-1916 1330 0
-1916 -1912 0
1916 -1330 1912 0
-1917 -1916 0
-1917 -1915 0
1917 1916 1915 0
-1918 1330 0
-1918 -1333 0
1918 -1330 1333 0
-1919 -1918 0
-1919 1917 0
1919 1918 -1917 0
-1920 1338 1339 0
-1920 -1338 -1339 0
1920 -1338 1339 0
1920 1338 -1339 0
-1921 1920 -1919 0
-1921 -1920 1919 0
1921 -1920 -1919 0
1921 1920 1919 0
-1922 1339 0
-1922 -1919 0
1922 -1339 1919 0
-1923 1338 0
-1923 -1919 0
1923 -1338 1919 0
-1924 -1923 0
-1924 -1922 0
1924 1923 1922 0
-1925 1338 0
-1925 1339 0
1925 -1338 -1339 0
-1926 -1925 0
-1926 1924 0
1926 1925 -1924 0
-1927 1505 1502 0
-1927 -1505 -1502 0
1927 -1505 1502 0
1927 1505 -1502 0
-1928 1505 0
-1928 1502 0
1928 -1505 -1502 0
-1929 -1512 1928 0
-1929 1512 -1928 0
1929 1512 1928 0
1929 -1512 -1928 0
-1930 1512 0
-1930 1928 0
1930 -1512 -1928 0
-1931 -1928 0
-1931 -1930 0
1931 1928 1930 0
-1932 -1512 0
-1932 1931 0
1932 1512 -1931 0
-1933 1519 -1932 0
-1933 -1519 1932 0
1933 -1519 -1932 0
1933 1519 1932 0
-1934 1519 0
-1934 -1932 0
1934 -1519 1932 0
-1935 1526 1934 0
-1935 -1526 -1934 0
1935 -1526 1934 0
1935 1526 -1934 0
-1936 1526 0
-1936 1934 0
1936 -1526 -1934 0
-1937 1533 1936 0
-1937 -1533 -1936 0
1937 -1533 1936 0
1937 1533 -1936 0
-1938 1533 0
-1938 1936 0
1938 -1533 -1936 0
-1939 1540 1938 0
-1939 -1540 -1938 0
1939 -1540 1938 0
1939 1540 -1938 0
-1940 1540 0
-1940 1938 0
1940 -1540 -1938 0
-1941 -1547 1940 0
-1941 1547 -1940 0
1941 1547 1940 0
1941 -1547 -1940 0
-1942 1547 0
-1942 1940 0
1942 -1547 -1940 0
-1943 -1940 0
-1943 -1942 0
1943 1940 1942 0
-1944 -1547 0
-1944 1943 0
1944 1547 -1943 0
-1945 1554 -1944 0
-1945 -1554 1944 0
1945 -1554 -1944 0
1945 1554 1944 0
-1946 1554 0
-1946 -1944 0
1946 -1554 1944 0
-1947 -1561 1946 0
-1947 1561 -1946 0
1947 1561 1946 0
1947 -1561 -1946 0
-1948 1561 0
-1948 1946 0
1948 -1561 -1946 0
-1949 -1946 0
-1949 -1948 0
1949 1946 1948 0
-1950 -1561 0
-1950 1949 0
1950 1561 -1949 0
-1951 -1568 -1950 0
-1951 1568 1950 0
1951 1568 -1950 0
1951 -1568 1950 0
-1952 1568 0
-1952 -1950 0
1952 -1568 1950 0
-1953 1950 0
-1953 -1952 0
1953 -1950 1952 0
-1954 -1568 0
-1954 1953 0
1954 1568 -1953 0
-1955 -1575 -1954 0
-1955 1575 1954 0
1955 1575 -1954 0
1955 -1575 1954 0
-1956 1575 0
-1956 -1954 0
1956 -1575 1954 0
-1957 1954 0
-1957 -1956 0
1957 -1954 1956 0
-1958 -1575 0
-1958 1957 0
1958 1575 -1957 0
-1959 1582 -1958 0
-1959 -1582 1958 0
1959 -1582 -1958 0
1959 1582 1958 0
-1960 1582 0
-1960 -1958 0
1960 -1582 1958 0
-1961 -1589 1960 0
-1961 1589 -1960 0
1961 1589 1960 0
1961 -1589 -1960 0
-1962 1589 0
-1962 1960 0
1962 -1589 -1960 0
-1963 -1960 0
-1963 -1962 0
1963 1960 1962 0
-1964 -1589 0
-1964 1963 0
1964 1589 -1963 0
-1965 1596 -1964 0
-1965 -1596 1964 0
1965 -1596 -1964 0
1965 1596 1964 0
-1966 1596 0
-1966 -1964 0
1966 -1596 1964 0
-1967 -1603 1966 0
-1967 1603 -1966 0
1967 1603 1966 0
1967 -1603 -1966 0
-1968 1603 0
-1968 1966 0
1968 -1603 -1966 0
-1969 -1966 0
-1969 -1968 0
1969 1966 1968 0
-1970 -1603 0
-1970 1969 0
1970 1603 -1969 0
-1971 -1610 -1970 0
-1971 1610 1970 0
1971 1610 -1970 0
1971 -1610 1970 0
-1972 1610 0
-1972 -1970 0
1972 -1610 1970 0
-1973 1970 0
-1973 -1972 0
1973 -1970 1972 0
-1974 -1610 0
-1974 1973 0
1974 1610 -1973 0
-1975 -1617 -1974 0
-1975 1617 1974 0
1975 1617 -1974 0
1975 -1617 1974 0
-1976 1617 0
-1976 -1974 0
1976 -1617 1974 0
-1977 1974 0
-1977 -1976 0
1977 -1974 1976 0
-1978 -1617 0
-1978 1977 0
1978 1617 -1977 0
-1979 -1624 -1978 0
-1979 1624 1978 0
1979 1624 -1978 0
1979 -1624 1978 0
-1980 1624 0
-1980 -1978 0
1980 -1624 1978 0
-1981 1978 0
-1981 -1980 0
1981 -1978 1980 0
-1982 -1624 0
-1982 1981 0
1982 1624 -1981 0
-1983 1631 -1982 0
-1983 -1631 1982 0
1983 -1631 -1982 0
1983 1631 1982 0
-1984 1631 0
-1984 -1982 0
1984 -1631 1982 0
-1985 1638 1984 0
-1985 -1638 -1984 0
1985 -1638 1984 0
1985 1638 -1984 0
-1986 1638 0
-1986 1984 0
1986 -1638 -1984 0
-1987 -1645 1986 0
-1987 1645 -1986 0
1987 1645 1986 0
1987 -1645 -1986 0
-1988 1645 0
-1988 1986 0
1988 -1645 -1986 0
-1989 -1986 0
-1989 -1988 0
1989 1986 1988 0
-1990 -1645 0
-1990 1989 0
1990 1645 -1989 0
-1991 -1652 -1990 0
-1991 1652 1990 0
1991 1652 -1990 0
1991 -1652 1990 0
-1992 1652 0
-1992 -1990 0
1992 -1652 1990 0
-1993 1990 0
-1993 -1992 0
1993 -1990 1992 0
-1994 -1652 0
-1994 1993 0
1994 1652 -1993 0
-1995 1659 -1994 0
-1995 -1659 1994 0
1995 -1659 -1994 0
1995 1659 1994 0
-1996 1659 0
-1996 -1994 0
1996 -1659 1994 0
-1997 -1666 1996 0
-1997 1666 -1996 0
1997 1666 1996 0
1997 -1666 -1996 0
-1998 1666 0
-1998 1996 0
1998 -1666 -1996 0
-1999 -1996 0
-1999 -1998 0
1999 1996 1998 0
-2000 -1666 0
-2000 1999 0
2000 1666 -1999 0
-2001 -1673 -2000 0
-2001 1673 2000 0
2001 1673 -2000 0
2001 -1673 2000 0
-2002 1673 0
-2002 -2000 0
2002 -1673 2000 0
-2003 2000 0
-2003 -2002 0
2003 -2000 2002 0
-2004 -1673 0
-2004 2003 0
2004 1673 -2003 0
-2005 1680 -2004 0
-2005 -1680 2004 0
2005 -1680 -2004 0
2005 1680 2004 0
-2006 1680 0
-2006 -2004 0
2006 -1680 2004 0
-2007 -1687 2006 0
-2007 1687 -2006 0
2007 1687 2006 0
2007 -1687 -2006 0
-2008 1687 0
-2008 2006 0
2008 -1687 -2006 0
-2009 -2006 0
-2009 -2008 0
2009 2006 2008 0
-2010 -1687 0
-2010 2009 0
2010 1687 -2009 0
-2011 -1694 -2010 0
-2011 1694 2010 0
2011 1694 -2010 0
2011 -1694 2010 0
-2012 1694 0
-2012 -2010 0
2012 -1694 2010 0
-2013 2010 0
-2013 -2012 0
2013 -2010 2012 0
-2014 -1694 0
-2014 2013 0
2014 1694 -2013 0
-2015 -1701 -2014 0
-2015 1701 2014 0
2015 1701 -2014 0
2015 -1701 2014 0
-2016 1701 0
-2016 -2014 0
2016 -1701 2014 0
-2017 2014 0
-2017 -2016 0
2017 -2014 2016 0
-2018 -1701 0
-2018 2017 0
2018 1701 -2017 0
-2019 1708 -2018 0
-2019 -1708 2018 0
2019 -1708 -2018 0
2019 1708 2018 0
-2020 1708 0
-2020 -2018 0
2020 -1708 2018 0
-2021 -1715 2020 0
-2021 1715 -2020 0
2021 1715 2020 0
2021 -1715 -2020 0
-2022 1715 0
-2022 2020 0
2022 -1715 -2020 0
-2023 -2020 0
-2023 -2022 0
2023 2020 2022 0
-2024 -1715 0
-2024 2023 0
2024 1715 -2023 0
-2025 1502 -1136 0
-2025 -1502 1136 0
2025 -1502 -1136 0
2025 1502 1136 0
-2026 1502 0
-2026 -1136 0
2026 -1502 1136 0
-2027 1505 1722 0
-2027 -1505 -1722 0
2027 -1505 1722 0
2027 1505 -1722 0
-2028 2027 2026 0
-2028 -2027 -2026 0
2028 -2027 2026 0
2028 2027 -2026 0
-2029 1722 0
-2029 2026 0
2029 -1722 -2026 0
-2030 1505 0
-2030 2026 0
2030 -1505 -2026 0
-2031 -2030 0
-2031 -2029 0
2031 2030 2029 0
-2032 1505 0
-2032 1722 0
2032 -1505 -1722 0
-2033 -2032 0
-2033 2031 0
2033 2032 -2031 0
-2034 1512 1728 0
-2034 -1512 -1728 0
2034 -1512 1728 0
2034 1512 -1728 0
-2035 2034 -2033 0
-2035 -2034 2033 0
2035 -2034 -2033 0
2035 2034 2033 0
-2036 1728 0
-2036 -2033 0
2036 -1728 2033 0
-2037 1512 0
-2037 -2033 0
2037 -1512 2033 0
-2038 -2037 0
-2038 -2036 0
2038 2037 2036 0
-2039 1512 0
-2039 1728 0
2039 -1512 -1728 0
-2040 -2039 0
-2040 2038 0
2040 2039 -2038 0
-2041 1519 1733 0
-2041 -1519 -1733 0
2041 -1519 1733 0
2041 1519 -1733 0
-2042 2041 -2040 0
-2042 -2041 2040 0
2042 -2041 -2040 0
2042 2041 2040 0
-2043 1733 0
-2043 -2040 0
2043 -1733 2040 0
-2044 1519 0
-2044 -2040 0
2044 -1519 2040 0
-2045 -2044 0
-2045 -2043 0
2045 2044 2043 0
-2046 1519 0
-2046 1733 0
2046 -1519 -1733 0
-2047 -2046 0
-2047 2045 0
2047 2046 -2045 0
-2048 1526 1739 0
-2048 -1526 -1739 0
2048 -1526 1739 0
2048 1526 -1739 0
-2049 2048 -2047 0
-2049 -2048 2047 0
2049 -2048 -2047 0
2049 2048 2047 0
-2050 1739 0
-2050 -2047 0
2050 -1739 2047 0
-2051 1526 0
-2051 -2047 0
2051 -1526 2047 0
-2052 -2051 0
-2052 -2050 0
2052 2051 2050 0
-2053 1526 0
-2053 1739 0
2053 -1526 -1739 0
-2054 -2053 0
-2054 2052 0
2054 2053 -2052 0
-2055 1533 1742 0
-2055 -1533 -1742 0
2055 -1533 1742 0
2055 1533 -1742 0
-2056 2055 -2054 0
-2056 -2055 2054 0
2056 -2055 -2054 0
2056 2055 2054 0
-2057 1742 0
-2057 -2054 0
2057 -1742 2054 0
-2058 1533 0
-2058 -2054 0
2058 -1533 2054 0
-2059 -2058 0
-2059 -2057 0
2059 2058 2057 0
-2060 1533 0
-2060 1742 0
2060 -1533 -1742 0
-2061 -2060 0
-2061 2059 0
2061 2060 -2059 0
-2062 1540 1748 0
-2062 -1540 -1748 0
2062 -1540 1748 0
2062 1540 -1748 0
-2063 2062 -2061 0
-2063 -2062 2061 0
2063 -2062 -2061 0
2063 2062 2061 0
-2064 1748 0
-2064 -2061 0
2064 -1748 2061 0
-2065 1540 0
-2065 -2061 0
2065 -1540 2061 0
-2066 -2065 0
-2066 -2064 0
2066 2065 2064 0
-2067 1540 0
-2067 1748 0
2067 -1540 -1748 0
-2068 -2067 0
-2068 2066 0
2068 2067 -2066 0
-2069 1547 1753 0
-2069 -1547 -1753 0
2069 -1547 1753 0
2069 1547 -1753 0
-2070 2069 -2068 0
-2070 -2069 2068 0
2070 -2069 -2068 0
2070 2069 2068 0
-2071 1753 0
-2071 -2068 0
2071 -1753 2068 0
-2072 1547 0
-2072 -2068 0
2072 -1547 2068 0
-2073 -2072 0
-2073 -2071 0
2073 2072 2071 0
-2074 1547 0
-2074 1753 0
2074 -1547 -1753 0
-2075 -2074 0
-2075 2073 0
2075 2074 -2073 0
-2076 1554 1760 0
-2076 -1554 -1760 0
2076 -1554 1760 0
2076 1554 -1760 0
-2077 2076 -2075 0
-2077 -2076 2075 0
2077 -2076 -2075 0
2077 2076 2075 0
-2078 1760 0
-2078 -2075 0
2078 -1760 2075 0
-2079 1554 0
-2079 -2075 0
2079 -1554 2075 0
-2080 -2079 0
-2080 -2078 0
2080 2079 2078 0
-2081 1554 0
-2081 1760 0
2081 -1554 -1760 0
-2082 -2081 0
-2082 2080 0
2082 2081 -2080 0
-2083 1561 1767 0
-2083 -1561 -1767 0
2083 -1561 1767 0
2083 1561 -1767 0
-2084 2083 -2082 0
-2084 -2083 2082 0
2084 -2083 -2082 0
2084 2083 2082 0
-2085 1767 0
-2085 -2082 0
2085 -1767 2082 0
-2086 1561 0
-2086 -2082 0
2086 -1561 2082 0
-2087 -2086 0
-2087 -2085 0
2087 2086 2085 0
-2088 1561 0
-2088 1767 0
2088 -1561 -1767 0
-2089 -2088 0
-2089 2087 0
2089 2088 -2087 0
-2090 1568 1774 0
-2090 -1568 -1774 0
2090 -1568 1774 0
2090 1568 -1774 0
-2091 2090 -2089 0
-2091 -2090 2089 0
2091 -2090 -2089 0
2091 2090 2089 0
-2092 1774 0
-2092 -2089 0
2092 -1774 2089 0
-2093 1568 0
-2093 -2089 0
2093 -1568 2089 0
-2094 -2093 0
-2094 -2092 0
2094 2093 2092 0
-2095 1568 0
-2095 1774 0
2095 -1568 -1774 0
-2096 -2095 0
-2096 2094 0
2096 2095 -2094 0
-2097 1575 1781 0
-2097 -1575 -1781 0
2097 -1575 1781 0
2097 1575 -1781 0
-2098 2097 -2096 0
-2098 -2097 2096 0
2098 -2097 -2096 0
2098 2097 2096 0
-2099 1781 0
-2099 -2096 0
2099 -1781 2096 0
-2100 1575 0
-2100 -2096 0
2100 -1575 2096 0
-2101 -2100 0
-2101 -2099 0
2101 2100 2099 0
-2102 1575 0
-2102 1781 0
2102 -1575 -1781 0
-2103 -2102 0
-2103 2101 0
2103 2102 -2101 0
-2104 1582 1788 0
-2104 -1582 -1788 0
2104 -1582 1788 0
2104 1582 -1788 0
-2105 2104 -2103 0
-2105 -2104 2103 0
2105 -2104 -2103 0
2105 2104 2103 0
-2106 1788 0
-2106 -2103 0
2106 -1788 2103 0
-2107 1582 0
-2107 -2103 0
2107 -1582 2103 0
-2108 -2107 0
-2108 -2106 0
2108 2107 2106 0
-2109 1582 0
-2109 1788 0
2109 -1582 -1788 0
-2110 -2109 0
-2110 2108 0
2110 2109 -2108 0
-2111 1589 1795 0
-2111 -1589 -1795 0
2111 -1589 1795 0
2111 1589 -1795 0
-2112 2111 -2110 0
-2112 -2111 2110 0
2112 -2111 -2110 0
2112 2111 2110 0
-2113 1795 0
-2113 -2110 0
2113 -1795 2110 0
-2114 1589 0
-2114 -2110 0
2114 -1589 2110 0
-2115 -2114 0
-2115 -2113 0
2115 2114 2113 0
-2116 1589 0
-2116 1795 0
2116 -1589 -1795 0
-2117 -2116 0
-2117 2115 0
2117 2116 -2115 0
-2118 1596 1802 0
-2118 -1596 -1802 0
2118 -1596 1802 0
2118 1596 -1802 0
-2119 2118 -2117 0
-2119 -2118 2117 0
2119 -2118 -2117 0
2119 2118 2117 0
-2120 1802 0
-2120 -2117 0
2120 -1802 2117 0
-2121 1596 0
-2121 -2117 0
2121 -1596 2117 0
-2122 -2121 0
-2122 -2120 0
2122 2121 2120 0
-2123 1596 0
-2123 1802 0
2123 -1596 -1802 0
-2124 -2123 0
-2124 2122 0
2124 2123 -2122 0
-2125 1603 1809 0
-2125 -1603 -1809 0
2125 -1603 1809 0
2125 1603 -1809 0
-2126 2125 -2124 0
-2126 -2125 2124 0
2126 -2125 -2124 0
2126 2125 2124 0
-2127 1809 0
-2127 -2124 0
2127 -1809 2124 0
-2128 1603 0
-2128 -2124 0
2128 -1603 2124 0
-2129 -2128 0
-2129 -2127 0
2129 2128 2127 0
-2130 1603 0
-2130 1809 0
2130 -1603 -1809 0
-2131 -2130 0
-2131 2129 0
2131 2130 -2129 0
-2132 1610 1816 0
-2132 -1610 -1816 0
2132 -1610 1816 0
2132 1610 -1816 0
-2133 2132 -2131 0
-2133 -2132 2131 0
2133 -2132 -2131 0
2133 2132 2131 0
-2134 1816 0
-2134 -2131 0
2134 -1816 2131 0
-2135 1610 0
-2135 -2131 0
2135 -1610 2131 0
-2136 -2135 0
-2136 -2134 0
2136 2135 2134 0
-2137 1610 0
-2137 1816 0
2137 -1610 -1816 0
-2138 -2137 0
-2138 2136 0
2138 2137 -2136 0
-2139 1617 1823 0
-2139 -1617 -1823 0
2139 -1617 1823 0
2139 1617 -1823 0
-2140 2139 -2138 0
-2140 -2139 2138 0
2140 -2139 -2138 0
2140 2139 2138 0
-2141 1823 0
-2141 -2138 0
2141 -1823 2138 0
-2142 1617 0
-2142 -2138 0
2142 -1617 2138 0
-2143 -2142 0
-2143 -2141 0
2143 2142 2141 0
-2144 1617 0
-2144 1823 0
2144 -1617 -1823 0
-2145 -2144 0
-2145 2143 0
2145 2144 -2143 0
-2146 1624 1830 0
-2146 -1624 -1830 0
2146 -1624 1830 0
2146 1624 -1830 0
-2147 2146 -2145 0
-2147 -2146 2145 0
2147 -2146 -2145 0
2147 2146 2145 0
-2148 1830 0
-2148 -2145 0
2148 -1830 2145 0
-2149 1624 0
-2149 -2145 0
2149 -1624 2145 0
-2150 -2149 0
-2150 -2148 0
2150 2149 2148 0
-2151 1624 0
-2151 1830 0
2151 -1624 -1830 0
-2152 -2151 0
-2152 2150 0
2152 2151 -2150 0
-2153 1631 1837 0
-2153 -1631 -1837 0
2153 -1631 1837 0
2153 1631 -1837 0
-2154 2153 -2152 0
-2154 -2153 2152 0
2154 -2153 -2152 0
2154 2153 2152 0
-2155 1837 0
-2155 -2152 0
2155 -1837 2152 0
-2156 1631 0
-2156 -2152 0
2156 -1631 2152 0
-2157 -2156 0
-2157 -2155 0
2157 2156 2155 0
-2158 1631 0
-2158 1837 0
2158 -1631 -1837 0
-2159 -2158 0
-2159 2157 0
2159 2158 -2157 0
-2160 1638 1844 0
-2160 -1638 -1844 0
2160 -1638 1844 0
2160 1638 -1844 0
-2161 2160 -2159 0
-2161 -2160 2159 0
2161 -2160 -2159 0
2161 2160 2159 0
-2162 1844 0
-2162 -2159 0
2162 -1844 2159 0
-2163 1638 0
-2163 -2159 0
2163 -1638 2159 0
-2164 -2163 0
-2164 -2162 0
2164 2163 2162 0
-2165 1638 0
-2165 1844 0
2165 -1638 -1844 0
-2166 -2165 0
-2166 2164 0
2166 2165 -2164 0
-2167 1645 1851 0
-2167 -1645 -1851 0
2167 -1645 1851 0
2167 1645 -1851 0
-2168 2167 -2166 0
-2168 -2167 2166 0
2168 -2167 -2166 0
2168 2167 2166 0
-2169 1851 0
-2169 -2166 0
2169 -1851 2166 0
-2170 1645 0
-2170 -2166 0
2170 -1645 2166 0
-2171 -2170 0
-2171 -2169 0
2171 2170 2169 0
-2172 1645 0
-2172 1851 0
2172 -1645 -1851 0
-2173 -2172 0
-2173 2171 0
2173 2172 -2171 0
-2174 1652 1858 0
-2174 -1652 -1858 0
2174 -1652 1858 0
2174 1652 -1858 0
-2175 2174 -2173 0
-2175 -2174 2173 0
2175 -2174 -2173 0
2175 2174 2173 0
-2176 1858 0
-2176 -2173 0
2176 -1858 2173 0
-2177 1652 0
-2177 -2173 0
2177 -1652 2173 0
-2178 -2177 0
-2178 -2176 0
2178 2177 2176 0
-2179 1652 0
-2179 1858 0
2179 -1652 -1858 0
-2180 -2179 0
-2180 2178 0
2180 2179 -2178 0
-2181 1659 1865 0
-2181 -1659 -1865 0
2181 -1659 1865 0
2181 1659 -1865 0
-2182 2181 -2180 0
-2182 -2181 2180 0
2182 -2181 -2180 0
2182 2181 2180 0
-2183 1865 0
-2183 -2180 0
2183 -1865 2180 0
-2184 1659 0
-2184 -2180 0
2184 -1659 2180 0
-2185 -2184 0
-2185 -2183 0
2185 2184 2183 0
-2186 1659 0
-2186 1865 0
2186 -1659 -1865 0
-2187 -2186 0
-2187 2185 0
2187 2186 -2185 0
-2188 1666 1872 0
-2188 -1666 -1872 0
2188 -1666 1872 0
2188 1666 -1872 0
-2189 2188 -2187 0
-2189 -2188 2187 0
2189 -2188 -2187 0
2189 2188 2187 0
-2190 1872 0
-2190 -2187 0
2190 -1872 2187 0
-2191 1666 0
-2191 -2187 0
2191 -1666 2187 0
-2192 -2191 0
-2192 -2190 0
2192 2191 2190 0
-2193 1666 0
-2193 1872 0
2193 -1666 -1872 0
-2194 -2193 0
-2194 2192 0
2194 2193 -2192 0
-2195 1673 1879 0
-2195 -1673 -1879 0
2195 -1673 1879 0
2195 1673 -1879 0
-2196 2195 -2194 0
-2196 -2195 2194 0
2196 -2195 -2194 0
2196 2195 2194 0
-2197 1879 0
-2197 -2194 0
2197 -1879 2194 0
-2198 1673 0
-2198 -2194 0
2198 -1673 2194 0
-2199 -2198 0
-2199 -2197 0
2199 2198 2197 0
-2200 1673 0
-2200 1879 0
2200 -1673 -1879 0
-2201 -2200 0
-2201 2199 0
2201 2200 -2199 0
-2202 1680 1886 0
-2202 -1680 -1886 0
2202 -1680 1886 0
2202 1680 -1886 0
-2203 2202 -2201 0
-2203 -2202 2201 0
2203 -2202 -2201 0
2203 2202 2201 0
-2204 1886 0
-2204 -2201 0
2204 -1886 2201 0
-2205 1680 0
-2205 -2201 0
2205 -1680 2201 0
-2206 -2205 0
-2206 -2204 0
2206 2205 2204 0
-2207 1680 0
-2207 1886 0
2207 -1680 -1886 0
-2208 -2207 0
-2208 2206 0
2208 2207 -2206 0
-2209 1687 1893 0
-2209 -1687 -1893 0
2209 -1687 1893 0
2209 1687 -1893 0
-2210 2209 -2208 0
-2210 -2209 2208 0
2210 -2209 -2208 0
2210 2209 2208 0
-2211 1893 0
-2211 -2208 0
2211 -1893 2208 0
-2212 1687 0
-2212 -2208 0
2212 -1687 2208 0
-2213 -2212 0
-2213 -2211 0
2213 2212 2211 0
-2214 1687 0
-2214 1893 0
2214 -1687 -1893 0
-2215 -2214 0
-2215 2213 0
2215 2214 -2213 0
-2216 1694 1900 0
-2216 -1694 -1900 0
2216 -1694 1900 0
2216 1694 -1900 0
-2217 2216 -2215 0
-2217 -2216 2215 0
2217 -2216 -2215 0
2217 2216 2215 0
-2218 1900 0
-2218 -2215 0
2218 -1900 2215 0
-2219 1694 0
-2219 -2215 0
2219 -1694 2215 0
-2220 -2219 0
-2220 -2218 0
2220 2219 2218 0
-2221 1694 0
-2221 1900 0
2221 -1694 -1900 0
-2222 -2221 0
-2222 2220 0
2222 2221 -2220 0
-2223 1701 1907 0
-2223 -1701 -1907 0
2223 -1701 1907 0
2223 1701 -1907 0
-2224 2223 -2222 0
-2224 -2223 2222 0
2224 -2223 -2222 0
2224 2223 2222 0
-2225 1907 0
-2225 -2222 0
2225 -1907 2222 0
-2226 1701 0
-2226 -2222 0
2226 -1701 2222 0
-2227 -2226 0
-2227 -2225 0
2227 2226 2225 0
-2228 1701 0
-2228 1907 0
2228 -1701 -1907 0
-2229 -2228 0
-2229 2227 0
2229 2228 -2227 0
-2230 1708 1914 0
-2230 -1708 -1914 0
2230 -1708 1914 0
2230 1708 -1914 0
-2231 2230 -2229 0
-2231 -2230 2229 0
2231 -2230 -2229 0
2231 2230 2229 0
-2232 1914 0
-2232 -2229 0
2232 -1914 2229 0
-2233 1708 0
-2233 -2229 0
2233 -1708 2229 0
-2234 -2233 0
-2234 -2232 0
2234 2233 2232 0
-2235 1708 0
-2235 1914 0
2235 -1708 -1914 0
-2236 -2235 0
-2236 2234 0
2236 2235 -2234 0
-2237 1715 1921 0
-2237 -1715 -1921 0
2237 -1715 1921 0
2237 1715 -1921 0
-2238 2237 -2236 0
-2238 -2237 2236 0
2238 -2237 -2236 0
2238 2237 2236 0
-2239 1921 0
-2239 -2236 0
2239 -1921 2236 0
-2240 1715 0
-2240 -2236 0
2240 -1715 2236 0
-2241 -2240 0
-2241 -2239 0
2241 2240 2239 0
-2242 1715 0
-2242 1921 0
2242 -1715 -1921 0
-2243 -2242 0
-2243 2241 0
2243 2242 -2241 0
-2244 1939 1955 0
-2244 -1939 -1955 0
2244 -1939 1955 0
2244 1939 -1955 0
-2245 2244 2001 0
-2245 -2244 -2001 0
2245 -2244 2001 0
2245 2244 -2001 0
-2246 -1502 0
-2246 341 0
2246 1502 -341 0
-2247 2035 2112 0
-2247 -2035 -2112 0
2247 -2035 2112 0
2247 2035 -2112 0
-2248 2247 2175 0
-2248 -2247 -2175 0
2248 -2247 2175 0
2248 2247 -2175 0
-2249 -2025 0
-2249 -914 0
2249 2025 914 0
-2250 2025 0
-2250 914 0
2250 -2025 -914 0
-2251 -2250 0
-2251 2249 0
2251 2250 -2249 0
-2252 1941 1959 0
-2252 -1941 -1959 0
2252 -1941 1959 0
2252 1941 -1959 0
-2253 2252 2005 0
-2253 -2252 -2005 0
2253 -2252 2005 0
2253 2252 -2005 0
-2254 1927 0
-2254 -521 0
2254 -1927 521 0
-2255 2254 -1927 0
-2255 -2254 1927 0
2255 -2254 -1927 0
2255 2254 1927 0
-2256 2042 2119 0
-2256 -2042 -2119 0
2256 -2042 2119 0
2256 2042 -2119 0
-2257 2256 2182 0
-2257 -2256 -2182 0
2257 -2256 2182 0
2257 2256 -2182 0
-2258 2028 0
-2258 917 0
2258 -2028 -917 0
-2259 1945 1961 0
-2259 -1945 -1961 0
2259 -1945 1961 0
2259 1945 -1961 0
-2260 2259 2007 0
-2260 -2259 -2007 0
2260 -2259 2007 0
2260 2259 -2007 0
-2261 1929 0
-2261 818 0
2261 -1929 -818 0
-2262 2049 2126 0
-2262 -2049 -2126 0
2262 -2049 2126 0
2262 2049 -2126 0
-2263 2262 2189 0
-2263 -2262 -2189 0
2263 -2262 2189 0
2263 2262 -2189 0
-2264 -2035 0
-2264 -924 0
2264 2035 924 0
-2265 2035 0
-2265 924 0
2265 -2035 -924 0
-2266 -2265 0
-2266 2264 0
2266 2265 -2264 0
-2267 1947 1965 0
-2267 -1947 -1965 0
2267 -1947 1965 0
2267 1947 -1965 0
-2268 2267 2011 0
-2268 -2267 -2011 0
2268 -2267 2011 0
2268 2267 -2011 0
-2269 1933 0
-2269 820 0
2269 -1933 -820 0
-2270 2056 2133 0
-2270 -2056 -2133 0
2270 -2056 2133 0
2270 2056 -2133 0
-2271 2270 2196 0
-2271 -2270 -2196 0
2271 -2270 2196 0
2271 2270 -2196 0
-2272 -2042 0
-2272 -931 0
2272 2042 931 0
-2273 2042 0
-2273 931 0
2273 -2042 -931 0
-2274 -2273 0
-2274 2272 0
2274 2273 -2272 0
-2275 1951 1967 0
-2275 -1951 -1967 0
2275 -1951 1967 0
2275 1951 -1967 0
-2276 2275 2015 0
-2276 -2275 -2015 0
2276 -2275 2015 0
2276 2275 -2015 0
-2277 1935 0
-2277 822 0
2277 -1935 -822 0
-2278 2063 2140 0
-2278 -2063 -2140 0
2278 -2063 2140 0
2278 2063 -2140 0
-2279 2278 2203 0
-2279 -2278 -2203 0
2279 -2278 2203 0
2279 2278 -2203 0
-2280 2049 0
-2280 938 0
2280 -2049 -938 0
-2281 1955 1971 0
-2281 -1955 -1971 0
2281 -1955 1971 0
2281 1955 -1971 0
-2282 2281 2019 0
-2282 -2281 -2019 0
2282 -2281 2019 0
2282 2281 -2019 0
-2283 1937 0
-2283 826 0
2283 -1937 -826 0
-2284 2283 -1937 0
-2284 -2283 1937 0
2284 -2283 -1937 0
2284 2283 1937 0
-2285 2070 2147 0
-2285 -2070 -2147 0
2285 -2070 2147 0
2285 2070 -2147 0
-2286 2285 2210 0
-2286 -2285 -2210 0
2286 -2285 2210 0
2286 2285 -2210 0
-2287 2056 0
-2287 945 0
2287 -2056 -945 0
-2288 1959 1975 0
-2288 -1959 -1975 0
2288 -1959 1975 0
2288 1959 -1975 0
-2289 2288 2021 0
-2289 -2288 -2021 0
2289 -2288 2021 0
2289 2288 -2021 0
-2290 1939 0
-2290 830 0
2290 -1939 -830 0
-2291 2077 2154 0
-2291 -2077 -2154 0
2291 -2077 2154 0
2291 2077 -2154 0
-2292 2291 2217 0
-2292 -2291 -2217 0
2292 -2291 2217 0
2292 2291 -2217 0
-2293 -2063 0
-2293 -952 0
2293 2063 952 0
-2294 2063 0
-2294 952 0
2294 -2063 -952 0
-2295 -2294 0
-2295 2293 0
2295 2294 -2293 0
-2296 1961 1979 0
-2296 -1961 -1979 0
2296 -1961 1979 0
2296 1961 -1979 0
-2297 2296 -1502 0
-2297 -2296 1502 0
2297 -2296 -1502 0
2297 2296 1502 0
-2298 1941 0
-2298 834 0
2298 -1941 -834 0
-2299 2084 2161 0
-2299 -2084 -2161 0
2299 -2084 2161 0
2299 2084 -2161 0
-2300 2299 2224 0
-2300 -2299 -2224 0
2300 -2299 2224 0
2300 2299 -2224 0
-2301 -2070 0
-2301 -959 0
2301 2070 959 0
-2302 2070 0
-2302 959 0
2302 -2070 -959 0
-2303 -2302 0
-2303 2301 0
2303 2302 -2301 0
-2304 1965 1983 0
-2304 -1965 -1983 0
2304 -1965 1983 0
2304 1965 -1983 0
-2305 2304 1927 0
-2305 -2304 -1927 0
2305 -2304 1927 0
2305 2304 -1927 0
-2306 -1945 0
-2306 -24 0
2306 1945 24 0
-2307 1945 0
-2307 836 0
2307 -1945 -836 0
-2308 2307 2306 0
-2308 -2307 -2306 0
2308 -2307 2306 0
2308 2307 -2306 0
-2309 2091 2168 0
-2309 -2091 -2168 0
2309 -2091 2168 0
2309 2091 -2168 0
-2310 2309 2231 0
-2310 -2309 -2231 0
2310 -2309 2231 0
2310 2309 -2231 0
-2311 966 0
-2311 24 0
2311 -966 -24 0
-2312 2077 0
-2312 24 0
2312 -2077 -24 0
-2313 -2312 0
-2313 -2311 0
2313 2312 2311 0
-2314 2077 0
-2314 966 0
2314 -2077 -966 0
-2315 -2314 0
-2315 2313 0
2315 2314 -2313 0
-2316 1967 1985 0
-2316 -1967 -1985 0
2316 -1967 1985 0
2316 1967 -1985 0
-2317 2316 1929 0
-2317 -2316 -1929 0
2317 -2316 1929 0
2317 2316 -1929 0
-2318 -1947 0
-2318 -75 0
2318 1947 75 0
-2319 1947 0
-2319 840 0
2319 -1947 -840 0
-2320 2319 2318 0
-2320 -2319 -2318 0
2320 -2319 2318 0
2320 2319 -2318 0
-2321 2098 2175 0
-2321 -2098 -2175 0
2321 -2098 2175 0
2321 2098 -2175 0
-2322 2321 2238 0
-2322 -2321 -2238 0
2322 -2321 2238 0
2322 2321 -2238 0
-2323 973 0
-2323 281 0
2323 -973 -281 0
-2324 2084 0
-2324 281 0
2324 -2084 -281 0
-2325 -2324 0
-2325 -2323 0
2325 2324 2323 0
-2326 2084 0
-2326 973 0
2326 -2084 -973 0
-2327 -2326 0
-2327 2325 0
2327 2326 -2325 0
-2328 1971 1987 0
-2328 -1971 -1987 0
2328 -1971 1987 0
2328 1971 -1987 0
-2329 2328 1933 0
-2329 -2328 -1933 0
2329 -2328 1933 0
2329 2328 -1933 0
-2330 -1951 0
-2330 209 0
2330 1951 -209 0
-2331 1951 0
-2331 844 0
2331 -1951 -844 0
-2332 2331 2330 0
-2332 -2331 -2330 0
2332 -2331 2330 0
2332 2331 -2330 0
-2333 2105 2182 0
-2333 -2105 -2182 0
2333 -2105 2182 0
2333 2105 -2182 0
-2334 2333 2025 0
-2334 -2333 -2025 0
2334 -2333 2025 0
2334 2333 -2025 0
-2335 980 0
-2335 285 0
2335 -980 -285 0
-2336 2091 0
-2336 285 0
2336 -2091 -285 0
-2337 -2336 0
-2337 -2335 0
2337 2336 2335 0
-2338 2091 0
-2338 980 0
2338 -2091 -980 0
-2339 -2338 0
-2339 2337 0
2339 2338 -2337 0
-2340 1975 1991 0
-2340 -1975 -1991 0
2340 -1975 1991 0
2340 1975 -1991 0
-2341 2340 1935 0
-2341 -2340 -1935 0
2341 -2340 1935 0
2341 2340 -1935 0
-2342 -1955 0
-2342 213 0
2342 1955 -213 0
-2343 1955 0
-2343 846 0
2343 -1955 -846 0
-2344 2343 2342 0
-2344 -2343 -2342 0
2344 -2343 2342 0
2344 2343 -2342 0
-2345 2112 2189 0
-2345 -2112 -2189 0
2345 -2112 2189 0
2345 2112 -2189 0
-2346 2345 2028 0
-2346 -2345 -2028 0
2346 -2345 2028 0
2346 2345 -2028 0
-2347 987 0
-2347 287 0
2347 -987 -287 0
-2348 2098 0
-2348 287 0
2348 -2098 -287 0
-2349 -2348 0
-2349 -2347 0
2349 2348 2347 0
-2350 2098 0
-2350 987 0
2350 -2098 -987 0
-2351 -2350 0
-2351 2349 0
2351 2350 -2349 0
-2352 1979 1995 0
-2352 -1979 -1995 0
2352 -1979 1995 0
2352 1979 -1995 0
-2353 2352 1937 0
-2353 -2352 -1937 0
2353 -2352 1937 0
2353 2352 -1937 0
-2354 -1959 0
-2354 215 0
2354 1959 -215 0
-2355 1959 0
-2355 848 0
2355 -1959 -848 0
-2356 2355 2354 0
-2356 -2355 -2354 0
2356 -2355 2354 0
2356 2355 -2354 0
-2357 2119 2196 0
-2357 -2119 -2196 0
2357 -2119 2196 0
2357 2119 -2196 0
-2358 2357 2035 0
-2358 -2357 -2035 0
2358 -2357 2035 0
2358 2357 -2035 0
-2359 994 0
-2359 291 0
2359 -994 -291 0
-2360 2105 0
-2360 291 0
2360 -2105 -291 0
-2361 -2360 0
-2361 -2359 0
2361 2360 2359 0
-2362 2105 0
-2362 994 0
2362 -2105 -994 0
-2363 -2362 0
-2363 2361 0
2363 2362 -2361 0
-2364 1983 1997 0
-2364 -1983 -1997 0
2364 -1983 1997 0
2364 1983 -1997 0
-2365 2364 1939 0
-2365 -2364 -1939 0
2365 -2364 1939 0
2365 2364 -1939 0
-2366 -1961 0
-2366 219 0
2366 1961 -219 0
-2367 1961 0
-2367 852 0
2367 -1961 -852 0
-2368 2367 2366 0
-2368 -2367 -2366 0
2368 -2367 2366 0
2368 2367 -2366 0
-2369 2126 2203 0
-2369 -2126 -2203 0
2369 -2126 2203 0
2369 2126 -2203 0
-2370 2369 2042 0
-2370 -2369 -2042 0
2370 -2369 2042 0
2370 2369 -2042 0
-2371 1001 0
-2371 295 0
2371 -1001 -295 0
-2372 2112 0
-2372 295 0
2372 -2112 -295 0
-2373 -2372 0
-2373 -2371 0
2373 2372 2371 0
-2374 2112 0
-2374 1001 0
2374 -2112 -1001 0
-2375 -2374 0
-2375 2373 0
2375 2374 -2373 0
-2376 1985 2001 0
-2376 -1985 -2001 0
2376 -1985 2001 0
2376 1985 -2001 0
-2377 2376 1941 0
-2377 -2376 -1941 0
2377 -2376 1941 0
2377 2376 -1941 0
-2378 -1965 0
-2378 223 0
2378 1965 -223 0
-2379 1965 0
-2379 856 0
2379 -1965 -856 0
-2380 2379 2378 0
-2380 -2379 -2378 0
2380 -2379 2378 0
2380 2379 -2378 0
-2381 2133 2210 0
-2381 -2133 -2210 0
2381 -2133 2210 0
2381 2133 -2210 0
-2382 2381 2049 0
-2382 -2381 -2049 0
2382 -2381 2049 0
2382 2381 -2049 0
-2383 1008 0
-2383 297 0
2383 -1008 -297 0
-2384 2119 0
-2384 297 0
2384 -2119 -297 0
-2385 -2384 0
-2385 -2383 0
2385 2384 2383 0
-2386 2119 0
-2386 1008 0
2386 -2119 -1008 0
-2387 -2386 0
-2387 2385 0
2387 2386 -2385 0
-2388 1987 2005 0
-2388 -1987 -2005 0
2388 -1987 2005 0
2388 1987 -2005 0
-2389 2388 1945 0
-2389 -2388 -1945 0
2389 -2388 1945 0
2389 2388 -1945 0
-2390 -1967 0
-2390 227 0
2390 1967 -227 0
-2391 1967 0
-2391 860 0
2391 -1967 -860 0
-2392 2391 2390 0
-2392 -2391 -2390 0
2392 -2391 2390 0
2392 2391 -2390 0
-2393 2140 2217 0
-2393 -2140 -2217 0
2393 -2140 2217 0
2393 2140 -2217 0
-2394 2393 2056 0
-2394 -2393 -2056 0
2394 -2393 2056 0
2394 2393 -2056 0
-2395 1015 0
-2395 299 0
2395 -1015 -299 0
-2396 2126 0
-2396 299 0
2396 -2126 -299 0
-2397 -2396 0
-2397 -2395 0
2397 2396 2395 0
-2398 2126 0
-2398 1015 0
2398 -2126 -1015 0
-2399 -2398 0
-2399 2397 0
2399 2398 -2397 0
-2400 1991 2007 0
-2400 -1991 -2007 0
2400 -1991 2007 0
2400 1991 -2007 0
-2401 2400 1947 0
-2401 -2400 -1947 0
2401 -2400 1947 0
2401 2400 -1947 0
-2402 -1971 0
-2402 231 0
2402 1971 -231 0
-2403 1971 0
-2403 864 0
2403 -1971 -864 0
-2404 2403 2402 0
-2404 -2403 -2402 0
2404 -2403 2402 0
2404 2403 -2402 0
-2405 2147 2224 0
-2405 -2147 -2224 0
2405 -2147 2224 0
2405 2147 -2224 0
-2406 2405 2063 0
-2406 -2405 -2063 0
2406 -2405 2063 0
2406 2405 -2063 0
-2407 1022 0
-2407 303 0
2407 -1022 -303 0
-2408 2133 0
-2408 303 0
2408 -2133 -303 0
-2409 -2408 0
-2409 -2407 0
2409 2408 2407 0
-2410 2133 0
-2410 1022 0
2410 -2133 -1022 0
-2411 -2410 0
-2411 2409 0
2411 2410 -2409 0
-2412 1995 2011 0
-2412 -1995 -2011 0
2412 -1995 2011 0
2412 1995 -2011 0
-2413 2412 1951 0
-2413 -2412 -1951 0
2413 -2412 1951 0
2413 2412 -1951 0
-2414 -1975 0
-2414 235 0
2414 1975 -235 0
-2415 1975 0
-2415 866 0
2415 -1975 -866 0
-2416 2415 2414 0
-2416 -2415 -2414 0
2416 -2415 2414 0
2416 2415 -2414 0
-2417 2154 2231 0
-2417 -2154 -2231 0
2417 -2154 2231 0
2417 2154 -2231 0
-2418 2417 2070 0
-2418 -2417 -2070 0
2418 -2417 2070 0
2418 2417 -2070 0
-2419 1029 0
-2419 305 0
2419 -1029 -305 0
-2420 2140 0
-2420 305 0
2420 -2140 -305 0
-2421 -2420 0
-2421 -2419 0
2421 2420 2419 0
-2422 2140 0
-2422 1029 0
2422 -2140 -1029 0
-2423 -2422 0
-2423 2421 0
2423 2422 -2421 0
-2424 1997 2015 0
-2424 -1997 -2015 0
2424 -1997 2015 0
2424 1997 -2015 0
-2425 2424 1955 0
-2425 -2424 -1955 0
2425 -2424 1955 0
2425 2424 -1955 0
-2426 -1979 0
-2426 239 0
2426 1979 -239 0
-2427 1979 0
-2427 870 0
2427 -1979 -870 0
-2428 2427 2426 0
-2428 -2427 -2426 0
2428 -2427 2426 0
2428 2427 -2426 0
-2429 2161 2238 0
-2429 -2161 -2238 0
2429 -2161 2238 0
2429 2161 -2238 0
-2430 2429 2077 0
-2430 -2429 -2077 0
2430 -2429 2077 0
2430 2429 -2077 0
-2431 1036 0
-2431 307 0
2431 -1036 -307 0
-2432 2147 0
-2432 307 0
2432 -2147 -307 0
-2433 -2432 0
-2433 -2431 0
2433 2432 2431 0
-2434 2147 0
-2434 1036 0
2434 -2147 -1036 0
-2435 -2434 0
-2435 2433 0
2435 2434 -2433 0
-2436 2001 2019 0
-2436 -2001 -2019 0
2436 -2001 2019 0
2436 2001 -2019 0
-2437 2436 1959 0
-2437 -2436 -1959 0
2437 -2436 1959 0
2437 2436 -1959 0
-2438 -1983 0
-2438 243 0
2438 1983 -243 0
-2439 1983 0
-2439 874 0
2439 -1983 -874 0
-2440 2439 2438 0
-2440 -2439 -2438 0
2440 -2439 2438 0
2440 2439 -2438 0
-2441 2168 2025 0
-2441 -2168 -2025 0
2441 -2168 2025 0
2441 2168 -2025 0
-2442 2441 2084 0
-2442 -2441 -2084 0
2442 -2441 2084 0
2442 2441 -2084 0
-2443 1043 0
-2443 309 0
2443 -1043 -309 0
-2444 2154 0
-2444 309 0
2444 -2154 -309 0
-2445 -2444 0
-2445 -2443 0
2445 2444 2443 0
-2446 2154 0
-2446 1043 0
2446 -2154 -1043 0
-2447 -2446 0
-2447 2445 0
2447 2446 -2445 0
-2448 2005 2021 0
-2448 -2005 -2021 0
2448 -2005 2021 0
2448 2005 -2021 0
-2449 2448 1961 0
-2449 -2448 -1961 0
2449 -2448 1961 0
2449 2448 -1961 0
-2450 -1985 0
-2450 247 0
2450 1985 -247 0
-2451 1985 0
-2451 878 0
2451 -1985 -878 0
-2452 2451 2450 0
-2452 -2451 -2450 0
2452 -2451 2450 0
2452 2451 -2450 0
-2453 2175 2028 0
-2453 -2175 -2028 0
2453 -2175 2028 0
2453 2175 -2028 0
-2454 2453 2091 0
-2454 -2453 -2091 0
2454 -2453 2091 0
2454 2453 -2091 0
-2455 1050 0
-2455 311 0
2455 -1050 -311 0
-2456 2161 0
-2456 311 0
2456 -2161 -311 0
-2457 -2456 0
-2457 -2455 0
2457 2456 2455 0
-2458 2161 0
-2458 1050 0
2458 -2161 -1050 0
-2459 -2458 0
-2459 2457 0
2459 2458 -2457 0
-2460 2007 -1502 0
-2460 -2007 1502 0
2460 -2007 -1502 0
2460 2007 1502 0
-2461 2460 1965 0
-2461 -2460 -1965 0
2461 -2460 1965 0
2461 2460 -1965 0
-2462 -1987 0
-2462 249 0
2462 1987 -249 0
-2463 1987 0
-2463 880 0
2463 -1987 -880 0
-2464 2463 2462 0
-2464 -2463 -2462 0
2464 -2463 2462 0
2464 2463 -2462 0
-2465 2182 2035 0
-2465 -2182 -2035 0
2465 -2182 2035 0
2465 2182 -2035 0
-2466 2465 2098 0
-2466 -2465 -2098 0
2466 -2465 2098 0
2466 2465 -2098 0
-2467 1057 0
-2467 315 0
2467 -1057 -315 0
-2468 2168 0
-2468 315 0
2468 -2168 -315 0
-2469 -2468 0
-2469 -2467 0
2469 2468 2467 0
-2470 2168 0
-2470 1057 0
2470 -2168 -1057 0
-2471 -2470 0
-2471 2469 0
2471 2470 -2469 0
-2472 2011 1927 0
-2472 -2011 -1927 0
2472 -2011 1927 0
2472 2011 -1927 0
-2473 2472 1967 0
-2473 -2472 -1967 0
2473 -2472 1967 0
2473 2472 -1967 0
-2474 -1991 0
-2474 251 0
2474 1991 -251 0
-2475 1991 0
-2475 884 0
2475 -1991 -884 0
-2476 2475 2474 0
-2476 -2475 -2474 0
2476 -2475 2474 0
2476 2475 -2474 0
-2477 2189 2042 0
-2477 -2189 -2042 0
2477 -2189 2042 0
2477 2189 -2042 0
-2478 2477 2105 0
-2478 -2477 -2105 0
2478 -2477 2105 0
2478 2477 -2105 0
-2479 1064 0
-2479 317 0
2479 -1064 -317 0
-2480 2175 0
-2480 317 0
2480 -2175 -317 0
-2481 -2480 0
-2481 -2479 0
2481 2480 2479 0
-2482 2175 0
-2482 1064 0
2482 -2175 -1064 0
-2483 -2482 0
-2483 2481 0
2483 2482 -2481 0
-2484 2015 1929 0
-2484 -2015 -1929 0
2484 -2015 1929 0
2484 2015 -1929 0
-2485 2484 1971 0
-2485 -2484 -1971 0
2485 -2484 1971 0
2485 2484 -1971 0
-2486 -1995 0
-2486 255 0
2486 1995 -255 0
-2487 1995 0
-2487 888 0
2487 -1995 -888 0
-2488 2487 2486 0
-2488 -2487 -2486 0
2488 -2487 2486 0
2488 2487 -2486 0
-2489 2196 2049 0
-2489 -2196 -2049 0
2489 -2196 2049 0
2489 2196 -2049 0
-2490 2489 2112 0
-2490 -2489 -2112 0
2490 -2489 2112 0
2490 2489 -2112 0
-2491 1071 0
-2491 319 0
2491 -1071 -319 0
-2492 2182 0
-2492 319 0
2492 -2182 -319 0
-2493 -2492 0
-2493 -2491 0
2493 2492 2491 0
-2494 2182 0
-2494 1071 0
2494 -2182 -1071 0
-2495 -2494 0
-2495 2493 0
2495 2494 -2493 0
-2496 2019 1933 0
-2496 -2019 -1933 0
2496 -2019 1933 0
2496 2019 -1933 0
-2497 2496 1975 0
-2497 -2496 -1975 0
2497 -2496 1975 0
2497 2496 -1975 0
-2498 -1997 0
-2498 257 0
2498 1997 -257 0
-2499 1997 0
-2499 890 0
2499 -1997 -890 0
-2500 2499 2498 0
-2500 -2499 -2498 0
2500 -2499 2498 0
2500 2499 -2498 0
-2501 2203 2056 0
-2501 -2203 -2056 0
2501 -2203 2056 0
2501 2203 -2056 0
-2502 2501 2119 0
-2502 -2501 -2119 0
2502 -2501 2119 0
2502 2501 -2119 0
-2503 1078 0
-2503 323 0
2503 -1078 -323 0
-2504 2189 0
-2504 323 0
2504 -2189 -323 0
-2505 -2504 0
-2505 -2503 0
2505 2504 2503 0
-2506 2189 0
-2506 1078 0
2506 -2189 -1078 0
-2507 -2506 0
-2507 2505 0
2507 2506 -2505 0
-2508 2021 1935 0
-2508 -2021 -1935 0
2508 -2021 1935 0
2508 2021 -1935 0
-2509 2508 1979 0
-2509 -2508 -1979 0
2509 -2508 1979 0
2509 2508 -1979 0
-2510 -2001 0
-2510 261 0
2510 2001 -261 0
-2511 2001 0
-2511 892 0
2511 -2001 -892 0
-2512 2511 2510 0
-2512 -2511 -2510 0
2512 -2511 2510 0
2512 2511 -2510 0
-2513 2210 2063 0
-2513 -2210 -2063 0
2513 -2210 2063 0
2513 2210 -2063 0
-2514 2513 2126 0
-2514 -2513 -2126 0
2514 -2513 2126 0
2514 2513 -2126 0
-2515 1085 0
-2515 325 0
2515 -1085 -325 0
-2516 2196 0
-2516 325 0
2516 -2196 -325 0
-2517 -2516 0
-2517 -2515 0
2517 2516 2515 0
-2518 2196 0
-2518 1085 0
2518 -2196 -1085 0
-2519 -2518 0
-2519 2517 0
2519 2518 -2517 0
-2520 -1502 1937 0
-2520 1502 -1937 0
2520 1502 1937 0
2520 -1502 -1937 0
-2521 2520 1983 0
-2521 -2520 -1983 0
2521 -2520 1983 0
2521 2520 -1983 0
-2522 -2005 0
-2522 263 0
2522 2005 -263 0
-2523 2005 0
-2523 894 0
2523 -2005 -894 0
-2524 2523 2522 0
-2524 -2523 -2522 0
2524 -2523 2522 0
2524 2523 -2522 0
-2525 2217 2070 0
-2525 -2217 -2070 0
2525 -2217 2070 0
2525 2217 -2070 0
-2526 2525 2133 0
-2526 -2525 -2133 0
2526 -2525 2133 0
2526 2525 -2133 0
-2527 1092 0
-2527 327 0
2527 -1092 -327 0
-2528 2203 0
-2528 327 0
2528 -2203 -327 0
-2529 -2528 0
-2529 -2527 0
2529 2528 2527 0
-2530 2203 0
-2530 1092 0
2530 -2203 -1092 0
-2531 -2530 0
-2531 2529 0
2531 2530 -2529 0
-2532 1927 1939 0
-2532 -1927 -1939 0
2532 -1927 1939 0
2532 1927 -1939 0
-2533 2532 1985 0
-2533 -2532 -1985 0
2533 -2532 1985 0
2533 2532 -1985 0
-2534 -2007 0
-2534 267 0
2534 2007 -267 0
-2535 2007 0
-2535 898 0
2535 -2007 -898 0
-2536 2535 2534 0
-2536 -2535 -2534 0
2536 -2535 2534 0
2536 2535 -2534 0
-2537 2224 2077 0
-2537 -2224 -2077 0
2537 -2224 2077 0
2537 2224 -2077 0
-2538 2537 2140 0
-2538 -2537 -2140 0
2538 -2537 2140 0
2538 2537 -2140 0
-2539 1099 0
-2539 329 0
2539 -1099 -329 0
-2540 2210 0
-2540 329 0
2540 -2210 -329 0
-2541 -2540 0
-2541 -2539 0
2541 2540 2539 0
-2542 2210 0
-2542 1099 0
2542 -2210 -1099 0
-2543 -2542 0
-2543 2541 0
2543 2542 -2541 0
-2544 1929 1941 0
-2544 -1929 -1941 0
2544 -1929 1941 0
2544 1929 -1941 0
-2545 2544 1987 0
-2545 -2544 -1987 0
2545 -2544 1987 0
2545 2544 -1987 0
-2546 -2011 0
-2546 269 0
2546 2011 -269 0
-2547 2011 0
-2547 902 0
2547 -2011 -902 0
-2548 2547 2546 0
-2548 -2547 -2546 0
2548 -2547 2546 0
2548 2547 -2546 0
-2549 2231 2084 0
-2549 -2231 -2084 0
2549 -2231 2084 0
2549 2231 -2084 0
-2550 2549 2147 0
-2550 -2549 -2147 0
2550 -2549 2147 0
2550 2549 -2147 0
-2551 1106 0
-2551 333 0
2551 -1106 -333 0
-2552 2217 0
-2552 333 0
2552 -2217 -333 0
-2553 -2552 0
-2553 -2551 0
2553 2552 2551 0
-2554 2217 0
-2554 1106 0
2554 -2217 -1106 0
-2555 -2554 0
-2555 2553 0
2555 2554 -2553 0
-2556 1933 1945 0
-2556 -1933 -1945 0
2556 -1933 1945 0
2556 1933 -1945 0
-2557 2556 1991 0
-2557 -2556 -1991 0
2557 -2556 1991 0
2557 2556 -1991 0
-2558 -2015 0
-2558 271 0
2558 2015 -271 0
-2559 2015 0
-2559 906 0
2559 -2015 -906 0
-2560 2559 2558 0
-2560 -2559 -2558 0
2560 -2559 2558 0
2560 2559 -2558 0
-2561 2238 2091 0
-2561 -2238 -2091 0
2561 -2238 2091 0
2561 2238 -2091 0
-2562 2561 2154 0
-2562 -2561 -2154 0
2562 -2561 2154 0
2562 2561 -2154 0
-2563 1113 0
-2563 335 0
2563 -1113 -335 0
-2564 2224 0
-2564 335 0
2564 -2224 -335 0
-2565 -2564 0
-2565 -2563 0
2565 2564 2563 0
-2566 2224 0
-2566 1113 0
2566 -2224 -1113 0
-2567 -2566 0
-2567 2565 0
2567 2566 -2565 0
-2568 1935 1947 0
-2568 -1935 -1947 0
2568 -1935 1947 0
2568 1935 -1947 0
-2569 2568 1995 0
-2569 -2568 -1995 0
2569 -2568 1995 0
2569 2568 -1995 0
-2570 -2019 0
-2570 275 0
2570 2019 -275 0
-2571 2019 0
-2571 910 0
2571 -2019 -910 0
-2572 2571 2570 0
-2572 -2571 -2570 0
2572 -2571 2570 0
2572 2571 -2570 0
-2573 2025 2098 0
-2573 -2025 -2098 0
2573 -2025 2098 0
2573 2025 -2098 0
-2574 2573 2161 0
-2574 -2573 -2161 0
2574 -2573 2161 0
2574 2573 -2161 0
-2575 1120 0
-2575 337 0
2575 -1120 -337 0
-2576 2231 0
-2576 337 0
2576 -2231 -337 0
-2577 -2576 0
-2577 -2575 0
2577 2576 2575 0
-2578 2231 0
-2578 1120 0
2578 -2231 -1120 0
-2579 -2578 0
-2579 2577 0
2579 2578 -2577 0
-2580 1937 1951 0
-2580 -1937 -1951 0
2580 -1937 1951 0
2580 1937 -1951 0
-2581 2580 1997 0
-2581 -2580 -1997 0
2581 -2580 1997 0
2581 2580 -1997 0
-2582 -2021 0
-2582 277 0
2582 2021 -277 0
-2583 2021 0
-2583 912 0
2583 -2021 -912 0
-2584 2583 2582 0
-2584 -2583 -2582 0
2584 -2583 2582 0
2584 2583 -2582 0
-2585 2028 2105 0
-2585 -2028 -2105 0
2585 -2028 2105 0
2585 2028 -2105 0
-2586 2585 2168 0
-2586 -2585 -2168 0
2586 -2585 2168 0
2586 2585 -2168 0
-2587 1127 0
-2587 339 0
2587 -1127 -339 0
-2588 2238 0
-2588 339 0
2588 -2238 -339 0
-2589 -2588 0
-2589 -2587 0
2589 2588 2587 0
-2590 2238 0
-2590 1127 0
2590 -2238 -1127 0
-2591 -2590 0
-2591 2589 0
2591 2590 -2589 0
-2592 2255 2246 0
-2592 -2255 -2246 0
2592 -2255 2246 0
2592 2255 -2246 0
-2593 2255 0
-2593 2246 0
2593 -2255 -2246 0
-2594 -2261 2593 0
-2594 2261 -2593 0
2594 2261 2593 0
2594 -2261 -2593 0
-2595 2261 0
-2595 2593 0
2595 -2261 -2593 0
-2596 -2595 0
-2596 -2593 0
2596 2595 2593 0
-2597 -2261 0
-2597 2596 0
2597 2261 -2596 0
-2598 2269 -2597 0
-2598 -2269 2597 0
2598 -2269 -2597 0
2598 2269 2597 0
-2599 2269 0
-2599 -2597 0
2599 -2269 2597 0
-2600 2277 2599 0
-2600 -2277 -2599 0
2600 -2277 2599 0
2600 2277 -2599 0
-2601 2277 0
-2601 2599 0
2601 -2277 -2599 0
-2602 -2284 2601 0
-2602 2284 -2601 0
2602 2284 2601 0
2602 -2284 -2601 0
-2603 2284 0
-2603 2601 0
2603 -2284 -2601 0
-2604 -2603 0
-2604 -2601 0
2604 2603 2601 0
-2605 -2284 0
-2605 2604 0
2605 2284 -2604 0
-2606 2290 -2605 0
-2606 -2290 2605 0
2606 -2290 -2605 0
2606 2290 2605 0
-2607 2290 0
-2607 -2605 0
2607 -2290 2605 0
-2608 -2298 2607 0
-2608 2298 -2607 0
2608 2298 2607 0
2608 -2298 -2607 0
-2609 2298 0
-2609 2607 0
2609 -2298 -2607 0
-2610 -2609 0
-2610 -2607 0
2610 2609 2607 0
-2611 -2298 0
-2611 2610 0
2611 2298 -2610 0
-2612 -2308 -2611 0
-2612 2308 2611 0
2612 2308 -2611 0
2612 -2308 2611 0
-2613 2308 0
-2613 -2611 0
2613 -2308 2611 0
-2614 -2613 0
-2614 2611 0
2614 2613 -2611 0
-2615 -2308 0
-2615 2614 0
2615 2308 -2614 0
-2616 -2320 -2615 0
-2616 2320 2615 0
2616 2320 -2615 0
2616 -2320 2615 0
-2617 2320 0
-2617 -2615 0
2617 -2320 2615 0
-2618 -2617 0
-2618 2615 0
2618 2617 -2615 0
-2619 -2320 0
-2619 2618 0
2619 2320 -2618 0
-2620 2332 -2619 0
-2620 -2332 2619 0
2620 -2332 -2619 0
2620 2332 2619 0
-2621 2332 0
-2621 -2619 0
2621 -2332 2619 0
-2622 -2344 2621 0
-2622 2344 -2621 0
2622 2344 2621 0
2622 -2344 -2621 0
-2623 2344 0
-2623 2621 0
2623 -2344 -2621 0
-2624 -2623 0
-2624 -2621 0
2624 2623 2621 0
-2625 -2344 0
-2625 2624 0
2625 2344 -2624 0
-2626 -2356 -2625 0
-2626 2356 2625 0
2626 2356 -2625 0
2626 -2356 2625 0
-2627 2356 0
-2627 -2625 0
2627 -2356 2625 0
-2628 -2627 0
-2628 2625 0
2628 2627 -2625 0
-2629 -2356 0
-2629 2628 0
2629 2356 -2628 0
-2630 2368 -2629 0
-2630 -2368 2629 0
2630 -2368 -2629 0
2630 2368 2629 0
-2631 2368 0
-2631 -2629 0
2631 -2368 2629 0
-2632 -2380 2631 0
-2632 2380 -2631 0
2632 2380 2631 0
2632 -2380 -2631 0
-2633 2380 0
-2633 2631 0
2633 -2380 -2631 0
-2634 -2633 0
-2634 -2631 0
2634 2633 2631 0
-2635 -2380 0
-2635 2634 0
2635 2380 -2634 0
-2636 -2392 -2635 0
-2636 2392 2635 0
2636 2392 -2635 0
2636 -2392 2635 0
-2637 2392 0
-2637 -2635 0
2637 -2392 2635 0
-2638 -2637 0
-2638 2635 0
2638 2637 -2635 0
-2639 -2392 0
-2639 2638 0
2639 2392 -2638 0
-2640 -2404 -2639 0
-2640 2404 2639 0
2640 2404 -2639 0
2640 -2404 2639 0
-2641 2404 0
-2641 -2639 0
2641 -2404 2639 0
-2642 -2641 0
-2642 2639 0
2642 2641 -2639 0
-2643 -2404 0
-2643 2642 0
2643 2404 -2642 0
-2644 2416 -2643 0
-2644 -2416 2643 0
2644 -2416 -2643 0
2644 2416 2643 0
-2645 2416 0
-2645 -2643 0
2645 -2416 2643 0
-2646 -2428 2645 0
-2646 2428 -2645 0
2646 2428 2645 0
2646 -2428 -2645 0
-2647 2428 0
-2647 2645 0
2647 -2428 -2645 0
-2648 -2647 0
-2648 -2645 0
2648 2647 2645 0
-2649 -2428 0
-2649 2648 0
2649 2428 -2648 0
-2650 2440 -2649 0
-2650 -2440 2649 0
2650 -2440 -2649 0
2650 2440 2649 0
-2651 2440 0
-2651 -2649 0
2651 -2440 2649 0
-2652 -2452 2651 0
-2652 2452 -2651 0
2652 2452 2651 0
2652 -2452 -2651 0
-2653 2452 0
-2653 2651 0
2653 -2452 -2651 0
-2654 -2653 0
-2654 -2651 0
2654 2653 2651 0
-2655 -2452 0
-2655 2654 0
2655 2452 -2654 0
-2656 -2464 -2655 0
-2656 2464 2655 0
2656 2464 -2655 0
2656 -2464 2655 0
-2657 2464 0
-2657 -2655 0
2657 -2464 2655 0
-2658 -2657 0
-2658 2655 0
2658 2657 -2655 0
-2659 -2464 0
-2659 2658 0
2659 2464 -2658 0
-2660 2476 -2659 0
-2660 -2476 2659 0
2660 -2476 -2659 0
2660 2476 2659 0
-2661 2476 0
-2661 -2659 0
2661 -2476 2659 0
-2662 -2488 2661 0
-2662 2488 -2661 0
2662 2488 2661 0
2662 -2488 -2661 0
-2663 2488 0
-2663 2661 0
2663 -2488 -2661 0
-2664 -2663 0
-2664 -2661 0
2664 2663 2661 0
-2665 -2488 0
-2665 2664 0
2665 2488 -2664 0
-2666 -2500 -2665 0
-2666 2500 2665 0
2666 2500 -2665 0
2666 -2500 2665 0
-2667 2500 0
-2667 -2665 0
2667 -2500 2665 0
-2668 -2667 0
-2668 2665 0
2668 2667 -2665 0
-2669 -2500 0
-2669 2668 0
2669 2500 -2668 0
-2670 2512 -2669 0
-2670 -2512 2669 0
2670 -2512 -2669 0
2670 2512 2669 0
-2671 2512 0
-2671 -2669 0
2671 -2512 2669 0
-2672 2524 2671 0
-2672 -2524 -2671 0
2672 -2524 2671 0
2672 2524 -2671 0
-2673 2524 0
-2673 2671 0
2673 -2524 -2671 0
-2674 -2536 2673 0
-2674 2536 -2673 0
2674 2536 2673 0
2674 -2536 -2673 0
-2675 2536 0
-2675 2673 0
2675 -2536 -2673 0
-2676 -2675 0
-2676 -2673 0
2676 2675 2673 0
-2677 -2536 0
-2677 2676 0
2677 2536 -2676 0
-2678 2548 -2677 0
-2678 -2548 2677 0
2678 -2548 -2677 0
2678 2548 2677 0
-2679 2548 0
-2679 -2677 0
2679 -2548 2677 0
-2680 -2560 2679 0
-2680 2560 -2679 0
2680 2560 2679 0
2680 -2560 -2679 0
-2681 2560 0
-2681 2679 0
2681 -2560 -2679 0
-2682 -2681 0
-2682 -2679 0
2682 2681 2679 0
-2683 -2560 0
-2683 2682 0
2683 2560 -2682 0
-2684 -2572 -2683 0
-2684 2572 2683 0
2684 2572 -2683 0
2684 -2572 2683 0
-2685 2572 0
-2685 -2683 0
2685 -2572 2683 0
-2686 -2685 0
-2686 2683 0
2686 2685 -2683 0
-2687 -2572 0
-2687 2686 0
2687 2572 -2686 0
-2688 -2584 -2687 0
-2688 2584 2687 0
2688 2584 -2687 0
2688 -2584 2687 0
-2689 2584 0
-2689 -2687 0
2689 -2584 2687 0
-2690 -2689 0
-2690 2687 0
2690 2689 -2687 0
-2691 -2584 0
-2691 2690 0
2691 2584 -2690 0
-2692 -2253 2245 0
-2692 2253 -2245 0
2692 2253 2245 0
2692 -2253 -2245 0
-2693 2253 0
-2693 2245 0
2693 -2253 -2245 0
-2694 -2245 0
-2694 -2693 0
2694 2245 2693 0
-2695 -2253 0
-2695 2694 0
2695 2253 -2694 0
-2696 -2260 -2695 0
-2696 2260 2695 0
2696 2260 -2695 0
2696 -2260 2695 0
-2697 2260 0
-2697 -2695 0
2697 -2260 2695 0
-2698 2695 0
-2698 -2697 0
2698 -2695 2697 0
-2699 -2260 0
-2699 2698 0
2699 2260 -2698 0
-2700 -2268 -2699 0
-2700 2268 2699 0
2700 2268 -2699 0
2700 -2268 2699 0
-2701 2268 0
-2701 -2699 0
2701 -2268 2699 0
-2702 2699 0
-2702 -2701 0
2702 -2699 2701 0
-2703 -2268 0
-2703 2702 0
2703 2268 -2702 0
-2704 -2276 -2703 0
-2704 2276 2703 0
2704 2276 -2703 0
2704 -2276 2703 0
-2705 2276 0
-2705 -2703 0
2705 -2276 2703 0
-2706 2703 0
-2706 -2705 0
2706 -2703 2705 0
-2707 -2276 0
-2707 2706 0
2707 2276 -2706 0
-2708 -2282 -2707 0
-2708 2282 2707 0
2708 2282 -2707 0
2708 -2282 2707 0
-2709 2282 0
-2709 -2707 0
2709 -2282 2707 0
-2710 2707 0
-2710 -2709 0
2710 -2707 2709 0
-2711 -2282 0
-2711 2710 0
2711 2282 -2710 0
-2712 -2289 -2711 0
-2712 2289 2711 0
2712 2289 -2711 0
2712 -2289 2711 0
-2713 2289 0
-2713 -2711 0
2713 -2289 2711 0
-2714 2711 0
-2714 -2713 0
2714 -2711 2713 0
-2715 -2289 0
-2715 2714 0
2715 2289 -2714 0
-2716 2297 -2715 0
-2716 -2297 2715 0
2716 -2297 -2715 0
2716 2297 2715 0
-2717 2297 0
-2717 -2715 0
2717 -2297 2715 0
-2718 2305 2717 0
-2718 -2305 -2717 0
2718 -2305 2717 0
2718 2305 -2717 0
-2719 2305 0
-2719 2717 0
2719 -2305 -2717 0
-2720 -2317 2719 0
-2720 2317 -2719 0
2720 2317 2719 0
2720 -2317 -2719 0
-2721 2317 0
-2721 2719 0
2721 -2317 -2719 0
-2722 -2719 0
-2722 -2721 0
2722 2719 2721 0
-2723 -2317 0
-2723 2722 0
2723 2317 -2722 0
-2724 2329 -2723 0
-2724 -2329 2723 0
2724 -2329 -2723 0
2724 2329 2723 0
-2725 2329 0
-2725 -2723 0
2725 -2329 2723 0
-2726 2341 2725 0
-2726 -2341 -2725 0
2726 -2341 2725 0
2726 2341 -2725 0
-2727 2341 0
-2727 2725 0
2727 -2341 -2725 0
-2728 -2353 2727 0
-2728 2353 -2727 0
2728 2353 2727 0
2728 -2353 -2727 0
-2729 2353 0
-2729 2727 0
2729 -2353 -2727 0
-2730 -2727 0
-2730 -2729 0
2730 2727 2729 0
-2731 -2353 0
-2731 2730 0
2731 2353 -2730 0
-2732 2365 -2731 0
-2732 -2365 2731 0
2732 -2365 -2731 0
2732 2365 2731 0
-2733 2365 0
-2733 -2731 0
2733 -2365 2731 0
-2734 -2377 2733 0
-2734 2377 -2733 0
2734 2377 2733 0
2734 -2377 -2733 0
-2735 2377 0
-2735 2733 0
2735 -2377 -2733 0
-2736 -2733 0
-2736 -2735 0
2736 2733 2735 0
-2737 -2377 0
-2737 2736 0
2737 2377 -2736 0
-2738 2389 -2737 0
-2738 -2389 2737 0
2738 -2389 -2737 0
2738 2389 2737 0
-2739 2389 0
-2739 -2737 0
2739 -2389 2737 0
-2740 2401 2739 0
-2740 -2401 -2739 0
2740 -2401 2739 0
2740 2401 -2739 0
-2741 2401 0
-2741 2739 0
2741 -2401 -2739 0
-2742 -2413 2741 0
-2742 2413 -2741 0
2742 2413 2741 0
2742 -2413 -2741 0
-2743 2413 0
-2743 2741 0
2743 -2413 -2741 0
-2744 -2741 0
-2744 -2743 0
2744 2741 2743 0
-2745 -2413 0
-2745 2744 0
2745 2413 -2744 0
-2746 -2425 -2745 0
-2746 2425 2745 0
2746 2425 -2745 0
2746 -2425 2745 0
-2747 2425 0
-2747 -2745 0
2747 -2425 2745 0
-2748 2745 0
-2748 -2747 0
2748 -2745 2747 0
-2749 -2425 0
-2749 2748 0
2749 2425 -2748 0
-2750 -2437 -2749 0
-2750 2437 2749 0
2750 2437 -2749 0
2750 -2437 2749 0
-2751 2437 0
-2751 -2749 0
2751 -2437 2749 0
-2752 2749 0
-2752 -2751 0
2752 -2749 2751 0
-2753 -2437 0
-2753 2752 0
2753 2437 -2752 0
-2754 2449 -2753 0
-2754 -2449 2753 0
2754 -2449 -2753 0
2754 2449 2753 0
-2755 2449 0
-2755 -2753 0
2755 -2449 2753 0
-2756 2461 2755 0
-2756 -2461 -2755 0
2756 -2461 2755 0
2756 2461 -2755 0
-2757 2461 0
-2757 2755 0
2757 -2461 -2755 0
-2758 2473 2757 0
-2758 -2473 -2757 0
2758 -2473 2757 0
2758 2473 -2757 0
-2759 2473 0
-2759 2757 0
2759 -2473 -2757 0
-2760 2485 2759 0
-2760 -2485 -2759 0
2760 -2485 2759 0
2760 2485 -2759 0
-2761 2485 0
-2761 2759 0
2761 -2485 -2759 0
-2762 -2497 2761 0
-2762 2497 -2761 0
2762 2497 2761 0
2762 -2497 -2761 0
-2763 2497 0
-2763 2761 0
2763 -2497 -2761 0
-2764 -2761 0
-2764 -2763 0
2764 2761 2763 0
-2765 -2497 0
-2765 2764 0
2765 2497 -2764 0
-2766 2509 -2765 0
-2766 -2509 2765 0
2766 -2509 -2765 0
2766 2509 2765 0
-2767 2509 0
-2767 -2765 0
2767 -2509 2765 0
-2768 2521 2767 0
-2768 -2521 -2767 0
2768 -2521 2767 0
2768 2521 -2767 0
-2769 2521 0
-2769 2767 0
2769 -2521 -2767 0
-2770 2533 2769 0
-2770 -2533 -2769 0
2770 -2533 2769 0
2770 2533 -2769 0
-2771 2533 0
-2771 2769 0
2771 -2533 -2769 0
-2772 -2545 2771 0
-2772 2545 -2771 0
2772 2545 2771 0
2772 -2545 -2771 0
-2773 2545 0
-2773 2771 0
2773 -2545 -2771 0
-2774 -2771 0
-2774 -2773 0
2774 2771 2773 0
-2775 -2545 0
-2775 2774 0
2775 2545 -2774 0
-2776 2557 -2775 0
-2776 -2557 2775 0
2776 -2557 -2775 0
2776 2557 2775 0
-2777 2557 0
-2777 -2775 0
2777 -2557 2775 0
-2778 -2569 2777 0
-2778 2569 -2777 0
2778 2569 2777 0
2778 -2569 -2777 0
-2779 2569 0
-2779 2777 0
2779 -2569 -2777 0
-2780 -2777 0
-2780 -2779 0
2780 2777 2779 0
-2781 -2569 0
-2781 2780 0
2781 2569 -2780 0
-2782 2581 -2781 0
-2782 -2581 2781 0
2782 -2581 -2781 0
2782 2581 2781 0
-2783 2581 0
-2783 -2781 0
2783 -2581 2781 0
-2784 -2245 -2246 0
-2784 2245 2246 0
2784 2245 -2246 0
2784 -2245 2246 0
-2785 -2245 0
-2785 -2246 0
2785 2245 2246 0
-2786 2692 2592 0
-2786 -2692 -2592 0
2786 -2692 2592 0
2786 2692 -2592 0
-2787 2786 2785 0
-2787 -2786 -2785 0
2787 -2786 2785 0
2787 2786 -2785 0
-2788 2592 0
-2788 2785 0
2788 -2592 -2785 0
-2789 2692 0
-2789 2785 0
2789 -2692 -2785 0
-2790 -2789 0
-2790 -2788 0
2790 2789 2788 0
-2791 2692 0
-2791 2592 0
2791 -2692 -2592 0
-2792 -2791 0
-2792 2790 0
2792 2791 -2790 0
-2793 2696 2594 0
-2793 -2696 -2594 0
2793 -2696 2594 0
2793 2696 -2594 0
-2794 2793 -2792 0
-2794 -2793 2792 0
2794 -2793 -2792 0
2794 2793 2792 0
-2795 2594 0
-2795 -2792 0
2795 -2594 2792 0
-2796 2696 0
-2796 -2792 0
2796 -2696 2792 0
-2797 -2796 0
-2797 -2795 0
2797 2796 2795 0
-2798 2696 0
-2798 2594 0
2798 -2696 -2594 0
-2799 -2798 0
-2799 2797 0
2799 2798 -2797 0
-2800 2700 2598 0
-2800 -2700 -2598 0
2800 -2700 2598 0
2800 2700 -2598 0
-2801 2800 -2799 0
-2801 -2800 2799 0
2801 -2800 -2799 0
2801 2800 2799 0
-2802 2598 0
-2802 -2799 0
2802 -2598 2799 0
-2803 2700 0
-2803 -2799 0
2803 -2700 2799 0
-2804 -2803 0
-2804 -2802 0
2804 2803 2802 0
-2805 2700 0
-2805 2598 0
2805 -2700 -2598 0
-2806 -2805 0
-2806 2804 0
2806 2805 -2804 0
-2807 2704 2600 0
-2807 -2704 -2600 0
2807 -2704 2600 0
2807 2704 -2600 0
-2808 2807 -2806 0
-2808 -2807 2806 0
2808 -2807 -2806 0
2808 2807 2806 0
-2809 2600 0
-2809 -2806 0
2809 -2600 2806 0
-2810 2704 0
-2810 -2806 0
2810 -2704 2806 0
-2811 -2810 0
-2811 -2809 0
2811 2810 2809 0
-2812 2704 0
-2812 2600 0
2812 -2704 -2600 0
-2813 -2812 0
-2813 2811 0
2813 2812 -2811 0
-2814 2708 2602 0
-2814 -2708 -2602 0
2814 -2708 2602 0
2814 2708 -2602 0
-2815 2814 -2813 0
-2815 -2814 2813 0
2815 -2814 -2813 0
2815 2814 2813 0
-2816 2602 0
-2816 -2813 0
2816 -2602 2813 0
-2817 2708 0
-2817 -2813 0
2817 -2708 2813 0
-2818 -2817 0
-2818 -2816 0
2818 2817 2816 0
-2819 2708 0
-2819 2602 0
2819 -2708 -2602 0
-2820 -2819 0
-2820 2818 0
2820 2819 -2818 0
-2821 2712 2606 0
-2821 -2712 -2606 0
2821 -2712 2606 0
2821 2712 -2606 0
-2822 2821 -2820 0
-2822 -2821 2820 0
2822 -2821 -2820 0
2822 2821 2820 0
-2823 2606 0
-2823 -2820 0
2823 -2606 2820 0
-2824 2712 0
-2824 -2820 0
2824 -2712 2820 0
-2825 -2824 0
-2825 -2823 0
2825 2824 2823 0
-2826 2712 0
-2826 2606 0
2826 -2712 -2606 0
-2827 -2826 0
-2827 2825 0
2827 2826 -2825 0
-2828 2716 2608 0
-2828 -2716 -2608 0
2828 -2716 2608 0
2828 2716 -2608 0
-2829 2828 -2827 0
-2829 -2828 2827 0
2829 -2828 -2827 0
2829 2828 2827 0
-2830 2608 0
-2830 -2827 0
2830 -2608 2827 0
-2831 2716 0
-2831 -2827 0
2831 -2716 2827 0
-2832 -2831 0
-2832 -2830 0
2832 2831 2830 0
-2833 2716 0
-2833 2608 0
2833 -2716 -2608 0
-2834 -2833 0
-2834 2832 0
2834 2833 -2832 0
-2835 2718 2612 0
-2835 -2718 -2612 0
2835 -2718 2612 0
2835 2718 -2612 0
-2836 2835 -2834 0
-2836 -2835 2834 0
2836 -2835 -2834 0
2836 2835 2834 0
-2837 2612 0
-2837 -2834 0
2837 -2612 2834 0
-2838 2718 0
-2838 -2834 0
2838 -2718 2834 0
-2839 -2838 0
-2839 -2837 0
2839 2838 2837 0
-2840 2718 0
-2840 2612 0
2840 -2718 -2612 0
-2841 -2840 0
-2841 2839 0
2841 2840 -2839 0
-2842 2720 2616 0
-2842 -2720 -2616 0
2842 -2720 2616 0
2842 2720 -2616 0
-2843 2842 -2841 0
-2843 -2842 2841 0
2843 -2842 -2841 0
2843 2842 2841 0
-2844 2616 0
-2844 -2841 0
2844 -2616 2841 0
-2845 2720 0
-2845 -2841 0
2845 -2720 2841 0
-2846 -2845 0
-2846 -2844 0
2846 2845 2844 0
-2847 2720 0
-2847 2616 0
2847 -2720 -2616 0
-2848 -2847 0
-2848 2846 0
2848 2847 -2846 0
-2849 2724 2620 0
-2849 -2724 -2620 0
2849 -2724 2620 0
2849 2724 -2620 0
-2850 2849 -2848 0
-2850 -2849 2848 0
2850 -2849 -2848 0
2850 2849 2848 0
-2851 2620 0
-2851 -2848 0
2851 -2620 2848 0
-2852 2724 0
-2852 -2848 0
2852 -2724 2848 0
-2853 -2852 0
-2853 -2851 0
2853 2852 2851 0
-2854 2724 0
-2854 2620 0
2854 -2724 -2620 0
-2855 -2854 0
-2855 2853 0
2855 2854 -2853 0
-2856 2726 2622 0
-2856 -2726 -2622 0
2856 -2726 2622 0
2856 2726 -2622 0
-2857 2856 -2855 0
-2857 -2856 2855 0
2857 -2856 -2855 0
2857 2856 2855 0
-2858 2622 0
-2858 -2855 0
2858 -2622 2855 0
-2859 2726 0
-2859 -2855 0
2859 -2726 2855 0
-2860 -2859 0
-2860 -2858 0
2860 2859 2858 0
-2861 2726 0
-2861 2622 0
2861 -2726 -2622 0
-2862 -2861 0
-2862 2860 0
2862 2861 -2860 0
-2863 2728 2626 0
-2863 -2728 -2626 0
2863 -2728 2626 0
2863 2728 -2626 0
-2864 2863 -2862 0
-2864 -2863 2862 0
2864 -2863 -2862 0
2864 2863 2862 0
-2865 2626 0
-2865 -2862 0
2865 -2626 2862 0
-2866 2728 0
-2866 -2862 0
2866 -2728 2862 0
-2867 -2866 0
-2867 -2865 0
2867 2866 2865 0
-2868 2728 0
-2868 2626 0
2868 -2728 -2626 0
-2869 -2868 0
-2869 2867 0
2869 2868 -2867 0
-2870 2732 2630 0
-2870 -2732 -2630 0
2870 -2732 2630 0
2870 2732 -2630 0
-2871 2870 -2869 0
-2871 -2870 2869 0
2871 -2870 -2869 0
2871 2870 2869 0
-2872 2630 0
-2872 -2869 0
2872 -2630 2869 0
-2873 2732 0
-2873 -2869 0
2873 -2732 2869 0
-2874 -2873 0
-2874 -2872 0
2874 2873 2872 0
-2875 2732 0
-2875 2630 0
2875 -2732 -2630 0
-2876 -2875 0
-2876 2874 0
2876 2875 -2874 0
-2877 2734 2632 0
-2877 -2734 -2632 0
2877 -2734 2632 0
2877 2734 -2632 0
-2878 2877 -2876 0
-2878 -2877 2876 0
2878 -2877 -2876 0
2878 2877 2876 0
-2879 2632 0
-2879 -2876 0
2879 -2632 2876 0
-2880 2734 0
-2880 -2876 0
2880 -2734 2876 0
-2881 -2880 0
-2881 -2879 0
2881 2880 2879 0
-2882 2734 0
-2882 2632 0
2882 -2734 -2632 0
-2883 -2882 0
-2883 2881 0
2883 2882 -2881 0
-2884 2738 2636 0
-2884 -2738 -2636 0
2884 -2738 2636 0
2884 2738 -2636 0
-2885 2884 -2883 0
-2885 -2884 2883 0
2885 -2884 -2883 0
2885 2884 2883 0
-2886 2636 0
-2886 -2883 0
2886 -2636 2883 0
-2887 2738 0
-2887 -2883 0
2887 -2738 2883 0
-2888 -2887 0
-2888 -2886 0
2888 2887 2886 0
-2889 2738 0
-2889 2636 0
2889 -2738 -2636 0
-2890 -2889 0
-2890 2888 0
2890 2889 -2888 0
-2891 2740 2640 0
-2891 -2740 -2640 0
2891 -2740 2640 0
2891 2740 -2640 0
-2892 2891 -2890 0
-2892 -2891 2890 0
2892 -2891 -2890 0
2892 2891 2890 0
-2893 2640 0
-2893 -2890 0
2893 -2640 2890 0
-2894 2740 0
-2894 -2890 0
2894 -2740 2890 0
-2895 -2894 0
-2895 -2893 0
2895 2894 2893 0
-2896 2740 0
-2896 2640 0
2896 -2740 -2640 0
-2897 -2896 0
-2897 2895 0
2897 2896 -2895 0
-2898 2742 2644 0
-2898 -2742 -2644 0
2898 -2742 2644 0
2898 2742 -2644 0
-2899 2898 -2897 0
-2899 -2898 2897 0
2899 -2898 -2897 0
2899 2898 2897 0
-2900 2644 0
-2900 -2897 0
2900 -2644 2897 0
-2901 2742 0
-2901 -2897 0
2901 -2742 2897 0
-2902 -2901 0
-2902 -2900 0
2902 2901 2900 0
-2903 2742 0
-2903 2644 0
2903 -2742 -2644 0
-2904 -2903 0
-2904 2902 0
2904 2903 -2902 0
-2905 2746 2646 0
-2905 -2746 -2646 0
2905 -2746 2646 0
2905 2746 -2646 0
-2906 2905 -2904 0
-2906 -2905 2904 0
2906 -2905 -2904 0
2906 2905 2904 0
-2907 2646 0
-2907 -2904 0
2907 -2646 2904 0
-2908 2746 0
-2908 -2904 0
2908 -2746 2904 0
-2909 -2908 0
-2909 -2907 0
2909 2908 2907 0
-2910 2746 0
-2910 2646 0
2910 -2746 -2646 0
-2911 -2910 0
-2911 2909 0
2911 2910 -2909 0
-2912 2750 2650 0
-2912 -2750 -2650 0
2912 -2750 2650 0
2912 2750 -2650 0
-2913 2912 -2911 0
-2913 -2912 2911 0
2913 -2912 -2911 0
2913 2912 2911 0
-2914 2650 0
-2914 -2911 0
2914 -2650 2911 0
-2915 2750 0
-2915 -2911 0
2915 -2750 2911 0
-2916 -2915 0
-2916 -2914 0
2916 2915 2914 0
-2917 2750 0
-2917 2650 0
2917 -2750 -2650 0
-2918 -2917 0
-2918 2916 0
2918 2917 -2916 0
-2919 2754 2652 0
-2919 -2754 -2652 0
2919 -2754 2652 0
2919 2754 -2652 0
-2920 2919 -2918 0
-2920 -2919 2918 0
2920 -2919 -2918 0
2920 2919 2918 0
-2921 2652 0
-2921 -2918 0
2921 -2652 2918 0
-2922 2754 0
-2922 -2918 0
2922 -2754 2918 0
-2923 -2922 0
-2923 -2921 0
2923 2922 2921 0
-2924 2754 0
-2924 2652 0
2924 -2754 -2652 0
-2925 -2924 0
-2925 2923 0
2925 2924 -2923 0
-2926 2756 2656 0
-2926 -2756 -2656 0
2926 -2756 2656 0
2926 2756 -2656 0
-2927 2926 -2925 0
-2927 -2926 2925 0
2927 -2926 -2925 0
2927 2926 2925 0
-2928 2656 0
-2928 -2925 0
2928 -2656 2925 0
-2929 2756 0
-2929 -2925 0
2929 -2756 2925 0
-2930 -2929 0
-2930 -2928 0
2930 2929 2928 0
-2931 2756 0
-2931 2656 0
2931 -2756 -2656 0
-2932 -2931 0
-2932 2930 0
2932 2931 -2930 0
-2933 2758 2660 0
-2933 -2758 -2660 0
2933 -2758 2660 0
2933 2758 -2660 0
-2934 2933 -2932 0
-2934 -2933 2932 0
2934 -2933 -2932 0
2934 2933 2932 0
-2935 2660 0
-2935 -2932 0
2935 -2660 2932 0
-2936 2758 0
-2936 -2932 0
2936 -2758 2932 0
-2937 -2936 0
-2937 -2935 0
2937 2936 2935 0
-2938 2758 0
-2938 2660 0
2938 -2758 -2660 0
-2939 -2938 0
-2939 2937 0
2939 2938 -2937 0
-2940 2760 2662 0
-2940 -2760 -2662 0
2940 -2760 2662 0
2940 2760 -2662 0
-2941 2940 -2939 0
-2941 -2940 2939 0
2941 -2940 -2939 0
2941 2940 2939 0
-2942 2662 0
-2942 -2939 0
2942 -2662 2939 0
-2943 2760 0
-2943 -2939 0
2943 -2760 2939 0
-2944 -2943 0
-2944 -2942 0
2944 2943 2942 0
-2945 2760 0
-2945 2662 0
2945 -2760 -2662 0
-2946 -2945 0
-2946 2944 0
2946 2945 -2944 0
-2947 2762 2666 0
-2947 -2762 -2666 0
2947 -2762 2666 0
2947 2762 -2666 0
-2948 2947 -2946 0
-2948 -2947 2946 0
2948 -2947 -2946 0
2948 2947 2946 0
-2949 2666 0
-2949 -2946 0
2949 -2666 2946 0
-2950 2762 0
-2950 -2946 0
2950 -2762 2946 0
-2951 -2950 0
-2951 -2949 0
2951 2950 2949 0
-2952 2762 0
-2952 2666 0
2952 -2762 -2666 0
-2953 -2952 0
-2953 2951 0
2953 2952 -2951 0
-2954 2766 2670 0
-2954 -2766 -2670 0
2954 -2766 2670 0
2954 2766 -2670 0
-2955 2954 -2953 0
-2955 -2954 2953 0
2955 -2954 -2953 0
2955 2954 2953 0
-2956 2670 0
-2956 -2953 0
2956 -2670 2953 0
-2957 2766 0
-2957 -2953 0
2957 -2766 2953 0
-2958 -2957 0
-2958 -2956 0
2958 2957 2956 0
-2959 2766 0
-2959 2670 0
2959 -2766 -2670 0
-2960 -2959 0
-2960 2958 0
2960 2959 -2958 0
-2961 2768 2672 0
-2961 -2768 -2672 0
2961 -2768 2672 0
2961 2768 -2672 0
-2962 2961 -2960 0
-2962 -2961 2960 0
2962 -2961 -2960 0
2962 2961 2960 0
-2963 2672 0
-2963 -2960 0
2963 -2672 2960 0
-2964 2768 0
-2964 -2960 0
2964 -2768 2960 0
-2965 -2964 0
-2965 -2963 0
2965 2964 2963 0
-2966 2768 0
-2966 2672 0
2966 -2768 -2672 0
-2967 -2966 0
-2967 2965 0
2967 2966 -2965 0
-2968 2770 2674 0
-2968 -2770 -2674 0
2968 -2770 2674 0
2968 2770 -2674 0
-2969 2968 -2967 0
-2969 -2968 2967 0
2969 -2968 -2967 0
2969 2968 2967 0
-2970 2674 0
-2970 -2967 0
2970 -2674 2967 0
-2971 2770 0
-2971 -2967 0
2971 -2770 2967 0
-2972 -2971 0
-2972 -2970 0
2972 2971 2970 0
-2973 2770 0
-2973 2674 0
2973 -2770 -2674 0
-2974 -2973 0
-2974 2972 0
2974 2973 -2972 0
-2975 2772 2678 0
-2975 -2772 -2678 0
2975 -2772 2678 0
2975 2772 -2678 0
-2976 2975 -2974 0
-2976 -2975 2974 0
2976 -2975 -2974 0
2976 2975 2974 0
-2977 2678 0
-2977 -2974 0
2977 -2678 2974 0
-2978 2772 0
-2978 -2974 0
2978 -2772 2974 0
-2979 -2978 0
-2979 -2977 0
2979 2978 2977 0
-2980 2772 0
-2980 2678 0
2980 -2772 -2678 0
-2981 -2980 0
-2981 2979 0
2981 2980 -2979 0
-2982 2776 2680 0
-2982 -2776 -2680 0
2982 -2776 2680 0
2982 2776 -2680 0
-2983 2982 -2981 0
-2983 -2982 2981 0
2983 -2982 -2981 0
2983 2982 2981 0
-2984 2680 0
-2984 -2981 0
2984 -2680 2981 0
-2985 2776 0
-2985 -2981 0
2985 -2776 2981 0
-2986 -2985 0
-2986 -2984 0
2986 2985 2984 0
-2987 2776 0
-2987 2680 0
2987 -2776 -2680 0
-2988 -2987 0
-2988 2986 0
2988 2987 -2986 0
-2989 2778 2684 0
-2989 -2778 -2684 0
2989 -2778 2684 0
2989 2778 -2684 0
-2990 2989 -2988 0
-2990 -2989 2988 0
2990 -2989 -2988 0
2990 2989 2988 0
-2991 2684 0
-2991 -2988 0
2991 -2684 2988 0
-2992 2778 0
-2992 -2988 0
2992 -2778 2988 0
-2993 -2992 0
-2993 -2991 0
2993 2992 2991 0
-2994 2778 0
-2994 2684 0
2994 -2778 -2684 0
-2995 -2994 0
-2995 2993 0
2995 2994 -2993 0
-2996 2782 2688 0
-2996 -2782 -2688 0
2996 -2782 2688 0
2996 2782 -2688 0
-2997 2996 -2995 0
-2997 -2996 2995 0
2997 -2996 -2995 0
2997 2996 2995 0
-2998 2688 0
-2998 -2995 0
2998 -2688 2995 0
-2999 2782 0
-2999 -2995 0
2999 -2782 2995 0
-3000 -2999 0
-3000 -2998 0
3000 2999 2998 0
-3001 2782 0
-3001 2688 0
3001 -2782 -2688 0
-3002 -3001 0
-3002 3000 0
3002 3001 -3000 0
-3003 2248 -2251 0
-3003 -2248 2251 0
3003 -2248 -2251 0
3003 2248 2251 0
-3004 2248 0
-3004 -2251 0
3004 -2248 2251 0
-3005 2257 2258 0
-3005 -2257 -2258 0
3005 -2257 2258 0
3005 2257 -2258 0
-3006 3005 3004 0
-3006 -3005 -3004 0
3006 -3005 3004 0
3006 3005 -3004 0
-3007 2258 0
-3007 3004 0
3007 -2258 -3004 0
-3008 2257 0
-3008 3004 0
3008 -2257 -3004 0
-3009 -3008 0
-3009 -3007 0
3009 3008 3007 0
-3010 2257 0
-3010 2258 0
3010 -2257 -2258 0
-3011 -3010 0
-3011 3009 0
3011 3010 -3009 0
-3012 2263 -2266 0
-3012 -2263 2266 0
3012 -2263 -2266 0
3012 2263 2266 0
-3013 3012 -3011 0
-3013 -3012 3011 0
3013 -3012 -3011 0
3013 3012 3011 0
-3014 -2266 0
-3014 -3011 0
3014 2266 3011 0
-3015 2263 0
-3015 -3011 0
3015 -2263 3011 0
-3016 -3015 0
-3016 -3014 0
3016 3015 3014 0
-3017 2263 0
-3017 -2266 0
3017 -2263 2266 0
-3018 -3017 0
-3018 3016 0
3018 3017 -3016 0
-3019 2271 -2274 0
-3019 -2271 2274 0
3019 -2271 -2274 0
3019 2271 2274 0
-3020 3019 -3018 0
-3020 -3019 3018 0
3020 -3019 -3018 0
3020 3019 3018 0
-3021 -2274 0
-3021 -3018 0
3021 2274 3018 0
-3022 2271 0
-3022 -3018 0
3022 -2271 3018 0
-3023 -3022 0
-3023 -3021 0
3023 3022 3021 0
-3024 2271 0
-3024 -2274 0
3024 -2271 2274 0
-3025 -3024 0
-3025 3023 0
3025 3024 -3023 0
-3026 2279 2280 0
-3026 -2279 -2280 0
3026 -2279 2280 0
3026 2279 -2280 0
-3027 3026 -3025 0
-3027 -3026 3025 0
3027 -3026 -3025 0
3027 3026 3025 0
-3028 2280 0
-3028 -3025 0
3028 -2280 3025 0
-3029 2279 0
-3029 -3025 0
3029 -2279 3025 0
-3030 -3029 0
-3030 -3028 0
3030 3029 3028 0
-3031 2279 0
-3031 2280 0
3031 -2279 -2280 0
-3032 -3031 0
-3032 3030 0
3032 3031 -3030 0
-3033 2286 2287 0
-3033 -2286 -2287 0
3033 -2286 2287 0
3033 2286 -2287 0
-3034 3033 -3032 0
-3034 -3033 3032 0
3034 -3033 -3032 0
3034 3033 3032 0
-3035 2287 0
-3035 -3032 0
3035 -2287 3032 0
-3036 2286 0
-3036 -3032 0
3036 -2286 3032 0
-3037 -3036 0
-3037 -3035 0
3037 3036 3035 0
-3038 2286 0
-3038 2287 0
3038 -2286 -2287 0
-3039 -3038 0
-3039 3037 0
3039 3038 -3037 0
-3040 2292 -2295 0
-3040 -2292 2295 0
3040 -2292 -2295 0
3040 2292 2295 0
-3041 3040 -3039 0
-3041 -3040 3039 0
3041 -3040 -3039 0
3041 3040 3039 0
-3042 -2295 0
-3042 -3039 0
3042 2295 3039 0
-3043 2292 0
-3043 -3039 0
3043 -2292 3039 0
-3044 -3043 0
-3044 -3042 0
3044 3043 3042 0
-3045 2292 0
-3045 -2295 0
3045 -2292 2295 0
-3046 -3045 0
-3046 3044 0
3046 3045 -3044 0
-3047 2300 -2303 0
-3047 -2300 2303 0
3047 -2300 -2303 0
3047 2300 2303 0
-3048 3047 -3046 0
-3048 -3047 3046 0
3048 -3047 -3046 0
3048 3047 3046 0
-3049 -2303 0
-3049 -3046 0
3049 2303 3046 0
-3050 2300 0
-3050 -3046 0
3050 -2300 3046 0
-3051 -3050 0
-3051 -3049 0
3051 3050 3049 0
-3052 2300 0
-3052 -2303 0
3052 -2300 2303 0
-3053 -3052 0
-3053 3051 0
3053 3052 -3051 0
-3054 2310 -2315 0
-3054 -2310 2315 0
3054 -2310 -2315 0
3054 2310 2315 0
-3055 3054 -3053 0
-3055 -3054 3053 0
3055 -3054 -3053 0
3055 3054 3053 0
-3056 -2315 0
-3056 -3053 0
3056 2315 3053 0
-3057 2310 0
-3057 -3053 0
3057 -2310 3053 0
-3058 -3057 0
-3058 -3056 0
3058 3057 3056 0
-3059 2310 0
-3059 -2315 0
3059 -2310 2315 0
-3060 -3059 0
-3060 3058 0
3060 3059 -3058 0
-3061 2322 -2327 0
-3061 -2322 2327 0
3061 -2322 -2327 0
3061 2322 2327 0
-3062 3061 -3060 0
-3062 -3061 3060 0
3062 -3061 -3060 0
3062 3061 3060 0
-3063 -2327 0
-3063 -3060 0
3063 2327 3060 0
-3064 2322 0
-3064 -3060 0
3064 -2322 3060 0
-3065 -3064 0
-3065 -3063 0
3065 3064 3063 0
-3066 2322 0
-3066 -2327 0
3066 -2322 2327 0
-3067 -3066 0
-3067 3065 0
3067 3066 -3065 0
-3068 2334 -2339 0
-3068 -2334 2339 0
3068 -2334 -2339 0
3068 2334 2339 0
-3069 3068 -3067 0
-3069 -3068 3067 0
3069 -3068 -3067 0
3069 3068 3067 0
-3070 -2339 0
-3070 -3067 0
3070 2339 3067 0
-3071 2334 0
-3071 -3067 0
3071 -2334 3067 0
-3072 -3071 0
-3072 -3070 0
3072 3071 3070 0
-3073 2334 0
-3073 -2339 0
3073 -2334 2339 0
-3074 -3073 0
-3074 3072 0
3074 3073 -3072 0
-3075 2346 -2351 0
-3075 -2346 2351 0
3075 -2346 -2351 0
3075 2346 2351 0
-3076 3075 -3074 0
-3076 -3075 3074 0
3076 -3075 -3074 0
3076 3075 3074 0
-3077 -2351 0
-3077 -3074 0
3077 2351 3074 0
-3078 2346 0
-3078 -3074 0
3078 -2346 3074 0
-3079 -3078 0
-3079 -3077 0
3079 3078 3077 0
-3080 2346 0
-3080 -2351 0
3080 -2346 2351 0
-3081 -3080 0
-3081 3079 0
3081 3080 -3079 0
-3082 2358 -2363 0
-3082 -2358 2363 0
3082 -2358 -2363 0
3082 2358 2363 0
-3083 3082 -3081 0
-3083 -3082 3081 0
3083 -3082 -3081 0
3083 3082 3081 0
-3084 -2363 0
-3084 -3081 0
3084 2363 3081 0
-3085 2358 0
-3085 -3081 0
3085 -2358 3081 0
-3086 -3085 0
-3086 -3084 0
3086 3085 3084 0
-3087 2358 0
-3087 -2363 0
3087 -2358 2363 0
-3088 -3087 0
-3088 3086 0
3088 3087 -3086 0
-3089 2370 -2375 0
-3089 -2370 2375 0
3089 -2370 -2375 0
3089 2370 2375 0
-3090 3089 -3088 0
-3090 -3089 3088 0
3090 -3089 -3088 0
3090 3089 3088 0
-3091 -2375 0
-3091 -3088 0
3091 2375 3088 0
-3092 2370 0
-3092 -3088 0
3092 -2370 3088 0
-3093 -3092 0
-3093 -3091 0
3093 3092 3091 0
-3094 2370 0
-3094 -2375 0
3094 -2370 2375 0
-3095 -3094 0
-3095 3093 0
3095 3094 -3093 0
-3096 2382 -2387 0
-3096 -2382 2387 0
3096 -2382 -2387 0
3096 2382 2387 0
-3097 3096 -3095 0
-3097 -3096 3095 0
3097 -3096 -3095 0
3097 3096 3095 0
-3098 -2387 0
-3098 -3095 0
3098 2387 3095 0
-3099 2382 0
-3099 -3095 0
3099 -2382 3095 0
-3100 -3099 0
-3100 -3098 0
3100 3099 3098 0
-3101 2382 0
-3101 -2387 0
3101 -2382 2387 0
-3102 -3101 0
-3102 3100 0
3102 3101 -3100 0
-3103 2394 -2399 0
-3103 -2394 2399 0
3103 -2394 -2399 0
3103 2394 2399 0
-3104 3103 -3102 0
-3104 -3103 3102 0
3104 -3103 -3102 0
3104 3103 3102 0
-3105 -2399 0
-3105 -3102 0
3105 2399 3102 0
-3106 2394 0
-3106 -3102 0
3106 -2394 3102 0
-3107 -3106 0
-3107 -3105 0
3107 3106 3105 0
-3108 2394 0
-3108 -2399 0
3108 -2394 2399 0
-3109 -3108 0
-3109 3107 0
3109 3108 -3107 0
-3110 2406 -2411 0
-3110 -2406 2411 0
3110 -2406 -2411 0
3110 2406 2411 0
-3111 3110 -3109 0
-3111 -3110 3109 0
3111 -3110 -3109 0
3111 3110 3109 0
-3112 -2411 0
-3112 -3109 0
3112 2411 3109 0
-3113 2406 0
-3113 -3109 0
3113 -2406 3109 0
-3114 -3113 0
-3114 -3112 0
3114 3113 3112 0
-3115 2406 0
-3115 -2411 0
3115 -2406 2411 0
-3116 -3115 0
-3116 3114 0
3116 3115 -3114 0
-3117 2418 -2423 0
-3117 -2418 2423 0
3117 -2418 -2423 0
3117 2418 2423 0
-3118 3117 -3116 0
-3118 -3117 3116 0
3118 -3117 -3116 0
3118 3117 3116 0
-3119 -2423 0
-3119 -3116 0
3119 2423 3116 0
-3120 2418 0
-3120 -3116 0
3120 -2418 3116 0
-3121 -3120 0
-3121 -3119 0
3121 3120 3119 0
-3122 2418 0
-3122 -2423 0
3122 -2418 2423 0
-3123 -3122 0
-3123 3121 0
3123 3122 -3121 0
-3124 2430 -2435 0
-3124 -2430 2435 0
3124 -2430 -2435 0
3124 2430 2435 0
-3125 3124 -3123 0
-3125 -3124 3123 0
3125 -3124 -3123 0
3125 3124 3123 0
-3126 -2435 0
-3126 -3123 0
3126 2435 3123 0
-3127 2430 0
-3127 -3123 0
3127 -2430 3123 0
-3128 -3127 0
-3128 -3126 0
3128 3127 3126 0
-3129 2430 0
-3129 -2435 0
3129 -2430 2435 0
-3130 -3129 0
-3130 3128 0
3130 3129 -3128 0
-3131 2442 -2447 0
-3131 -2442 2447 0
3131 -2442 -2447 0
3131 2442 2447 0
-3132 3131 -3130 0
-3132 -3131 3130 0
3132 -3131 -3130 0
3132 3131 3130 0
-3133 -2447 0
-3133 -3130 0
3133 2447 3130 0
-3134 2442 0
-3134 -3130 0
3134 -2442 3130 0
-3135 -3134 0
-3135 -3133 0
3135 3134 3133 0
-3136 2442 0
-3136 -2447 0
3136 -2442 2447 0
-3137 -3136 0
-3137 3135 0
3137 3136 -3135 0
-3138 2454 -2459 0
-3138 -2454 2459 0
3138 -2454 -2459 0
3138 2454 2459 0
-3139 3138 -3137 0
-3139 -3138 3137 0
3139 -3138 -3137 0
3139 3138 3137 0
-3140 -2459 0
-3140 -3137 0
3140 2459 3137 0
-3141 2454 0
-3141 -3137 0
3141 -2454 3137 0
-3142 -3141 0
-3142 -3140 0
3142 3141 3140 0
-3143 2454 0
-3143 -2459 0
3143 -2454 2459 0
-3144 -3143 0
-3144 3142 0
3144 3143 -3142 0
-3145 2466 -2471 0
-3145 -2466 2471 0
3145 -2466 -2471 0
3145 2466 2471 0
-3146 3145 -3144 0
-3146 -3145 3144 0
3146 -3145 -3144 0
3146 3145 3144 0
-3147 -2471 0
-3147 -3144 0
3147 2471 3144 0
-3148 2466 0
-3148 -3144 0
3148 -2466 3144 0
-3149 -3148 0
-3149 -3147 0
3149 3148 3147 0
-3150 2466 0
-3150 -2471 0
3150 -2466 2471 0
-3151 -3150 0
-3151 3149 0
3151 3150 -3149 0
-3152 2478 -2483 0
-3152 -2478 2483 0
3152 -2478 -2483 0
3152 2478 2483 0
-3153 3152 -3151 0
-3153 -3152 3151 0
3153 -3152 -3151 0
3153 3152 3151 0
-3154 -2483 0
-3154 -3151 0
3154 2483 3151 0
-3155 2478 0
-3155 -3151 0
3155 -2478 3151 0
-3156 -3155 0
-3156 -3154 0
3156 3155 3154 0
-3157 2478 0
-3157 -2483 0
3157 -2478 2483 0
-3158 -3157 0
-3158 3156 0
3158 3157 -3156 0
-3159 2490 -2495 0
-3159 -2490 2495 0
3159 -2490 -2495 0
3159 2490 2495 0
-3160 3159 -3158 0
-3160 -3159 3158 0
3160 -3159 -3158 0
3160 3159 3158 0
-3161 -2495 0
-3161 -3158 0
3161 2495 3158 0
-3162 2490 0
-3162 -3158 0
3162 -2490 3158 0
-3163 -3162 0
-3163 -3161 0
3163 3162 3161 0
-3164 2490 0
-3164 -2495 0
3164 -2490 2495 0
-3165 -3164 0
-3165 3163 0
3165 3164 -3163 0
-3166 2502 -2507 0
-3166 -2502 2507 0
3166 -2502 -2507 0
3166 2502 2507 0
-3167 3166 -3165 0
-3167 -3166 3165 0
3167 -3166 -3165 0
3167 3166 3165 0
-3168 -2507 0
-3168 -3165 0
3168 2507 3165 0
-3169 2502 0
-3169 -3165 0
3169 -2502 3165 0
-3170 -3169 0
-3170 -3168 0
3170 3169 3168 0
-3171 2502 0
-3171 -2507 0
3171 -2502 2507 0
-3172 -3171 0
-3172 3170 0
3172 3171 -3170 0
-3173 2514 -2519 0
-3173 -2514 2519 0
3173 -2514 -2519 0
3173 2514 2519 0
-3174 3173 -3172 0
-3174 -3173 3172 0
3174 -3173 -3172 0
3174 3173 3172 0
-3175 -2519 0
-3175 -3172 0
3175 2519 3172 0
-3176 2514 0
-3176 -3172 0
3176 -2514 3172 0
-3177 -3176 0
-3177 -3175 0
3177 3176 3175 0
-3178 2514 0
-3178 -2519 0
3178 -2514 2519 0
-3179 -3178 0
-3179 3177 0
3179 3178 -3177 0
-3180 2526 -2531 0
-3180 -2526 2531 0
3180 -2526 -2531 0
3180 2526 2531 0
-3181 3180 -3179 0
-3181 -3180 3179 0
3181 -3180 -3179 0
3181 3180 3179 0
-3182 -2531 0
-3182 -3179 0
3182 2531 3179 0
-3183 2526 0
-3183 -3179 0
3183 -2526 3179 0
-3184 -3183 0
-3184 -3182 0
3184 3183 3182 0
-3185 2526 0
-3185 -2531 0
3185 -2526 2531 0
-3186 -3185 0
-3186 3184 0
3186 3185 -3184 0
-3187 2538 -2543 0
-3187 -2538 2543 0
3187 -2538 -2543 0
3187 2538 2543 0
-3188 3187 -3186 0
-3188 -3187 3186 0
3188 -3187 -3186 0
3188 3187 3186 0
-3189 -2543 0
-3189 -3186 0
3189 2543 3186 0
-3190 2538 0
-3190 -3186 0
3190 -2538 3186 0
-3191 -3190 0
-3191 -3189 0
3191 3190 3189 0
-3192 2538 0
-3192 -2543 0
3192 -2538 2543 0
-3193 -3192 0
-3193 3191 0
3193 3192 -3191 0
-3194 2550 -2555 0
-3194 -2550 2555 0
3194 -2550 -2555 0
3194 2550 2555 0
-3195 3194 -3193 0
-3195 -3194 3193 0
3195 -3194 -3193 0
3195 3194 3193 0
-3196 -2555 0
-3196 -3193 0
3196 2555 3193 0
-3197 2550 0
-3197 -3193 0
3197 -2550 3193 0
-3198 -3197 0
-3198 -3196 0
3198 3197 3196 0
-3199 2550 0
-3199 -2555 0
3199 -2550 2555 0
-3200 -3199 0
-3200 3198 0
3200 3199 -3198 0
-3201 2562 -2567 0
-3201 -2562 2567 0
3201 -2562 -2567 0
3201 2562 2567 0
-3202 3201 -3200 0
-3202 -3201 3200 0
3202 -3201 -3200 0
3202 3201 3200 0
-3203 -2567 0
-3203 -3200 0
3203 2567 3200 0
-3204 2562 0
-3204 -3200 0
3204 -2562 3200 0
-3205 -3204 0
-3205 -3203 0
3205 3204 3203 0
-3206 2562 0
-3206 -2567 0
3206 -2562 2567 0
-3207 -3206 0
-3207 3205 0
3207 3206 -3205 0
-3208 2574 -2579 0
-3208 -2574 2579 0
3208 -2574 -2579 0
3208 2574 2579 0
-3209 3208 -3207 0
-3209 -3208 3207 0
3209 -3208 -3207 0
3209 3208 3207 0
-3210 -2579 0
-3210 -3207 0
3210 2579 3207 0
-3211 2574 0
-3211 -3207 0
3211 -2574 3207 0
-3212 -3211 0
-3212 -3210 0
3212 3211 3210 0
-3213 2574 0
-3213 -2579 0
3213 -2574 2579 0
-3214 -3213 0
-3214 3212 0
3214 3213 -3212 0
-3215 2586 -2591 0
-3215 -2586 2591 0
3215 -2586 -2591 0
3215 2586 2591 0
-3216 3215 -3214 0
-3216 -3215 3214 0
3216 -3215 -3214 0
3216 3215 3214 0
-3217 -2591 0
-3217 -3214 0
3217 2591 3214 0
-3218 2586 0
-3218 -3214 0
3218 -2586 3214 0
-3219 -3218 0
-3219 -3217 0
3219 3218 3217 0
-3220 2586 0
-3220 -2591 0
3220 -2586 2591 0
-3221 -3220 0
-3221 3219 0
3221 3220 -3219 0
-3222 -2787 2784 0
-3222 2787 -2784 0
3222 2787 2784 0
3222 -2787 -2784 0
-3223 2787 0
-3223 2784 0
3223 -2787 -2784 0
-3224 -2784 0
-3224 -3223 0
3224 2784 3223 0
-3225 -2787 0
-3225 3224 0
3225 2787 -3224 0
-3226 -2794 -3225 0
-3226 2794 3225 0
3226 2794 -3225 0
3226 -2794 3225 0
-3227 2794 0
-3227 -3225 0
3227 -2794 3225 0
-3228 3225 0
-3228 -3227 0
3228 -3225 3227 0
-3229 -2794 0
-3229 3228 0
3229 2794 -3228 0
-3230 2801 -3229 0
-3230 -2801 3229 0
3230 -2801 -3229 0
3230 2801 3229 0
-3231 2801 0
-3231 -3229 0
3231 -2801 3229 0
-3232 2808 3231 0
-3232 -2808 -3231 0
3232 -2808 3231 0
3232 2808 -3231 0
-3233 2808 0
-3233 3231 0
3233 -2808 -3231 0
-3234 -2815 3233 0
-3234 2815 -3233 0
3234 2815 3233 0
3234 -2815 -3233 0
-3235 2815 0
-3235 3233 0
3235 -2815 -3233 0
-3236 -3233 0
-3236 -3235 0
3236 3233 3235 0
-3237 -2815 0
-3237 3236 0
3237 2815 -3236 0
-3238 -2822 -3237 0
-3238 2822 3237 0
3238 2822 -3237 0
3238 -2822 3237 0
-3239 2822 0
-3239 -3237 0
3239 -2822 3237 0
-3240 3237 0
-3240 -3239 0
3240 -3237 3239 0
-3241 -2822 0
-3241 3240 0
3241 2822 -3240 0
-3242 2829 -3241 0
-3242 -2829 3241 0
3242 -2829 -3241 0
3242 2829 3241 0
-3243 2829 0
-3243 -3241 0
3243 -2829 3241 0
-3244 2836 3243 0
-3244 -2836 -3243 0
3244 -2836 3243 0
3244 2836 -3243 0
-3245 2836 0
-3245 3243 0
3245 -2836 -3243 0
-3246 -2843 3245 0
-3246 2843 -3245 0
3246 2843 3245 0
3246 -2843 -3245 0
-3247 2843 0
-3247 3245 0
3247 -2843 -3245 0
-3248 -3245 0
-3248 -3247 0
3248 3245 3247 0
-3249 -2843 0
-3249 3248 0
3249 2843 -3248 0
-3250 -2850 -3249 0
-3250 2850 3249 0
3250 2850 -3249 0
3250 -2850 3249 0
-3251 2850 0
-3251 -3249 0
3251 -2850 3249 0
-3252 3249 0
-3252 -3251 0
3252 -3249 3251 0
-3253 -2850 0
-3253 3252 0
3253 2850 -3252 0
-3254 2857 -3253 0
-3254 -2857 3253 0
3254 -2857 -3253 0
3254 2857 3253 0
-3255 2857 0
-3255 -3253 0
3255 -2857 3253 0
-3256 2864 3255 0
-3256 -2864 -3255 0
3256 -2864 3255 0
3256 2864 -3255 0
-3257 2864 0
-3257 3255 0
3257 -2864 -3255 0
-3258 -2871 3257 0
-3258 2871 -3257 0
3258 2871 3257 0
3258 -2871 -3257 0
-3259 2871 0
-3259 3257 0
3259 -2871 -3257 0
-3260 -3257 0
-3260 -3259 0
3260 3257 3259 0
-3261 -2871 0
-3261 3260 0
3261 2871 -3260 0
-3262 -2878 -3261 0
-3262 2878 3261 0
3262 2878 -3261 0
3262 -2878 3261 0
-3263 2878 0
-3263 -3261 0
3263 -2878 3261 0
-3264 3261 0
-3264 -3263 0
3264 -3261 3263 0
-3265 -2878 0
-3265 3264 0
3265 2878 -3264 0
-3266 -2885 -3265 0
-3266 2885 3265 0
3266 2885 -3265 0
3266 -2885 3265 0
-3267 2885 0
-3267 -3265 0
3267 -2885 3265 0
-3268 3265 0
-3268 -3267 0
3268 -3265 3267 0
-3269 -2885 0
-3269 3268 0
3269 2885 -3268 0
-3270 -2892 -3269 0
-3270 2892 3269 0
3270 2892 -3269 0
3270 -2892 3269 0
-3271 2892 0
-3271 -3269 0
3271 -2892 3269 0
-3272 3269 0
-3272 -3271 0
3272 -3269 3271 0
-3273 -2892 0
-3273 3272 0
3273 2892 -3272 0
-3274 2899 -3273 0
-3274 -2899 3273 0
3274 -2899 -3273 0
3274 2899 3273 0
-3275 2899 0
-3275 -3273 0
3275 -2899 3273 0
-3276 2906 3275 0
-3276 -2906 -3275 0
3276 -2906 3275 0
3276 2906 -3275 0
-3277 2906 0
-3277 3275 0
3277 -2906 -3275 0
-3278 -2913 3277 0
-3278 2913 -3277 0
3278 2913 3277 0
3278 -2913 -3277 0
-3279 2913 0
-3279 3277 0
3279 -2913 -3277 0
-3280 -3277 0
-3280 -3279 0
3280 3277 3279 0
-3281 -2913 0
-3281 3280 0
3281 2913 -3280 0
-3282 2920 -3281 0
-3282 -2920 3281 0
3282 -2920 -3281 0
3282 2920 3281 0
-3283 2920 0
-3283 -3281 0
3283 -2920 3281 0
-3284 2927 3283 0
-3284 -2927 -3283 0
3284 -2927 3283 0
3284 2927 -3283 0
-3285 2927 0
-3285 3283 0
3285 -2927 -3283 0
-3286 2934 3285 0
-3286 -2934 -3285 0
3286 -2934 3285 0
3286 2934 -3285 0
-3287 2934 0
-3287 3285 0
3287 -2934 -3285 0
-3288 2941 3287 0
-3288 -2941 -3287 0
3288 -2941 3287 0
3288 2941 -3287 0
-3289 2941 0
-3289 3287 0
3289 -2941 -3287 0
-3290 2948 3289 0
-3290 -2948 -3289 0
3290 -2948 3289 0
3290 2948 -3289 0
-3291 2948 0
-3291 3289 0
3291 -2948 -3289 0
-3292 -2955 3291 0
-3292 2955 -3291 0
3292 2955 3291 0
3292 -2955 -3291 0
-3293 2955 0
-3293 3291 0
3293 -2955 -3291 0
-3294 -3291 0
-3294 -3293 0
3294 3291 3293 0
-3295 -2955 0
-3295 3294 0
3295 2955 -3294 0
-3296 2962 -3295 0
-3296 -2962 3295 0
3296 -2962 -3295 0
3296 2962 3295 0
-3297 2962 0
-3297 -3295 0
3297 -2962 3295 0
-3298 -2969 3297 0
-3298 2969 -3297 0
3298 2969 3297 0
3298 -2969 -3297 0
-3299 2969 0
-3299 3297 0
3299 -2969 -3297 0
-3300 -3297 0
-3300 -3299 0
3300 3297 3299 0
-3301 -2969 0
-3301 3300 0
3301 2969 -3300 0
-3302 2976 -3301 0
-3302 -2976 3301 0
3302 -2976 -3301 0
3302 2976 3301 0
-3303 2976 0
-3303 -3301 0
3303 -2976 3301 0
-3304 -2983 3303 0
-3304 2983 -3303 0
3304 2983 3303 0
3304 -2983 -3303 0
-3305 2983 0
-3305 3303 0
3305 -2983 -3303 0
-3306 -3303 0
-3306 -3305 0
3306 3303 3305 0
-3307 -2983 0
-3307 3306 0
3307 2983 -3306 0
-3308 -2990 -3307 0
-3308 2990 3307 0
3308 2990 -3307 0
3308 -2990 3307 0
-3309 2990 0
-3309 -3307 0
3309 -2990 3307 0
-3310 3307 0
-3310 -3309 0
3310 -3307 3309 0
-3311 -2990 0
-3311 3310 0
3311 2990 -3310 0
-3312 2997 -3311 0
-3312 -2997 3311 0
3312 -2997 -3311 0
3312 2997 3311 0
-3313 2997 0
-3313 -3311 0
3313 -2997 3311 0
-3314 2784 3003 0
-3314 -2784 -3003 0
3314 -2784 3003 0
3314 2784 -3003 0
-3315 2784 0
-3315 3003 0
3315 -2784 -3003 0
-3316 2787 3006 0
-3316 -2787 -3006 0
3316 -2787 3006 0
3316 2787 -3006 0
-3317 3316 3315 0
-3317 -3316 -3315 0
3317 -3316 3315 0
3317 3316 -3315 0
-3318 3006 0
-3318 3315 0
3318 -3006 -3315 0
-3319 2787 0
-3319 3315 0
3319 -2787 -3315 0
-3320 -3319 0
-3320 -3318 0
3320 3319 3318 0
-3321 2787 0
-3321 3006 0
3321 -2787 -3006 0
-3322 -3321 0
-3322 3320 0
3322 3321 -3320 0
-3323 2794 3013 0
-3323 -2794 -3013 0
3323 -2794 3013 0
3323 2794 -3013 0
-3324 3323 -3322 0
-3324 -3323 3322 0
3324 -3323 -3322 0
3324 3323 3322 0
-3325 3013 0
-3325 -3322 0
3325 -3013 3322 0
-3326 2794 0
-3326 -3322 0
3326 -2794 3322 0
-3327 -3326 0
-3327 -3325 0
3327 3326 3325 0
-3328 2794 0
-3328 3013 0
3328 -2794 -3013 0
-3329 -3328 0
-3329 3327 0
3329 3328 -3327 0
-3330 2801 3020 0
-3330 -2801 -3020 0
3330 -2801 3020 0
3330 2801 -3020 0
-3331 3330 -3329 0
-3331 -3330 3329 0
3331 -3330 -3329 0
3331 3330 3329 0
-3332 3020 0
-3332 -3329 0
3332 -3020 3329 0
-3333 2801 0
-3333 -3329 0
3333 -2801 3329 0
-3334 -3333 0
-3334 -3332 0
3334 3333 3332 0
-3335 2801 0
-3335 3020 0
3335 -2801 -3020 0
-3336 -3335 0
-3336 3334 0
3336 3335 -3334 0
-3337 2808 3027 0
-3337 -2808 -3027 0
3337 -2808 3027 0
3337 2808 -3027 0
-3338 3337 -3336 0
-3338 -3337 3336 0
3338 -3337 -3336 0
3338 3337 3336 0
-3339 3027 0
-3339 -3336 0
3339 -3027 3336 0
-3340 2808 0
-3340 -3336 0
3340 -2808 3336 0
-3341 -3340 0
-3341 -3339 0
3341 3340 3339 0
-3342 2808 0
-3342 3027 0
3342 -2808 -3027 0
-3343 -3342 0
-3343 3341 0
3343 3342 -3341 0
-3344 2815 3034 0
-3344 -2815 -3034 0
3344 -2815 3034 0
3344 2815 -3034 0
-3345 3344 -3343 0
-3345 -3344 3343 0
3345 -3344 -3343 0
3345 3344 3343 0
-3346 3034 0
-3346 -3343 0
3346 -3034 3343 0
-3347 2815 0
-3347 -3343 0
3347 -2815 3343 0
-3348 -3347 0
-3348 -3346 0
3348 3347 3346 0
-3349 2815 0
-3349 3034 0
3349 -2815 -3034 0
-3350 -3349 0
-3350 3348 0
3350 3349 -3348 0
-3351 2822 3041 0
-3351 -2822 -3041 0
3351 -2822 3041 0
3351 2822 -3041 0
-3352 3351 -3350 0
-3352 -3351 3350 0
3352 -3351 -3350 0
3352 3351 3350 0
-3353 3041 0
-3353 -3350 0
3353 -3041 3350 0
-3354 2822 0
-3354 -3350 0
3354 -2822 3350 0
-3355 -3354 0
-3355 -3353 0
3355 3354 3353 0
-3356 2822 0
-3356 3041 0
3356 -2822 -3041 0
-3357 -3356 0
-3357 3355 0
3357 3356 -3355 0
-3358 2829 3048 0
-3358 -2829 -3048 0
3358 -2829 3048 0
3358 2829 -3048 0
-3359 3358 -3357 0
-3359 -3358 3357 0
3359 -3358 -3357 0
3359 3358 3357 0
-3360 3048 0
-3360 -3357 0
3360 -3048 3357 0
-3361 2829 0
-3361 -3357 0
3361 -2829 3357 0
-3362 -3361 0
-3362 -3360 0
3362 3361 3360 0
-3363 2829 0
-3363 3048 0
3363 -2829 -3048 0
-3364 -3363 0
-3364 3362 0
3364 3363 -3362 0
-3365 2836 3055 0
-3365 -2836 -3055 0
3365 -2836 3055 0
3365 2836 -3055 0
-3366 3365 -3364 0
-3366 -3365 3364 0
3366 -3365 -3364 0
3366 3365 3364 0
-3367 3055 0
-3367 -3364 0
3367 -3055 3364 0
-3368 2836 0
-3368 -3364 0
3368 -2836 3364 0
-3369 -3368 0
-3369 -3367 0
3369 3368 3367 0
-3370 2836 0
-3370 3055 0
3370 -2836 -3055 0
-3371 -3370 0
-3371 3369 0
3371 3370 -3369 0
-3372 2843 3062 0
-3372 -2843 -3062 0
3372 -2843 3062 0
3372 2843 -3062 0
-3373 3372 -3371 0
-3373 -3372 3371 0
3373 -3372 -3371 0
3373 3372 3371 0
-3374 3062 0
-3374 -3371 0
3374 -3062 3371 0
-3375 2843 0
-3375 -3371 0
3375 -2843 3371 0
-3376 -3375 0
-3376 -3374 0
3376 3375 3374 0
-3377 2843 0
-3377 3062 0
3377 -2843 -3062 0
-3378 -3377 0
-3378 3376 0
3378 3377 -3376 0
-3379 2850 3069 0
-3379 -2850 -3069 0
3379 -2850 3069 0
3379 2850 -3069 0
-3380 3379 -3378 0
-3380 -3379 3378 0
3380 -3379 -3378 0
3380 3379 3378 0
-3381 3069 0
-3381 -3378 0
3381 -3069 3378 0
-3382 2850 0
-3382 -3378 0
3382 -2850 3378 0
-3383 -3382 0
-3383 -3381 0
3383 3382 3381 0
-3384 2850 0
-3384 3069 0
3384 -2850 -3069 0
-3385 -3384 0
-3385 3383 0
3385 3384 -3383 0
-3386 2857 3076 0
-3386 -2857 -3076 0
3386 -2857 3076 0
3386 2857 -3076 0
-3387 3386 -3385 0
-3387 -3386 3385 0
3387 -3386 -3385 0
3387 3386 3385 0
-3388 3076 0
-3388 -3385 0
3388 -3076 3385 0
-3389 2857 0
-3389 -3385 0
3389 -2857 3385 0
-3390 -3389 0
-3390 -3388 0
3390 3389 3388 0
-3391 2857 0
-3391 3076 0
3391 -2857 -3076 0
-3392 -3391 0
-3392 3390 0
3392 3391 -3390 0
-3393 2864 3083 0
-3393 -2864 -3083 0
3393 -2864 3083 0
3393 2864 -3083 0
-3394 3393 -3392 0
-3394 -3393 3392 0
3394 -3393 -3392 0
3394 3393 3392 0
-3395 3083 0
-3395 -3392 0
3395 -3083 3392 0
-3396 2864 0
-3396 -3392 0
3396 -2864 3392 0
-3397 -3396 0
-3397 -3395 0
3397 3396 3395 0
-3398 2864 0
-3398 3083 0
3398 -2864 -3083 0
-3399 -3398 0
-3399 3397 0
3399 3398 -3397 0
-3400 2871 3090 0
-3400 -2871 -3090 0
3400 -2871 3090 0
3400 2871 -3090 0
-3401 3400 -3399 0
-3401 -3400 3399 0
3401 -3400 -3399 0
3401 3400 3399 0
-3402 3090 0
-3402 -3399 0
3402 -3090 3399 0
-3403 2871 0
-3403 -3399 0
3403 -2871 3399 0
-3404 -3403 0
-3404 -3402 0
3404 3403 3402 0
-3405 2871 0
-3405 3090 0
3405 -2871 -3090 0
-3406 -3405 0
-3406 3404 0
3406 3405 -3404 0
-3407 2878 3097 0
-3407 -2878 -3097 0
3407 -2878 3097 0
3407 2878 -3097 0
-3408 3407 -3406 0
-3408 -3407 3406 0
3408 -3407 -3406 0
3408 3407 3406 0
-3409 3097 0
-3409 -3406 0
3409 -3097 3406 0
-3410 2878 0
-3410 -3406 0
3410 -2878 3406 0
-3411 -3410 0
-3411 -3409 0
3411 3410 3409 0
-3412 2878 0
-3412 3097 0
3412 -2878 -3097 0
-3413 -3412 0
-3413 3411 0
3413 3412 -3411 0
-3414 2885 3104 0
-3414 -2885 -3104 0
3414 -2885 3104 0
3414 2885 -3104 0
-3415 3414 -3413 0
-3415 -3414 3413 0
3415 -3414 -3413 0
3415 3414 3413 0
-3416 3104 0
-3416 -3413 0
3416 -3104 3413 0
-3417 2885 0
-3417 -3413 0
3417 -2885 3413 0
-3418 -3417 0
-3418 -3416 0
3418 3417 3416 0
-3419 2885 0
-3419 3104 0
3419 -2885 -3104 0
-3420 -3419 0
-3420 3418 0
3420 3419 -3418 0
-3421 2892 3111 0
-3421 -2892 -3111 0
3421 -2892 3111 0
3421 2892 -3111 0
-3422 3421 -3420 0
-3422 -3421 3420 0
3422 -3421 -3420 0
3422 3421 3420 0
-3423 3111 0
-3423 -3420 0
3423 -3111 3420 0
-3424 2892 0
-3424 -3420 0
3424 -2892 3420 0
-3425 -3424 0
-3425 -3423 0
3425 3424 3423 0
-3426 2892 0
-3426 3111 0
3426 -2892 -3111 0
-3427 -3426 0
-3427 3425 0
3427 3426 -3425 0
-3428 2899 3118 0
-3428 -2899 -3118 0
3428 -2899 3118 0
3428 2899 -3118 0
-3429 3428 -3427 0
-3429 -3428 3427 0
3429 -3428 -3427 0
3429 3428 3427 0
-3430 3118 0
-3430 -3427 0
3430 -3118 3427 0
-3431 2899 0
-3431 -3427 0
3431 -2899 3427 0
-3432 -3431 0
-3432 -3430 0
3432 3431 3430 0
-3433 2899 0
-3433 3118 0
3433 -2899 -3118 0
-3434 -3433 0
-3434 3432 0
3434 3433 -3432 0
-3435 2906 3125 0
-3435 -2906 -3125 0
3435 -2906 3125 0
3435 2906 -3125 0
-3436 3435 -3434 0
-3436 -3435 3434 0
3436 -3435 -3434 0
3436 3435 3434 0
-3437 3125 0
-3437 -3434 0
3437 -3125 3434 0
-3438 2906 0
-3438 -3434 0
3438 -2906 3434 0
-3439 -3438 0
-3439 -3437 0
3439 3438 3437 0
-3440 2906 0
-3440 3125 0
3440 -2906 -3125 0
-3441 -3440 0
-3441 3439 0
3441 3440 -3439 0
-3442 2913 3132 0
-3442 -2913 -3132 0
3442 -2913 3132 0
3442 2913 -3132 0
-3443 3442 -3441 0
-3443 -3442 3441 0
3443 -3442 -3441 0
3443 3442 3441 0
-3444 3132 0
-3444 -3441 0
3444 -3132 3441 0
-3445 2913 0
-3445 -3441 0
3445 -2913 3441 0
-3446 -3445 0
-3446 -3444 0
3446 3445 3444 0
-3447 2913 0
-3447 3132 0
3447 -2913 -3132 0
-3448 -3447 0
-3448 3446 0
3448 3447 -3446 0
-3449 2920 3139 0
-3449 -2920 -3139 0
3449 -2920 3139 0
3449 2920 -3139 0
-3450 3449 -3448 0
-3450 -3449 3448 0
3450 -3449 -3448 0
3450 3449 3448 0
-3451 3139 0
-3451 -3448 0
3451 -3139 3448 0
-3452 2920 0
-3452 -3448 0
3452 -2920 3448 0
-3453 -3452 0
-3453 -3451 0
3453 3452 3451 0
-3454 2920 0
-3454 3139 0
3454 -2920 -3139 0
-3455 -3454 0
-3455 3453 0
3455 3454 -3453 0
-3456 2927 3146 0
-3456 -2927 -3146 0
3456 -2927 3146 0
3456 2927 -3146 0
-3457 3456 -3455 0
-3457 -3456 3455 0
3457 -3456 -3455 0
3457 3456 3455 0
-3458 3146 0
-3458 -3455 0
3458 -3146 3455 0
-3459 2927 0
-3459 -3455 0
3459 -2927 3455 0
-3460 -3459 0
-3460 -3458 0
3460 3459 3458 0
-3461 2927 0
-3461 3146 0
3461 -2927 -3146 0
-3462 -3461 0
-3462 3460 0
3462 3461 -3460 0
-3463 2934 3153 0
-3463 -2934 -3153 0
3463 -2934 3153 0
3463 2934 -3153 0
-3464 3463 -3462 0
-3464 -3463 3462 0
3464 -3463 -3462 0
3464 3463 3462 0
-3465 3153 0
-3465 -3462 0
3465 -3153 3462 0
-3466 2934 0
-3466 -3462 0
3466 -2934 3462 0
-3467 -3466 0
-3467 -3465 0
3467 3466 3465 0
-3468 2934 0
-3468 3153 0
3468 -2934 -3153 0
-3469 -3468 0
-3469 3467 0
3469 3468 -3467 0
-3470 2941 3160 0
-3470 -2941 -3160 0
3470 -2941 3160 0
3470 2941 -3160 0
-3471 3470 -3469 0
-3471 -3470 3469 0
3471 -3470 -3469 0
3471 3470 3469 0
-3472 3160 0
-3472 -3469 0
3472 -3160 3469 0
-3473 2941 0
-3473 -3469 0
3473 -2941 3469 0
-3474 -3473 0
-3474 -3472 0
3474 3473 3472 0
-3475 2941 0
-3475 3160 0
3475 -2941 -3160 0
-3476 -3475 0
-3476 3474 0
3476 3475 -3474 0
-3477 2948 3167 0
-3477 -2948 -3167 0
3477 -2948 3167 0
3477 2948 -3167 0
-3478 3477 -3476 0
-3478 -3477 3476 0
3478 -3477 -3476 0
3478 3477 3476 0
-3479 3167 0
-3479 -3476 0
3479 -3167 3476 0
-3480 2948 0
-3480 -3476 0
3480 -2948 3476 0
-3481 -3480 0
-3481 -3479 0
3481 3480 3479 0
-3482 2948 0
-3482 3167 0
3482 -2948 -3167 0
-3483 -3482 0
-3483 3481 0
3483 3482 -3481 0
-3484 2955 3174 0
-3484 -2955 -3174 0
3484 -2955 3174 0
3484 2955 -3174 0
-3485 3484 -3483 0
-3485 -3484 3483 0
3485 -3484 -3483 0
3485 3484 3483 0
-3486 3174 0
-3486 -3483 0
3486 -3174 3483 0
-3487 2955 0
-3487 -3483 0
3487 -2955 3483 0
-3488 -3487 0
-3488 -3486 0
3488 3487 3486 0
-3489 2955 0
-3489 3174 0
3489 -2955 -3174 0
-3490 -3489 0
-3490 3488 0
3490 3489 -3488 0
-3491 2962 3181 0
-3491 -2962 -3181 0
3491 -2962 3181 0
3491 2962 -3181 0
-3492 3491 -3490 0
-3492 -3491 3490 0
3492 -3491 -3490 0
3492 3491 3490 0
-3493 3181 0
-3493 -3490 0
3493 -3181 3490 0
-3494 2962 0
-3494 -3490 0
3494 -2962 3490 0
-3495 -3494 0
-3495 -3493 0
3495 3494 3493 0
-3496 2962 0
-3496 3181 0
3496 -2962 -3181 0
-3497 -3496 0
-3497 3495 0
3497 3496 -3495 0
-3498 2969 3188 0
-3498 -2969 -3188 0
3498 -2969 3188 0
3498 2969 -3188 0
-3499 3498 -3497 0
-3499 -3498 3497 0
3499 -3498 -3497 0
3499 3498 3497 0
-3500 3188 0
-3500 -3497 0
3500 -3188 3497 0
-3501 2969 0
-3501 -3497 0
3501 -2969 3497 0
-3502 -3501 0
-3502 -3500 0
3502 3501 3500 0
-3503 2969 0
-3503 3188 0
3503 -2969 -3188 0
-3504 -3503 0
-3504 3502 0
3504 3503 -3502 0
-3505 2976 3195 0
-3505 -2976 -3195 0
3505 -2976 3195 0
3505 2976 -3195 0
-3506 3505 -3504 0
-3506 -3505 3504 0
3506 -3505 -3504 0
3506 3505 3504 0
-3507 3195 0
-3507 -3504 0
3507 -3195 3504 0
-3508 2976 0
-3508 -3504 0
3508 -2976 3504 0
-3509 -3508 0
-3509 -3507 0
3509 3508 3507 0
-3510 2976 0
-3510 3195 0
3510 -2976 -3195 0
-3511 -3510 0
-3511 3509 0
3511 3510 -3509 0
-3512 2983 3202 0
-3512 -2983 -3202 0
3512 -2983 3202 0
3512 2983 -3202 0
-3513 3512 -3511 0
-3513 -3512 3511 0
3513 -3512 -3511 0
3513 3512 3511 0
-3514 3202 0
-3514 -3511 0
3514 -3202 3511 0
-3515 2983 0
-3515 -3511 0
3515 -2983 3511 0
-3516 -3515 0
-3516 -3514 0
3516 3515 3514 0
-3517 2983 0
-3517 3202 0
3517 -2983 -3202 0
-3518 -3517 0
-3518 3516 0
3518 3517 -3516 0
-3519 2990 3209 0
-3519 -2990 -3209 0
3519 -2990 3209 0
3519 2990 -3209 0
-3520 3519 -3518 0
-3520 -3519 3518 0
3520 -3519 -3518 0
3520 3519 3518 0
-3521 3209 0
-3521 -3518 0
3521 -3209 3518 0
-3522 2990 0
-3522 -3518 0
3522 -2990 3518 0
-3523 -3522 0
-3523 -3521 0
3523 3522 3521 0
-3524 2990 0
-3524 3209 0
3524 -2990 -3209 0
-3525 -3524 0
-3525 3523 0
3525 3524 -3523 0
-3526 2997 3216 0
-3526 -2997 -3216 0
3526 -2997 3216 0
3526 2997 -3216 0
-3527 3526 -3525 0
-3527 -3526 3525 0
3527 -3526 -3525 0
3527 3526 3525 0
-3528 3216 0
-3528 -3525 0
3528 -3216 3525 0
-3529 2997 0
-3529 -3525 0
3529 -2997 3525 0
-3530 -3529 0
-3530 -3528 0
3530 3529 3528 0
-3531 2997 0
-3531 3216 0
3531 -2997 -3216 0
-3532 -3531 0
-3532 3530 0
3532 3531 -3530 0
-3533 3238 3254 0
-3533 -3238 -3254 0
3533 -3238 3254 0
3533 3238 -3254 0
-3534 3533 3292 0
-3534 -3533 -3292 0
3534 -3533 3292 0
3534 3533 -3292 0
-3535 2784 0
-3535 341 0
3535 -2784 -341 0
-3536 -2784 0
-3536 -1502 0
3536 2784 1502 0
-3537 3536 3535 0
-3537 -3536 -3535 0
3537 -3536 3535 0
3537 3536 -3535 0
-3538 3324 3401 0
-3538 -3324 -3401 0
3538 -3324 3401 0
3538 3324 -3401 0
-3539 3538 3464 0
-3539 -3538 -3464 0
3539 -3538 3464 0
3539 3538 -3464 0
-3540 2025 0
-3540 914 0
3540 -2025 -914 0
-3541 3314 0
-3541 914 0
3541 -3314 -914 0
-3542 -3541 0
-3542 -3540 0
3542 3541 3540 0
-3543 3314 0
-3543 2025 0
3543 -3314 -2025 0
-3544 -3543 0
-3544 3542 0
3544 3543 -3542 0
-3545 3242 3256 0
-3545 -3242 -3256 0
3545 -3242 3256 0
3545 3242 -3256 0
-3546 3545 3296 0
-3546 -3545 -3296 0
3546 -3545 3296 0
3546 3545 -3296 0
-3547 -3222 0
-3547 -521 0
3547 3222 521 0
-3548 3222 0
-3548 1927 0
3548 -3222 -1927 0
-3549 3548 3547 0
-3549 -3548 -3547 0
3549 -3548 3547 0
3549 3548 -3547 0
-3550 3331 3408 0
-3550 -3331 -3408 0
3550 -3331 3408 0
3550 3331 -3408 0
-3551 3550 3471 0
-3551 -3550 -3471 0
3551 -3550 3471 0
3551 3550 -3471 0
-3552 2028 0
-3552 917 0
3552 -2028 -917 0
-3553 3317 0
-3553 917 0
3553 -3317 -917 0
-3554 -3553 0
-3554 -3552 0
3554 3553 3552 0
-3555 3317 0
-3555 2028 0
3555 -3317 -2028 0
-3556 -3555 0
-3556 3554 0
3556 3555 -3554 0
-3557 3244 3258 0
-3557 -3244 -3258 0
3557 -3244 3258 0
3557 3244 -3258 0
-3558 3557 3298 0
-3558 -3557 -3298 0
3558 -3557 3298 0
3558 3557 -3298 0
-3559 -3226 0
-3559 818 0
3559 3226 -818 0
-3560 3226 0
-3560 1929 0
3560 -3226 -1929 0
-3561 3560 3559 0
-3561 -3560 -3559 0
3561 -3560 3559 0
3561 3560 -3559 0
-3562 3338 3415 0
-3562 -3338 -3415 0
3562 -3338 3415 0
3562 3338 -3415 0
-3563 3562 3478 0
-3563 -3562 -3478 0
3563 -3562 3478 0
3563 3562 -3478 0
-3564 2035 0
-3564 924 0
3564 -2035 -924 0
-3565 3324 0
-3565 924 0
3565 -3324 -924 0
-3566 -3565 0
-3566 -3564 0
3566 3565 3564 0
-3567 3324 0
-3567 2035 0
3567 -3324 -2035 0
-3568 -3567 0
-3568 3566 0
3568 3567 -3566 0
-3569 3246 3262 0
-3569 -3246 -3262 0
3569 -3246 3262 0
3569 3246 -3262 0
-3570 3569 3302 0
-3570 -3569 -3302 0
3570 -3569 3302 0
3570 3569 -3302 0
-3571 -3230 0
-3571 820 0
3571 3230 -820 0
-3572 3230 0
-3572 1933 0
3572 -3230 -1933 0
-3573 3572 3571 0
-3573 -3572 -3571 0
3573 -3572 3571 0
3573 3572 -3571 0
-3574 3345 3422 0
-3574 -3345 -3422 0
3574 -3345 3422 0
3574 3345 -3422 0
-3575 3574 3485 0
-3575 -3574 -3485 0
3575 -3574 3485 0
3575 3574 -3485 0
-3576 2042 0
-3576 931 0
3576 -2042 -931 0
-3577 3331 0
-3577 931 0
3577 -3331 -931 0
-3578 -3577 0
-3578 -3576 0
3578 3577 3576 0
-3579 3331 0
-3579 2042 0
3579 -3331 -2042 0
-3580 -3579 0
-3580 3578 0
3580 3579 -3578 0
-3581 3250 3266 0
-3581 -3250 -3266 0
3581 -3250 3266 0
3581 3250 -3266 0
-3582 3581 3304 0
-3582 -3581 -3304 0
3582 -3581 3304 0
3582 3581 -3304 0
-3583 -3232 0
-3583 822 0
3583 3232 -822 0
-3584 3232 0
-3584 1935 0
3584 -3232 -1935 0
-3585 3584 3583 0
-3585 -3584 -3583 0
3585 -3584 3583 0
3585 3584 -3583 0
-3586 3352 3429 0
-3586 -3352 -3429 0
3586 -3352 3429 0
3586 3352 -3429 0
-3587 3586 3492 0
-3587 -3586 -3492 0
3587 -3586 3492 0
3587 3586 -3492 0
-3588 2049 0
-3588 938 0
3588 -2049 -938 0
-3589 3338 0
-3589 938 0
3589 -3338 -938 0
-3590 -3589 0
-3590 -3588 0
3590 3589 3588 0
-3591 3338 0
-3591 2049 0
3591 -3338 -2049 0
-3592 -3591 0
-3592 3590 0
3592 3591 -3590 0
-3593 3254 3270 0
-3593 -3254 -3270 0
3593 -3254 3270 0
3593 3254 -3270 0
-3594 3593 3308 0
-3594 -3593 -3308 0
3594 -3593 3308 0
3594 3593 -3308 0
-3595 -3234 0
-3595 826 0
3595 3234 -826 0
-3596 3234 0
-3596 1937 0
3596 -3234 -1937 0
-3597 3596 3595 0
-3597 -3596 -3595 0
3597 -3596 3595 0
3597 3596 -3595 0
-3598 3359 3436 0
-3598 -3359 -3436 0
3598 -3359 3436 0
3598 3359 -3436 0
-3599 3598 3499 0
-3599 -3598 -3499 0
3599 -3598 3499 0
3599 3598 -3499 0
-3600 2056 0
-3600 945 0
3600 -2056 -945 0
-3601 3345 0
-3601 945 0
3601 -3345 -945 0
-3602 -3601 0
-3602 -3600 0
3602 3601 3600 0
-3603 3345 0
-3603 2056 0
3603 -3345 -2056 0
-3604 -3603 0
-3604 3602 0
3604 3603 -3602 0
-3605 3256 3274 0
-3605 -3256 -3274 0
3605 -3256 3274 0
3605 3256 -3274 0
-3606 3605 3312 0
-3606 -3605 -3312 0
3606 -3605 3312 0
3606 3605 -3312 0
-3607 -3238 0
-3607 830 0
3607 3238 -830 0
-3608 3238 0
-3608 1939 0
3608 -3238 -1939 0
-3609 3608 3607 0
-3609 -3608 -3607 0
3609 -3608 3607 0
3609 3608 -3607 0
-3610 3366 3443 0
-3610 -3366 -3443 0
3610 -3366 3443 0
3610 3366 -3443 0
-3611 3610 3506 0
-3611 -3610 -3506 0
3611 -3610 3506 0
3611 3610 -3506 0
-3612 2063 0
-3612 952 0
3612 -2063 -952 0
-3613 3352 0
-3613 952 0
3613 -3352 -952 0
-3614 -3613 0
-3614 -3612 0
3614 3613 3612 0
-3615 3352 0
-3615 2063 0
3615 -3352 -2063 0
-3616 -3615 0
-3616 3614 0
3616 3615 -3614 0
-3617 3258 3276 0
-3617 -3258 -3276 0
3617 -3258 3276 0
3617 3258 -3276 0
-3618 3617 -2784 0
-3618 -3617 2784 0
3618 -3617 -2784 0
3618 3617 2784 0
-3619 -3242 0
-3619 834 0
3619 3242 -834 0
-3620 3242 0
-3620 1941 0
3620 -3242 -1941 0
-3621 3620 3619 0
-3621 -3620 -3619 0
3621 -3620 3619 0
3621 3620 -3619 0
-3622 3373 3450 0
-3622 -3373 -3450 0
3622 -3373 3450 0
3622 3373 -3450 0
-3623 3622 3513 0
-3623 -3622 -3513 0
3623 -3622 3513 0
3623 3622 -3513 0
-3624 2070 0
-3624 959 0
3624 -2070 -959 0
-3625 3359 0
-3625 959 0
3625 -3359 -959 0
-3626 -3625 0
-3626 -3624 0
3626 3625 3624 0
-3627 3359 0
-3627 2070 0
3627 -3359 -2070 0
-3628 -3627 0
-3628 3626 0
3628 3627 -3626 0
-3629 3262 3278 0
-3629 -3262 -3278 0
3629 -3262 3278 0
3629 3262 -3278 0
-3630 3629 3222 0
-3630 -3629 -3222 0
3630 -3629 3222 0
3630 3629 -3222 0
-3631 -3244 0
-3631 836 0
3631 3244 -836 0
-3632 3244 0
-3632 1945 0
3632 -3244 -1945 0
-3633 3632 3631 0
-3633 -3632 -3631 0
3633 -3632 3631 0
3633 3632 -3631 0
-3634 3380 3457 0
-3634 -3380 -3457 0
3634 -3380 3457 0
3634 3380 -3457 0
-3635 3634 3520 0
-3635 -3634 -3520 0
3635 -3634 3520 0
3635 3634 -3520 0
-3636 2077 0
-3636 966 0
3636 -2077 -966 0
-3637 3366 0
-3637 966 0
3637 -3366 -966 0
-3638 -3637 0
-3638 -3636 0
3638 3637 3636 0
-3639 3366 0
-3639 2077 0
3639 -3366 -2077 0
-3640 -3639 0
-3640 3638 0
3640 3639 -3638 0
-3641 3266 3282 0
-3641 -3266 -3282 0
3641 -3266 3282 0
3641 3266 -3282 0
-3642 3641 3226 0
-3642 -3641 -3226 0
3642 -3641 3226 0
3642 3641 -3226 0
-3643 -3246 0
-3643 840 0
3643 3246 -840 0
-3644 3246 0
-3644 1947 0
3644 -3246 -1947 0
-3645 3644 3643 0
-3645 -3644 -3643 0
3645 -3644 3643 0
3645 3644 -3643 0
-3646 3387 3464 0
-3646 -3387 -3464 0
3646 -3387 3464 0
3646 3387 -3464 0
-3647 3646 3527 0
-3647 -3646 -3527 0
3647 -3646 3527 0
3647 3646 -3527 0
-3648 2084 0
-3648 973 0
3648 -2084 -973 0
-3649 3373 0
-3649 973 0
3649 -3373 -973 0
-3650 -3649 0
-3650 -3648 0
3650 3649 3648 0
-3651 3373 0
-3651 2084 0
3651 -3373 -2084 0
-3652 -3651 0
-3652 3650 0
3652 3651 -3650 0
-3653 3270 3284 0
-3653 -3270 -3284 0
3653 -3270 3284 0
3653 3270 -3284 0
-3654 3653 3230 0
-3654 -3653 -3230 0
3654 -3653 3230 0
3654 3653 -3230 0
-3655 -3250 0
-3655 844 0
3655 3250 -844 0
-3656 3250 0
-3656 1951 0
3656 -3250 -1951 0
-3657 3656 3655 0
-3657 -3656 -3655 0
3657 -3656 3655 0
3657 3656 -3655 0
-3658 3394 3471 0
-3658 -3394 -3471 0
3658 -3394 3471 0
3658 3394 -3471 0
-3659 3658 3314 0
-3659 -3658 -3314 0
3659 -3658 3314 0
3659 3658 -3314 0
-3660 2091 0
-3660 980 0
3660 -2091 -980 0
-3661 3380 0
-3661 980 0
3661 -3380 -980 0
-3662 -3661 0
-3662 -3660 0
3662 3661 3660 0
-3663 3380 0
-3663 2091 0
3663 -3380 -2091 0
-3664 -3663 0
-3664 3662 0
3664 3663 -3662 0
-3665 3274 3286 0
-3665 -3274 -3286 0
3665 -3274 3286 0
3665 3274 -3286 0
-3666 3665 3232 0
-3666 -3665 -3232 0
3666 -3665 3232 0
3666 3665 -3232 0
-3667 -3254 0
-3667 846 0
3667 3254 -846 0
-3668 3254 0
-3668 1955 0
3668 -3254 -1955 0
-3669 3668 3667 0
-3669 -3668 -3667 0
3669 -3668 3667 0
3669 3668 -3667 0
-3670 3401 3478 0
-3670 -3401 -3478 0
3670 -3401 3478 0
3670 3401 -3478 0
-3671 3670 3317 0
-3671 -3670 -3317 0
3671 -3670 3317 0
3671 3670 -3317 0
-3672 2098 0
-3672 987 0
3672 -2098 -987 0
-3673 3387 0
-3673 987 0
3673 -3387 -987 0
-3674 -3673 0
-3674 -3672 0
3674 3673 3672 0
-3675 3387 0
-3675 2098 0
3675 -3387 -2098 0
-3676 -3675 0
-3676 3674 0
3676 3675 -3674 0
-3677 3276 3288 0
-3677 -3276 -3288 0
3677 -3276 3288 0
3677 3276 -3288 0
-3678 3677 3234 0
-3678 -3677 -3234 0
3678 -3677 3234 0
3678 3677 -3234 0
-3679 -3256 0
-3679 848 0
3679 3256 -848 0
-3680 3256 0
-3680 1959 0
3680 -3256 -1959 0
-3681 3680 3679 0
-3681 -3680 -3679 0
3681 -3680 3679 0
3681 3680 -3679 0
-3682 3408 3485 0
-3682 -3408 -3485 0
3682 -3408 3485 0
3682 3408 -3485 0
-3683 3682 3324 0
-3683 -3682 -3324 0
3683 -3682 3324 0
3683 3682 -3324 0
-3684 2105 0
-3684 994 0
3684 -2105 -994 0
-3685 3394 0
-3685 994 0
3685 -3394 -994 0
-3686 -3685 0
-3686 -3684 0
3686 3685 3684 0
-3687 3394 0
-3687 2105 0
3687 -3394 -2105 0
-3688 -3687 0
-3688 3686 0
3688 3687 -3686 0
-3689 3278 3290 0
-3689 -3278 -3290 0
3689 -3278 3290 0
3689 3278 -3290 0
-3690 3689 3238 0
-3690 -3689 -3238 0
3690 -3689 3238 0
3690 3689 -3238 0
-3691 -3258 0
-3691 852 0
3691 3258 -852 0
-3692 3258 0
-3692 1961 0
3692 -3258 -1961 0
-3693 3692 3691 0
-3693 -3692 -3691 0
3693 -3692 3691 0
3693 3692 -3691 0
-3694 3415 3492 0
-3694 -3415 -3492 0
3694 -3415 3492 0
3694 3415 -3492 0
-3695 3694 3331 0
-3695 -3694 -3331 0
3695 -3694 3331 0
3695 3694 -3331 0
-3696 2112 0
-3696 1001 0
3696 -2112 -1001 0
-3697 3401 0
-3697 1001 0
3697 -3401 -1001 0
-3698 -3697 0
-3698 -3696 0
3698 3697 3696 0
-3699 3401 0
-3699 2112 0
3699 -3401 -2112 0
-3700 -3699 0
-3700 3698 0
3700 3699 -3698 0
-3701 3282 3292 0
-3701 -3282 -3292 0
3701 -3282 3292 0
3701 3282 -3292 0
-3702 3701 3242 0
-3702 -3701 -3242 0
3702 -3701 3242 0
3702 3701 -3242 0
-3703 -3262 0
-3703 856 0
3703 3262 -856 0
-3704 3262 0
-3704 1965 0
3704 -3262 -1965 0
-3705 3704 3703 0
-3705 -3704 -3703 0
3705 -3704 3703 0
3705 3704 -3703 0
-3706 3422 3499 0
-3706 -3422 -3499 0
3706 -3422 3499 0
3706 3422 -3499 0
-3707 3706 3338 0
-3707 -3706 -3338 0
3707 -3706 3338 0
3707 3706 -3338 0
-3708 2119 0
-3708 1008 0
3708 -2119 -1008 0
-3709 3408 0
-3709 1008 0
3709 -3408 -1008 0
-3710 -3709 0
-3710 -3708 0
3710 3709 3708 0
-3711 3408 0
-3711 2119 0
3711 -3408 -2119 0
-3712 -3711 0
-3712 3710 0
3712 3711 -3710 0
-3713 3284 3296 0
-3713 -3284 -3296 0
3713 -3284 3296 0
3713 3284 -3296 0
-3714 3713 3244 0
-3714 -3713 -3244 0
3714 -3713 3244 0
3714 3713 -3244 0
-3715 -3266 0
-3715 860 0
3715 3266 -860 0
-3716 3266 0
-3716 1967 0
3716 -3266 -1967 0
-3717 3716 3715 0
-3717 -3716 -3715 0
3717 -3716 3715 0
3717 3716 -3715 0
-3718 3429 3506 0
-3718 -3429 -3506 0
3718 -3429 3506 0
3718 3429 -3506 0
-3719 3718 3345 0
-3719 -3718 -3345 0
3719 -3718 3345 0
3719 3718 -3345 0
-3720 2126 0
-3720 1015 0
3720 -2126 -1015 0
-3721 3415 0
-3721 1015 0
3721 -3415 -1015 0
-3722 -3721 0
-3722 -3720 0
3722 3721 3720 0
-3723 3415 0
-3723 2126 0
3723 -3415 -2126 0
-3724 -3723 0
-3724 3722 0
3724 3723 -3722 0
-3725 3286 3298 0
-3725 -3286 -3298 0
3725 -3286 3298 0
3725 3286 -3298 0
-3726 3725 3246 0
-3726 -3725 -3246 0
3726 -3725 3246 0
3726 3725 -3246 0
-3727 -3270 0
-3727 864 0
3727 3270 -864 0
-3728 3270 0
-3728 1971 0
3728 -3270 -1971 0
-3729 3728 3727 0
-3729 -3728 -3727 0
3729 -3728 3727 0
3729 3728 -3727 0
-3730 3436 3513 0
-3730 -3436 -3513 0
3730 -3436 3513 0
3730 3436 -3513 0
-3731 3730 3352 0
-3731 -3730 -3352 0
3731 -3730 3352 0
3731 3730 -3352 0
-3732 2133 0
-3732 1022 0
3732 -2133 -1022 0
-3733 3422 0
-3733 1022 0
3733 -3422 -1022 0
-3734 -3733 0
-3734 -3732 0
3734 3733 3732 0
-3735 3422 0
-3735 2133 0
3735 -3422 -2133 0
-3736 -3735 0
-3736 3734 0
3736 3735 -3734 0
-3737 3288 3302 0
-3737 -3288 -3302 0
3737 -3288 3302 0
3737 3288 -3302 0
-3738 3737 3250 0
-3738 -3737 -3250 0
3738 -3737 3250 0
3738 3737 -3250 0
-3739 -3274 0
-3739 866 0
3739 3274 -866 0
-3740 3274 0
-3740 1975 0
3740 -3274 -1975 0
-3741 3740 3739 0
-3741 -3740 -3739 0
3741 -3740 3739 0
3741 3740 -3739 0
-3742 3443 3520 0
-3742 -3443 -3520 0
3742 -3443 3520 0
3742 3443 -3520 0
-3743 3742 3359 0
-3743 -3742 -3359 0
3743 -3742 3359 0
3743 3742 -3359 0
-3744 2140 0
-3744 1029 0
3744 -2140 -1029 0
-3745 3429 0
-3745 1029 0
3745 -3429 -1029 0
-3746 -3745 0
-3746 -3744 0
3746 3745 3744 0
-3747 3429 0
-3747 2140 0
3747 -3429 -2140 0
-3748 -3747 0
-3748 3746 0
3748 3747 -3746 0
-3749 3290 3304 0
-3749 -3290 -3304 0
3749 -3290 3304 0
3749 3290 -3304 0
-3750 3749 3254 0
-3750 -3749 -3254 0
3750 -3749 3254 0
3750 3749 -3254 0
-3751 -3276 0
-3751 870 0
3751 3276 -870 0
-3752 3276 0
-3752 1979 0
3752 -3276 -1979 0
-3753 3752 3751 0
-3753 -3752 -3751 0
3753 -3752 3751 0
3753 3752 -3751 0
-3754 3450 3527 0
-3754 -3450 -3527 0
3754 -3450 3527 0
3754 3450 -3527 0
-3755 3754 3366 0
-3755 -3754 -3366 0
3755 -3754 3366 0
3755 3754 -3366 0
-3756 2147 0
-3756 1036 0
3756 -2147 -1036 0
-3757 3436 0
-3757 1036 0
3757 -3436 -1036 0
-3758 -3757 0
-3758 -3756 0
3758 3757 3756 0
-3759 3436 0
-3759 2147 0
3759 -3436 -2147 0
-3760 -3759 0
-3760 3758 0
3760 3759 -3758 0
-3761 3292 3308 0
-3761 -3292 -3308 0
3761 -3292 3308 0
3761 3292 -3308 0
-3762 3761 3256 0
-3762 -3761 -3256 0
3762 -3761 3256 0
3762 3761 -3256 0
-3763 -3278 0
-3763 874 0
3763 3278 -874 0
-3764 3278 0
-3764 1983 0
3764 -3278 -1983 0
-3765 3764 3763 0
-3765 -3764 -3763 0
3765 -3764 3763 0
3765 3764 -3763 0
-3766 3457 3314 0
-3766 -3457 -3314 0
3766 -3457 3314 0
3766 3457 -3314 0
-3767 3766 3373 0
-3767 -3766 -3373 0
3767 -3766 3373 0
3767 3766 -3373 0
-3768 2154 0
-3768 1043 0
3768 -2154 -1043 0
-3769 3443 0
-3769 1043 0
3769 -3443 -1043 0
-3770 -3769 0
-3770 -3768 0
3770 3769 3768 0
-3771 3443 0
-3771 2154 0
3771 -3443 -2154 0
-3772 -3771 0
-3772 3770 0
3772 3771 -3770 0
-3773 3296 3312 0
-3773 -3296 -3312 0
3773 -3296 3312 0
3773 3296 -3312 0
-3774 3773 3258 0
-3774 -3773 -3258 0
3774 -3773 3258 0
3774 3773 -3258 0
-3775 -3282 0
-3775 878 0
3775 3282 -878 0
-3776 3282 0
-3776 1985 0
3776 -3282 -1985 0
-3777 3776 3775 0
-3777 -3776 -3775 0
3777 -3776 3775 0
3777 3776 -3775 0
-3778 3464 3317 0
-3778 -3464 -3317 0
3778 -3464 3317 0
3778 3464 -3317 0
-3779 3778 3380 0
-3779 -3778 -3380 0
3779 -3778 3380 0
3779 3778 -3380 0
-3780 2161 0
-3780 1050 0
3780 -2161 -1050 0
-3781 3450 0
-3781 1050 0
3781 -3450 -1050 0
-3782 -3781 0
-3782 -3780 0
3782 3781 3780 0
-3783 3450 0
-3783 2161 0
3783 -3450 -2161 0
-3784 -3783 0
-3784 3782 0
3784 3783 -3782 0
-3785 3298 -2784 0
-3785 -3298 2784 0
3785 -3298 -2784 0
3785 3298 2784 0
-3786 3785 3262 0
-3786 -3785 -3262 0
3786 -3785 3262 0
3786 3785 -3262 0
-3787 -3284 0
-3787 880 0
3787 3284 -880 0
-3788 3284 0
-3788 1987 0
3788 -3284 -1987 0
-3789 3788 3787 0
-3789 -3788 -3787 0
3789 -3788 3787 0
3789 3788 -3787 0
-3790 3471 3324 0
-3790 -3471 -3324 0
3790 -3471 3324 0
3790 3471 -3324 0
-3791 3790 3387 0
-3791 -3790 -3387 0
3791 -3790 3387 0
3791 3790 -3387 0
-3792 2168 0
-3792 1057 0
3792 -2168 -1057 0
-3793 3457 0
-3793 1057 0
3793 -3457 -1057 0
-3794 -3793 0
-3794 -3792 0
3794 3793 3792 0
-3795 3457 0
-3795 2168 0
3795 -3457 -2168 0
-3796 -3795 0
-3796 3794 0
3796 3795 -3794 0
-3797 3302 3222 0
-3797 -3302 -3222 0
3797 -3302 3222 0
3797 3302 -3222 0
-3798 3797 3266 0
-3798 -3797 -3266 0
3798 -3797 3266 0
3798 3797 -3266 0
-3799 -3286 0
-3799 884 0
3799 3286 -884 0
-3800 3286 0
-3800 1991 0
3800 -3286 -1991 0
-3801 3800 3799 0
-3801 -3800 -3799 0
3801 -3800 3799 0
3801 3800 -3799 0
-3802 3478 3331 0
-3802 -3478 -3331 0
3802 -3478 3331 0
3802 3478 -3331 0
-3803 3802 3394 0
-3803 -3802 -3394 0
3803 -3802 3394 0
3803 3802 -3394 0
-3804 2175 0
-3804 1064 0
3804 -2175 -1064 0
-3805 3464 0
-3805 1064 0
3805 -3464 -1064 0
-3806 -3805 0
-3806 -3804 0
3806 3805 3804 0
-3807 3464 0
-3807 2175 0
3807 -3464 -2175 0
-3808 -3807 0
-3808 3806 0
3808 3807 -3806 0
-3809 3304 3226 0
-3809 -3304 -3226 0
3809 -3304 3226 0
3809 3304 -3226 0
-3810 3809 3270 0
-3810 -3809 -3270 0
3810 -3809 3270 0
3810 3809 -3270 0
-3811 -3288 0
-3811 888 0
3811 3288 -888 0
-3812 3288 0
-3812 1995 0
3812 -3288 -1995 0
-3813 3812 3811 0
-3813 -3812 -3811 0
3813 -3812 3811 0
3813 3812 -3811 0
-3814 3485 3338 0
-3814 -3485 -3338 0
3814 -3485 3338 0
3814 3485 -3338 0
-3815 3814 3401 0
-3815 -3814 -3401 0
3815 -3814 3401 0
3815 3814 -3401 0
-3816 2182 0
-3816 1071 0
3816 -2182 -1071 0
-3817 3471 0
-3817 1071 0
3817 -3471 -1071 0
-3818 -3817 0
-3818 -3816 0
3818 3817 3816 0
-3819 3471 0
-3819 2182 0
3819 -3471 -2182 0
-3820 -3819 0
-3820 3818 0
3820 3819 -3818 0
-3821 3308 3230 0
-3821 -3308 -3230 0
3821 -3308 3230 0
3821 3308 -3230 0
-3822 3821 3274 0
-3822 -3821 -3274 0
3822 -3821 3274 0
3822 3821 -3274 0
-3823 -3290 0
-3823 890 0
3823 3290 -890 0
-3824 3290 0
-3824 1997 0
3824 -3290 -1997 0
-3825 3824 3823 0
-3825 -3824 -3823 0
3825 -3824 3823 0
3825 3824 -3823 0
-3826 3492 3345 0
-3826 -3492 -3345 0
3826 -3492 3345 0
3826 3492 -3345 0
-3827 3826 3408 0
-3827 -3826 -3408 0
3827 -3826 3408 0
3827 3826 -3408 0
-3828 2189 0
-3828 1078 0
3828 -2189 -1078 0
-3829 3478 0
-3829 1078 0
3829 -3478 -1078 0
-3830 -3829 0
-3830 -3828 0
3830 3829 3828 0
-3831 3478 0
-3831 2189 0
3831 -3478 -2189 0
-3832 -3831 0
-3832 3830 0
3832 3831 -3830 0
-3833 3312 3232 0
-3833 -3312 -3232 0
3833 -3312 3232 0
3833 3312 -3232 0
-3834 3833 3276 0
-3834 -3833 -3276 0
3834 -3833 3276 0
3834 3833 -3276 0
-3835 -3292 0
-3835 892 0
3835 3292 -892 0
-3836 3292 0
-3836 2001 0
3836 -3292 -2001 0
-3837 3836 3835 0
-3837 -3836 -3835 0
3837 -3836 3835 0
3837 3836 -3835 0
-3838 3499 3352 0
-3838 -3499 -3352 0
3838 -3499 3352 0
3838 3499 -3352 0
-3839 3838 3415 0
-3839 -3838 -3415 0
3839 -3838 3415 0
3839 3838 -3415 0
-3840 2196 0
-3840 1085 0
3840 -2196 -1085 0
-3841 3485 0
-3841 1085 0
3841 -3485 -1085 0
-3842 -3841 0
-3842 -3840 0
3842 3841 3840 0
-3843 3485 0
-3843 2196 0
3843 -3485 -2196 0
-3844 -3843 0
-3844 3842 0
3844 3843 -3842 0
-3845 -2784 3234 0
-3845 2784 -3234 0
3845 2784 3234 0
3845 -2784 -3234 0
-3846 3845 3278 0
-3846 -3845 -3278 0
3846 -3845 3278 0
3846 3845 -3278 0
-3847 -3296 0
-3847 894 0
3847 3296 -894 0
-3848 3296 0
-3848 2005 0
3848 -3296 -2005 0
-3849 3848 3847 0
-3849 -3848 -3847 0
3849 -3848 3847 0
3849 3848 -3847 0
-3850 3506 3359 0
-3850 -3506 -3359 0
3850 -3506 3359 0
3850 3506 -3359 0
-3851 3850 3422 0
-3851 -3850 -3422 0
3851 -3850 3422 0
3851 3850 -3422 0
-3852 2203 0
-3852 1092 0
3852 -2203 -1092 0
-3853 3492 0
-3853 1092 0
3853 -3492 -1092 0
-3854 -3853 0
-3854 -3852 0
3854 3853 3852 0
-3855 3492 0
-3855 2203 0
3855 -3492 -2203 0
-3856 -3855 0
-3856 3854 0
3856 3855 -3854 0
-3857 3222 3238 0
-3857 -3222 -3238 0
3857 -3222 3238 0
3857 3222 -3238 0
-3858 3857 3282 0
-3858 -3857 -3282 0
3858 -3857 3282 0
3858 3857 -3282 0
-3859 -3298 0
-3859 898 0
3859 3298 -898 0
-3860 3298 0
-3860 2007 0
3860 -3298 -2007 0
-3861 3860 3859 0
-3861 -3860 -3859 0
3861 -3860 3859 0
3861 3860 -3859 0
-3862 3513 3366 0
-3862 -3513 -3366 0
3862 -3513 3366 0
3862 3513 -3366 0
-3863 3862 3429 0
-3863 -3862 -3429 0
3863 -3862 3429 0
3863 3862 -3429 0
-3864 2210 0
-3864 1099 0
3864 -2210 -1099 0
-3865 3499 0
-3865 1099 0
3865 -3499 -1099 0
-3866 -3865 0
-3866 -3864 0
3866 3865 3864 0
-3867 3499 0
-3867 2210 0
3867 -3499 -2210 0
-3868 -3867 0
-3868 3866 0
3868 3867 -3866 0
-3869 3226 3242 0
-3869 -3226 -3242 0
3869 -3226 3242 0
3869 3226 -3242 0
-3870 3869 3284 0
-3870 -3869 -3284 0
3870 -3869 3284 0
3870 3869 -3284 0
-3871 -3302 0
-3871 902 0
3871 3302 -902 0
-3872 3302 0
-3872 2011 0
3872 -3302 -2011 0
-3873 3872 3871 0
-3873 -3872 -3871 0
3873 -3872 3871 0
3873 3872 -3871 0
-3874 3520 3373 0
-3874 -3520 -3373 0
3874 -3520 3373 0
3874 3520 -3373 0
-3875 3874 3436 0
-3875 -3874 -3436 0
3875 -3874 3436 0
3875 3874 -3436 0
-3876 2217 0
-3876 1106 0
3876 -2217 -1106 0
-3877 3506 0
-3877 1106 0
3877 -3506 -1106 0
-3878 -3877 0
-3878 -3876 0
3878 3877 3876 0
-3879 3506 0
-3879 2217 0
3879 -3506 -2217 0
-3880 -3879 0
-3880 3878 0
3880 3879 -3878 0
-3881 3230 3244 0
-3881 -3230 -3244 0
3881 -3230 3244 0
3881 3230 -3244 0
-3882 3881 3286 0
-3882 -3881 -3286 0
3882 -3881 3286 0
3882 3881 -3286 0
-3883 -3304 0
-3883 906 0
3883 3304 -906 0
-3884 3304 0
-3884 2015 0
3884 -3304 -2015 0
-3885 3884 3883 0
-3885 -3884 -3883 0
3885 -3884 3883 0
3885 3884 -3883 0
-3886 3527 3380 0
-3886 -3527 -3380 0
3886 -3527 3380 0
3886 3527 -3380 0
-3887 3886 3443 0
-3887 -3886 -3443 0
3887 -3886 3443 0
3887 3886 -3443 0
-3888 2224 0
-3888 1113 0
3888 -2224 -1113 0
-3889 3513 0
-3889 1113 0
3889 -3513 -1113 0
-3890 -3889 0
-3890 -3888 0
3890 3889 3888 0
-3891 3513 0
-3891 2224 0
3891 -3513 -2224 0
-3892 -3891 0
-3892 3890 0
3892 3891 -3890 0
-3893 3232 3246 0
-3893 -3232 -3246 0
3893 -3232 3246 0
3893 3232 -3246 0
-3894 3893 3288 0
-3894 -3893 -3288 0
3894 -3893 3288 0
3894 3893 -3288 0
-3895 -3308 0
-3895 910 0
3895 3308 -910 0
-3896 3308 0
-3896 2019 0
3896 -3308 -2019 0
-3897 3896 3895 0
-3897 -3896 -3895 0
3897 -3896 3895 0
3897 3896 -3895 0
-3898 3314 3387 0
-3898 -3314 -3387 0
3898 -3314 3387 0
3898 3314 -3387 0
-3899 3898 3450 0
-3899 -3898 -3450 0
3899 -3898 3450 0
3899 3898 -3450 0
-3900 2231 0
-3900 1120 0
3900 -2231 -1120 0
-3901 3520 0
-3901 1120 0
3901 -3520 -1120 0
-3902 -3901 0
-3902 -3900 0
3902 3901 3900 0
-3903 3520 0
-3903 2231 0
3903 -3520 -2231 0
-3904 -3903 0
-3904 3902 0
3904 3903 -3902 0
-3905 3234 3250 0
-3905 -3234 -3250 0
3905 -3234 3250 0
3905 3234 -3250 0
-3906 3905 3290 0
-3906 -3905 -3290 0
3906 -3905 3290 0
3906 3905 -3290 0
-3907 -3312 0
-3907 912 0
3907 3312 -912 0
-3908 3312 0
-3908 2021 0
3908 -3312 -2021 0
-3909 3908 3907 0
-3909 -3908 -3907 0
3909 -3908 3907 0
3909 3908 -3907 0
-3910 3317 3394 0
-3910 -3317 -3394 0
3910 -3317 3394 0
3910 3317 -3394 0
-3911 3910 3457 0
-3911 -3910 -3457 0
3911 -3910 3457 0
3911 3910 -3457 0
-3912 2238 0
-3912 1127 0
3912 -2238 -1127 0
-3913 3527 0
-3913 1127 0
3913 -3527 -1127 0
-3914 -3913 0
-3914 -3912 0
3914 3913 3912 0
-3915 3527 0
-3915 2238 0
3915 -3527 -2238 0
-3916 -3915 0
-3916 3914 0
3916 3915 -3914 0
-3917 -3549 3537 0
-3917 3549 -3537 0
3917 3549 3537 0
3917 -3549 -3537 0
-3918 3549 0
-3918 3537 0
3918 -3549 -3537 0
-3919 -3918 0
-3919 -3537 0
3919 3918 3537 0
-3920 -3549 0
-3920 3919 0
3920 3549 -3919 0
-3921 3561 -3920 0
-3921 -3561 3920 0
3921 -3561 -3920 0
3921 3561 3920 0
-3922 3561 0
-3922 -3920 0
3922 -3561 3920 0
-3923 -3573 3922 0
-3923 3573 -3922 0
3923 3573 3922 0
3923 -3573 -3922 0
-3924 3573 0
-3924 3922 0
3924 -3573 -3922 0
-3925 -3924 0
-3925 -3922 0
3925 3924 3922 0
-3926 -3573 0
-3926 3925 0
3926 3573 -3925 0
-3927 -3585 -3926 0
-3927 3585 3926 0
3927 3585 -3926 0
3927 -3585 3926 0
-3928 3585 0
-3928 -3926 0
3928 -3585 3926 0
-3929 -3928 0
-3929 3926 0
3929 3928 -3926 0
-3930 -3585 0
-3930 3929 0
3930 3585 -3929 0
-3931 3597 -3930 0
-3931 -3597 3930 0
3931 -3597 -3930 0
3931 3597 3930 0
-3932 3597 0
-3932 -3930 0
3932 -3597 3930 0
-3933 -3609 3932 0
-3933 3609 -3932 0
3933 3609 3932 0
3933 -3609 -3932 0
-3934 3609 0
-3934 3932 0
3934 -3609 -3932 0
-3935 -3934 0
-3935 -3932 0
3935 3934 3932 0
-3936 -3609 0
-3936 3935 0
3936 3609 -3935 0
-3937 3621 -3936 0
-3937 -3621 3936 0
3937 -3621 -3936 0
3937 3621 3936 0
-3938 3621 0
-3938 -3936 0
3938 -3621 3936 0
-3939 3633 3938 0
-3939 -3633 -3938 0
3939 -3633 3938 0
3939 3633 -3938 0
-3940 3633 0
-3940 3938 0
3940 -3633 -3938 0
-3941 -3645 3940 0
-3941 3645 -3940 0
3941 3645 3940 0
3941 -3645 -3940 0
-3942 3645 0
-3942 3940 0
3942 -3645 -3940 0
-3943 -3942 0
-3943 -3940 0
3943 3942 3940 0
-3944 -3645 0
-3944 3943 0
3944 3645 -3943 0
-3945 3657 -3944 0
-3945 -3657 3944 0
3945 -3657 -3944 0
3945 3657 3944 0
-3946 3657 0
-3946 -3944 0
3946 -3657 3944 0
-3947 3669 3946 0
-3947 -3669 -3946 0
3947 -3669 3946 0
3947 3669 -3946 0
-3948 3669 0
-3948 3946 0
3948 -3669 -3946 0
-3949 3681 3948 0
-3949 -3681 -3948 0
3949 -3681 3948 0
3949 3681 -3948 0
-3950 3681 0
-3950 3948 0
3950 -3681 -3948 0
-3951 3693 3950 0
-3951 -3693 -3950 0
3951 -3693 3950 0
3951 3693 -3950 0
-3952 3693 0
-3952 3950 0
3952 -3693 -3950 0
-3953 -3705 3952 0
-3953 3705 -3952 0
3953 3705 3952 0
3953 -3705 -3952 0
-3954 3705 0
-3954 3952 0
3954 -3705 -3952 0
-3955 -3954 0
-3955 -3952 0
3955 3954 3952 0
-3956 -3705 0
-3956 3955 0
3956 3705 -3955 0
-3957 -3717 -3956 0
-3957 3717 3956 0
3957 3717 -3956 0
3957 -3717 3956 0
-3958 3717 0
-3958 -3956 0
3958 -3717 3956 0
-3959 -3958 0
-3959 3956 0
3959 3958 -3956 0
-3960 -3717 0
-3960 3959 0
3960 3717 -3959 0
-3961 3729 -3960 0
-3961 -3729 3960 0
3961 -3729 -3960 0
3961 3729 3960 0
-3962 3729 0
-3962 -3960 0
3962 -3729 3960 0
-3963 -3741 3962 0
-3963 3741 -3962 0
3963 3741 3962 0
3963 -3741 -3962 0
-3964 3741 0
-3964 3962 0
3964 -3741 -3962 0
-3965 -3964 0
-3965 -3962 0
3965 3964 3962 0
-3966 -3741 0
-3966 3965 0
3966 3741 -3965 0
-3967 -3753 -3966 0
-3967 3753 3966 0
3967 3753 -3966 0
3967 -3753 3966 0
-3968 3753 0
-3968 -3966 0
3968 -3753 3966 0
-3969 -3968 0
-3969 3966 0
3969 3968 -3966 0
-3970 -3753 0
-3970 3969 0
3970 3753 -3969 0
-3971 3765 -3970 0
-3971 -3765 3970 0
3971 -3765 -3970 0
3971 3765 3970 0
-3972 3765 0
-3972 -3970 0
3972 -3765 3970 0
-3973 -3777 3972 0
-3973 3777 -3972 0
3973 3777 3972 0
3973 -3777 -3972 0
-3974 3777 0
-3974 3972 0
3974 -3777 -3972 0
-3975 -3974 0
-3975 -3972 0
3975 3974 3972 0
-3976 -3777 0
-3976 3975 0
3976 3777 -3975 0
-3977 3789 -3976 0
-3977 -3789 3976 0
3977 -3789 -3976 0
3977 3789 3976 0
-3978 3789 0
-3978 -3976 0
3978 -3789 3976 0
-3979 -3801 3978 0
-3979 3801 -3978 0
3979 3801 3978 0
3979 -3801 -3978 0
-3980 3801 0
-3980 3978 0
3980 -3801 -3978 0
-3981 -3980 0
-3981 -3978 0
3981 3980 3978 0
-3982 -3801 0
-3982 3981 0
3982 3801 -3981 0
-3983 3813 -3982 0
-3983 -3813 3982 0
3983 -3813 -3982 0
3983 3813 3982 0
-3984 3813 0
-3984 -3982 0
3984 -3813 3982 0
-3985 -3825 3984 0
-3985 3825 -3984 0
3985 3825 3984 0
3985 -3825 -3984 0
-3986 3825 0
-3986 3984 0
3986 -3825 -3984 0
-3987 -3986 0
-3987 -3984 0
3987 3986 3984 0
-3988 -3825 0
-3988 3987 0
3988 3825 -3987 0
-3989 3837 -3988 0
-3989 -3837 3988 0
3989 -3837 -3988 0
3989 3837 3988 0
-3990 3837 0
-3990 -3988 0
3990 -3837 3988 0
-3991 3849 3990 0
-3991 -3849 -3990 0
3991 -3849 3990 0
3991 3849 -3990 0
-3992 3849 0
-3992 3990 0
3992 -3849 -3990 0
-3993 -3861 3992 0
-3993 3861 -3992 0
3993 3861 3992 0
3993 -3861 -3992 0
-3994 3861 0
-3994 3992 0
3994 -3861 -3992 0
-3995 -3994 0
-3995 -3992 0
3995 3994 3992 0
-3996 -3861 0
-3996 3995 0
3996 3861 -3995 0
-3997 -3873 -3996 0
-3997 3873 3996 0
3997 3873 -3996 0
3997 -3873 3996 0
-3998 3873 0
-3998 -3996 0
3998 -3873 3996 0
-3999 -3998 0
-3999 3996 0
3999 3998 -3996 0
-4000 -3873 0
-4000 3999 0
4000 3873 -3999 0
-4001 -3885 -4000 0
-4001 3885 4000 0
4001 3885 -4000 0
4001 -3885 4000 0
-4002 3885 0
-4002 -4000 0
4002 -3885 4000 0
-4003 -4002 0
-4003 4000 0
4003 4002 -4000 0
-4004 -3885 0
-4004 4003 0
4004 3885 -4003 0
-4005 3897 -4004 0
-4005 -3897 4004 0
4005 -3897 -4004 0
4005 3897 4004 0
-4006 3897 0
-4006 -4004 0
4006 -3897 4004 0
-4007 3909 4006 0
-4007 -3909 -4006 0
4007 -3909 4006 0
4007 3909 -4006 0
-4008 3909 0
-4008 4006 0
4008 -3909 -4006 0
-4009 3558 3546 0
-4009 -3558 -3546 0
4009 -3558 3546 0
4009 3558 -3546 0
-4010 3558 0
-4010 3546 0
4010 -3558 -3546 0
-4011 3570 4010 0
-4011 -3570 -4010 0
4011 -3570 4010 0
4011 3570 -4010 0
-4012 3570 0
-4012 4010 0
4012 -3570 -4010 0
-4013 3582 4012 0
-4013 -3582 -4012 0
4013 -3582 4012 0
4013 3582 -4012 0
-4014 3582 0
-4014 4012 0
4014 -3582 -4012 0
-4015 -3594 4014 0
-4015 3594 -4014 0
4015 3594 4014 0
4015 -3594 -4014 0
-4016 3594 0
-4016 4014 0
4016 -3594 -4014 0
-4017 -4014 0
-4017 -4016 0
4017 4014 4016 0
-4018 -3594 0
-4018 4017 0
4018 3594 -4017 0
-4019 3606 -4018 0
-4019 -3606 4018 0
4019 -3606 -4018 0
4019 3606 4018 0
-4020 3606 0
-4020 -4018 0
4020 -3606 4018 0
-4021 3618 4020 0
-4021 -3618 -4020 0
4021 -3618 4020 0
4021 3618 -4020 0
-4022 3618 0
-4022 4020 0
4022 -3618 -4020 0
-4023 -24 3630 0
-4023 24 -3630 0
4023 24 3630 0
4023 -24 -3630 0
-4024 4023 4022 0
-4024 -4023 -4022 0
4024 -4023 4022 0
4024 4023 -4022 0
-4025 3630 0
-4025 4022 0
4025 -3630 -4022 0
-4026 -24 0
-4026 4022 0
4026 24 -4022 0
-4027 -4026 0
-4027 -4025 0
4027 4026 4025 0
-4028 -24 0
-4028 3630 0
4028 24 -3630 0
-4029 -4028 0
-4029 4027 0
4029 4028 -4027 0
-4030 -75 3642 0
-4030 75 -3642 0
4030 75 3642 0
4030 -75 -3642 0
-4031 4030 -4029 0
-4031 -4030 4029 0
4031 -4030 -4029 0
4031 4030 4029 0
-4032 3642 0
-4032 -4029 0
4032 -3642 4029 0
-4033 -75 0
-4033 -4029 0
4033 75 4029 0
-4034 -4033 0
-4034 -4032 0
4034 4033 4032 0
-4035 -75 0
-4035 3642 0
4035 75 -3642 0
-4036 -4035 0
-4036 4034 0
4036 4035 -4034 0
-4037 209 3654 0
-4037 -209 -3654 0
4037 -209 3654 0
4037 209 -3654 0
-4038 4037 -4036 0
-4038 -4037 4036 0
4038 -4037 -4036 0
4038 4037 4036 0
-4039 3654 0
-4039 -4036 0
4039 -3654 4036 0
-4040 209 0
-4040 -4036 0
4040 -209 4036 0
-4041 -4040 0
-4041 -4039 0
4041 4040 4039 0
-4042 209 0
-4042 3654 0
4042 -209 -3654 0
-4043 -4042 0
-4043 4041 0
4043 4042 -4041 0
-4044 213 3666 0
-4044 -213 -3666 0
4044 -213 3666 0
4044 213 -3666 0
-4045 4044 -4043 0
-4045 -4044 4043 0
4045 -4044 -4043 0
4045 4044 4043 0
-4046 3666 0
-4046 -4043 0
4046 -3666 4043 0
-4047 213 0
-4047 -4043 0
4047 -213 4043 0
-4048 -4047 0
-4048 -4046 0
4048 4047 4046 0
-4049 213 0
-4049 3666 0
4049 -213 -3666 0
-4050 -4049 0
-4050 4048 0
4050 4049 -4048 0
-4051 215 3678 0
-4051 -215 -3678 0
4051 -215 3678 0
4051 215 -3678 0
-4052 4051 -4050 0
-4052 -4051 4050 0
4052 -4051 -4050 0
4052 4051 4050 0
-4053 3678 0
-4053 -4050 0
4053 -3678 4050 0
-4054 215 0
-4054 -4050 0
4054 -215 4050 0
-4055 -4054 0
-4055 -4053 0
4055 4054 4053 0
-4056 215 0
-4056 3678 0
4056 -215 -3678 0
-4057 -4056 0
-4057 4055 0
4057 4056 -4055 0
-4058 219 3690 0
-4058 -219 -3690 0
4058 -219 3690 0
4058 219 -3690 0
-4059 4058 -4057 0
-4059 -4058 4057 0
4059 -4058 -4057 0
4059 4058 4057 0
-4060 3690 0
-4060 -4057 0
4060 -3690 4057 0
-4061 219 0
-4061 -4057 0
4061 -219 4057 0
-4062 -4061 0
-4062 -4060 0
4062 4061 4060 0
-4063 219 0
-4063 3690 0
4063 -219 -3690 0
-4064 -4063 0
-4064 4062 0
4064 4063 -4062 0
-4065 223 3702 0
-4065 -223 -3702 0
4065 -223 3702 0
4065 223 -3702 0
-4066 4065 -4064 0
-4066 -4065 4064 0
4066 -4065 -4064 0
4066 4065 4064 0
-4067 3702 0
-4067 -4064 0
4067 -3702 4064 0
-4068 223 0
-4068 -4064 0
4068 -223 4064 0
-4069 -4068 0
-4069 -4067 0
4069 4068 4067 0
-4070 223 0
-4070 3702 0
4070 -223 -3702 0
-4071 -4070 0
-4071 4069 0
4071 4070 -4069 0
-4072 227 3714 0
-4072 -227 -3714 0
4072 -227 3714 0
4072 227 -3714 0
-4073 4072 -4071 0
-4073 -4072 4071 0
4073 -4072 -4071 0
4073 4072 4071 0
-4074 3714 0
-4074 -4071 0
4074 -3714 4071 0
-4075 227 0
-4075 -4071 0
4075 -227 4071 0
-4076 -4075 0
-4076 -4074 0
4076 4075 4074 0
-4077 227 0
-4077 3714 0
4077 -227 -3714 0
-4078 -4077 0
-4078 4076 0
4078 4077 -4076 0
-4079 231 3726 0
-4079 -231 -3726 0
4079 -231 3726 0
4079 231 -3726 0
-4080 4079 -4078 0
-4080 -4079 4078 0
4080 -4079 -4078 0
4080 4079 4078 0
-4081 3726 0
-4081 -4078 0
4081 -3726 4078 0
-4082 231 0
-4082 -4078 0
4082 -231 4078 0
-4083 -4082 0
-4083 -4081 0
4083 4082 4081 0
-4084 231 0
-4084 3726 0
4084 -231 -3726 0
-4085 -4084 0
-4085 4083 0
4085 4084 -4083 0
-4086 235 3738 0
-4086 -235 -3738 0
4086 -235 3738 0
4086 235 -3738 0
-4087 4086 -4085 0
-4087 -4086 4085 0
4087 -4086 -4085 0
4087 4086 4085 0
-4088 3738 0
-4088 -4085 0
4088 -3738 4085 0
-4089 235 0
-4089 -4085 0
4089 -235 4085 0
-4090 -4089 0
-4090 -4088 0
4090 4089 4088 0
-4091 235 0
-4091 3738 0
4091 -235 -3738 0
-4092 -4091 0
-4092 4090 0
4092 4091 -4090 0
-4093 239 3750 0
-4093 -239 -3750 0
4093 -239 3750 0
4093 239 -3750 0
-4094 4093 -4092 0
-4094 -4093 4092 0
4094 -4093 -4092 0
4094 4093 4092 0
-4095 3750 0
-4095 -4092 0
4095 -3750 4092 0
-4096 239 0
-4096 -4092 0
4096 -239 4092 0
-4097 -4096 0
-4097 -4095 0
4097 4096 4095 0
-4098 239 0
-4098 3750 0
4098 -239 -3750 0
-4099 -4098 0
-4099 4097 0
4099 4098 -4097 0
-4100 243 3762 0
-4100 -243 -3762 0
4100 -243 3762 0
4100 243 -3762 0
-4101 4100 -4099 0
-4101 -4100 4099 0
4101 -4100 -4099 0
4101 4100 4099 0
-4102 3762 0
-4102 -4099 0
4102 -3762 4099 0
-4103 243 0
-4103 -4099 0
4103 -243 4099 0
-4104 -4103 0
-4104 -4102 0
4104 4103 4102 0
-4105 243 0
-4105 3762 0
4105 -243 -3762 0
-4106 -4105 0
-4106 4104 0
4106 4105 -4104 0
-4107 247 3774 0
-4107 -247 -3774 0
4107 -247 3774 0
4107 247 -3774 0
-4108 4107 -4106 0
-4108 -4107 4106 0
4108 -4107 -4106 0
4108 4107 4106 0
-4109 3774 0
-4109 -4106 0
4109 -3774 4106 0
-4110 247 0
-4110 -4106 0
4110 -247 4106 0
-4111 -4110 0
-4111 -4109 0
4111 4110 4109 0
-4112 247 0
-4112 3774 0
4112 -247 -3774 0
-4113 -4112 0
-4113 4111 0
4113 4112 -4111 0
-4114 249 3786 0
-4114 -249 -3786 0
4114 -249 3786 0
4114 249 -3786 0
-4115 4114 -4113 0
-4115 -4114 4113 0
4115 -4114 -4113 0
4115 4114 4113 0
-4116 3786 0
-4116 -4113 0
4116 -3786 4113 0
-4117 249 0
-4117 -4113 0
4117 -249 4113 0
-4118 -4117 0
-4118 -4116 0
4118 4117 4116 0
-4119 249 0
-4119 3786 0
4119 -249 -3786 0
-4120 -4119 0
-4120 4118 0
4120 4119 -4118 0
-4121 251 3798 0
-4121 -251 -3798 0
4121 -251 3798 0
4121 251 -3798 0
-4122 4121 -4120 0
-4122 -4121 4120 0
4122 -4121 -4120 0
4122 4121 4120 0
-4123 3798 0
-4123 -4120 0
4123 -3798 4120 0
-4124 251 0
-4124 -4120 0
4124 -251 4120 0
-4125 -4124 0
-4125 -4123 0
4125 4124 4123 0
-4126 251 0
-4126 3798 0
4126 -251 -3798 0
-4127 -4126 0
-4127 4125 0
4127 4126 -4125 0
-4128 255 3810 0
-4128 -255 -3810 0
4128 -255 3810 0
4128 255 -3810 0
-4129 4128 -4127 0
-4129 -4128 4127 0
4129 -4128 -4127 0
4129 4128 4127 0
-4130 3810 0
-4130 -4127 0
4130 -3810 4127 0
-4131 255 0
-4131 -4127 0
4131 -255 4127 0
-4132 -4131 0
-4132 -4130 0
4132 4131 4130 0
-4133 255 0
-4133 3810 0
4133 -255 -3810 0
-4134 -4133 0
-4134 4132 0
4134 4133 -4132 0
-4135 257 3822 0
-4135 -257 -3822 0
4135 -257 3822 0
4135 257 -3822 0
-4136 4135 -4134 0
-4136 -4135 4134 0
4136 -4135 -4134 0
4136 4135 4134 0
-4137 3822 0
-4137 -4134 0
4137 -3822 4134 0
-4138 257 0
-4138 -4134 0
4138 -257 4134 0
-4139 -4138 0
-4139 -4137 0
4139 4138 4137 0
-4140 257 0
-4140 3822 0
4140 -257 -3822 0
-4141 -4140 0
-4141 4139 0
4141 4140 -4139 0
-4142 261 3834 0
-4142 -261 -3834 0
4142 -261 3834 0
4142 261 -3834 0
-4143 4142 -4141 0
-4143 -4142 4141 0
4143 -4142 -4141 0
4143 4142 4141 0
-4144 3834 0
-4144 -4141 0
4144 -3834 4141 0
-4145 261 0
-4145 -4141 0
4145 -261 4141 0
-4146 -4145 0
-4146 -4144 0
4146 4145 4144 0
-4147 261 0
-4147 3834 0
4147 -261 -3834 0
-4148 -4147 0
-4148 4146 0
4148 4147 -4146 0
-4149 263 3846 0
-4149 -263 -3846 0
4149 -263 3846 0
4149 263 -3846 0
-4150 4149 -4148 0
-4150 -4149 4148 0
4150 -4149 -4148 0
4150 4149 4148 0
-4151 3846 0
-4151 -4148 0
4151 -3846 4148 0
-4152 263 0
-4152 -4148 0
4152 -263 4148 0
-4153 -4152 0
-4153 -4151 0
4153 4152 4151 0
-4154 263 0
-4154 3846 0
4154 -263 -3846 0
-4155 -4154 0
-4155 4153 0
4155 4154 -4153 0
-4156 267 3858 0
-4156 -267 -3858 0
4156 -267 3858 0
4156 267 -3858 0
-4157 4156 -4155 0
-4157 -4156 4155 0
4157 -4156 -4155 0
4157 4156 4155 0
-4158 3858 0
-4158 -4155 0
4158 -3858 4155 0
-4159 267 0
-4159 -4155 0
4159 -267 4155 0
-4160 -4159 0
-4160 -4158 0
4160 4159 4158 0
-4161 267 0
-4161 3858 0
4161 -267 -3858 0
-4162 -4161 0
-4162 4160 0
4162 4161 -4160 0
-4163 269 3870 0
-4163 -269 -3870 0
4163 -269 3870 0
4163 269 -3870 0
-4164 4163 -4162 0
-4164 -4163 4162 0
4164 -4163 -4162 0
4164 4163 4162 0
-4165 3870 0
-4165 -4162 0
4165 -3870 4162 0
-4166 269 0
-4166 -4162 0
4166 -269 4162 0
-4167 -4166 0
-4167 -4165 0
4167 4166 4165 0
-4168 269 0
-4168 3870 0
4168 -269 -3870 0
-4169 -4168 0
-4169 4167 0
4169 4168 -4167 0
-4170 271 3882 0
-4170 -271 -3882 0
4170 -271 3882 0
4170 271 -3882 0
-4171 4170 -4169 0
-4171 -4170 4169 0
4171 -4170 -4169 0
4171 4170 4169 0
-4172 3882 0
-4172 -4169 0
4172 -3882 4169 0
-4173 271 0
-4173 -4169 0
4173 -271 4169 0
-4174 -4173 0
-4174 -4172 0
4174 4173 4172 0
-4175 271 0
-4175 3882 0
4175 -271 -3882 0
-4176 -4175 0
-4176 4174 0
4176 4175 -4174 0
-4177 275 3894 0
-4177 -275 -3894 0
4177 -275 3894 0
4177 275 -3894 0
-4178 4177 -4176 0
-4178 -4177 4176 0
4178 -4177 -4176 0
4178 4177 4176 0
-4179 3894 0
-4179 -4176 0
4179 -3894 4176 0
-4180 275 0
-4180 -4176 0
4180 -275 4176 0
-4181 -4180 0
-4181 -4179 0
4181 4180 4179 0
-4182 275 0
-4182 3894 0
4182 -275 -3894 0
-4183 -4182 0
-4183 4181 0
4183 4182 -4181 0
-4184 277 3906 0
-4184 -277 -3906 0
4184 -277 3906 0
4184 277 -3906 0
-4185 4184 -4183 0
-4185 -4184 4183 0
4185 -4184 -4183 0
4185 4184 4183 0
-4186 3906 0
-4186 -4183 0
4186 -3906 4183 0
-4187 277 0
-4187 -4183 0
4187 -277 4183 0
-4188 -4187 0
-4188 -4186 0
4188 4187 4186 0
-4189 277 0
-4189 3906 0
4189 -277 -3906 0
-4190 -4189 0
-4190 4188 0
4190 4189 -4188 0
-4191 3534 -3537 0
-4191 -3534 3537 0
4191 -3534 -3537 0
4191 3534 3537 0
-4192 3534 0
-4192 -3537 0
4192 -3534 3537 0
-4193 -3546 3917 0
-4193 3546 -3917 0
4193 3546 3917 0
4193 -3546 -3917 0
-4194 4193 4192 0
-4194 -4193 -4192 0
4194 -4193 4192 0
4194 4193 -4192 0
-4195 3917 0
-4195 4192 0
4195 -3917 -4192 0
-4196 -3546 0
-4196 4192 0
4196 3546 -4192 0
-4197 -4196 0
-4197 -4195 0
4197 4196 4195 0
-4198 -3546 0
-4198 3917 0
4198 3546 -3917 0
-4199 -4198 0
-4199 4197 0
4199 4198 -4197 0
-4200 4009 3921 0
-4200 -4009 -3921 0
4200 -4009 3921 0
4200 4009 -3921 0
-4201 4200 -4199 0
-4201 -4200 4199 0
4201 -4200 -4199 0
4201 4200 4199 0
-4202 3921 0
-4202 -4199 0
4202 -3921 4199 0
-4203 4009 0
-4203 -4199 0
4203 -4009 4199 0
-4204 -4203 0
-4204 -4202 0
4204 4203 4202 0
-4205 4009 0
-4205 3921 0
4205 -4009 -3921 0
-4206 -4205 0
-4206 4204 0
4206 4205 -4204 0
-4207 4011 3923 0
-4207 -4011 -3923 0
4207 -4011 3923 0
4207 4011 -3923 0
-4208 4207 -4206 0
-4208 -4207 4206 0
4208 -4207 -4206 0
4208 4207 4206 0
-4209 3923 0
-4209 -4206 0
4209 -3923 4206 0
-4210 4011 0
-4210 -4206 0
4210 -4011 4206 0
-4211 -4210 0
-4211 -4209 0
4211 4210 4209 0
-4212 4011 0
-4212 3923 0
4212 -4011 -3923 0
-4213 -4212 0
-4213 4211 0
4213 4212 -4211 0
-4214 4013 3927 0
-4214 -4013 -3927 0
4214 -4013 3927 0
4214 4013 -3927 0
-4215 4214 -4213 0
-4215 -4214 4213 0
4215 -4214 -4213 0
4215 4214 4213 0
-4216 3927 0
-4216 -4213 0
4216 -3927 4213 0
-4217 4013 0
-4217 -4213 0
4217 -4013 4213 0
-4218 -4217 0
-4218 -4216 0
4218 4217 4216 0
-4219 4013 0
-4219 3927 0
4219 -4013 -3927 0
-4220 -4219 0
-4220 4218 0
4220 4219 -4218 0
-4221 4015 3931 0
-4221 -4015 -3931 0
4221 -4015 3931 0
4221 4015 -3931 0
-4222 4221 -4220 0
-4222 -4221 4220 0
4222 -4221 -4220 0
4222 4221 4220 0
-4223 3931 0
-4223 -4220 0
4223 -3931 4220 0
-4224 4015 0
-4224 -4220 0
4224 -4015 4220 0
-4225 -4224 0
-4225 -4223 0
4225 4224 4223 0
-4226 4015 0
-4226 3931 0
4226 -4015 -3931 0
-4227 -4226 0
-4227 4225 0
4227 4226 -4225 0
-4228 4019 3933 0
-4228 -4019 -3933 0
4228 -4019 3933 0
4228 4019 -3933 0
-4229 4228 -4227 0
-4229 -4228 4227 0
4229 -4228 -4227 0
4229 4228 4227 0
-4230 3933 0
-4230 -4227 0
4230 -3933 4227 0
-4231 4019 0
-4231 -4227 0
4231 -4019 4227 0
-4232 -4231 0
-4232 -4230 0
4232 4231 4230 0
-4233 4019 0
-4233 3933 0
4233 -4019 -3933 0
-4234 -4233 0
-4234 4232 0
4234 4233 -4232 0
-4235 4021 3937 0
-4235 -4021 -3937 0
4235 -4021 3937 0
4235 4021 -3937 0
-4236 4235 -4234 0
-4236 -4235 4234 0
4236 -4235 -4234 0
4236 4235 4234 0
-4237 3937 0
-4237 -4234 0
4237 -3937 4234 0
-4238 4021 0
-4238 -4234 0
4238 -4021 4234 0
-4239 -4238 0
-4239 -4237 0
4239 4238 4237 0
-4240 4021 0
-4240 3937 0
4240 -4021 -3937 0
-4241 -4240 0
-4241 4239 0
4241 4240 -4239 0
-4242 4024 3939 0
-4242 -4024 -3939 0
4242 -4024 3939 0
4242 4024 -3939 0
-4243 4242 -4241 0
-4243 -4242 4241 0
4243 -4242 -4241 0
4243 4242 4241 0
-4244 3939 0
-4244 -4241 0
4244 -3939 4241 0
-4245 4024 0
-4245 -4241 0
4245 -4024 4241 0
-4246 -4245 0
-4246 -4244 0
4246 4245 4244 0
-4247 4024 0
-4247 3939 0
4247 -4024 -3939 0
-4248 -4247 0
-4248 4246 0
4248 4247 -4246 0
-4249 4031 3941 0
-4249 -4031 -3941 0
4249 -4031 3941 0
4249 4031 -3941 0
-4250 4249 -4248 0
-4250 -4249 4248 0
4250 -4249 -4248 0
4250 4249 4248 0
-4251 3941 0
-4251 -4248 0
4251 -3941 4248 0
-4252 4031 0
-4252 -4248 0
4252 -4031 4248 0
-4253 -4252 0
-4253 -4251 0
4253 4252 4251 0
-4254 4031 0
-4254 3941 0
4254 -4031 -3941 0
-4255 -4254 0
-4255 4253 0
4255 4254 -4253 0
-4256 4038 3945 0
-4256 -4038 -3945 0
4256 -4038 3945 0
4256 4038 -3945 0
-4257 4256 -4255 0
-4257 -4256 4255 0
4257 -4256 -4255 0
4257 4256 4255 0
-4258 3945 0
-4258 -4255 0
4258 -3945 4255 0
-4259 4038 0
-4259 -4255 0
4259 -4038 4255 0
-4260 -4259 0
-4260 -4258 0
4260 4259 4258 0
-4261 4038 0
-4261 3945 0
4261 -4038 -3945 0
-4262 -4261 0
-4262 4260 0
4262 4261 -4260 0
-4263 4045 3947 0
-4263 -4045 -3947 0
4263 -4045 3947 0
4263 4045 -3947 0
-4264 4263 -4262 0
-4264 -4263 4262 0
4264 -4263 -4262 0
4264 4263 4262 0
-4265 3947 0
-4265 -4262 0
4265 -3947 4262 0
-4266 4045 0
-4266 -4262 0
4266 -4045 4262 0
-4267 -4266 0
-4267 -4265 0
4267 4266 4265 0
-4268 4045 0
-4268 3947 0
4268 -4045 -3947 0
-4269 -4268 0
-4269 4267 0
4269 4268 -4267 0
-4270 4052 3949 0
-4270 -4052 -3949 0
4270 -4052 3949 0
4270 4052 -3949 0
-4271 4270 -4269 0
-4271 -4270 4269 0
4271 -4270 -4269 0
4271 4270 4269 0
-4272 3949 0
-4272 -4269 0
4272 -3949 4269 0
-4273 4052 0
-4273 -4269 0
4273 -4052 4269 0
-4274 -4273 0
-4274 -4272 0
4274 4273 4272 0
-4275 4052 0
-4275 3949 0
4275 -4052 -3949 0
-4276 -4275 0
-4276 4274 0
4276 4275 -4274 0
-4277 4059 3951 0
-4277 -4059 -3951 0
4277 -4059 3951 0
4277 4059 -3951 0
-4278 4277 -4276 0
-4278 -4277 4276 0
4278 -4277 -4276 0
4278 4277 4276 0
-4279 3951 0
-4279 -4276 0
4279 -3951 4276 0
-4280 4059 0
-4280 -4276 0
4280 -4059 4276 0
-4281 -4280 0
-4281 -4279 0
4281 4280 4279 0
-4282 4059 0
-4282 3951 0
4282 -4059 -3951 0
-4283 -4282 0
-4283 4281 0
4283 4282 -4281 0
-4284 4066 3953 0
-4284 -4066 -3953 0
4284 -4066 3953 0
4284 4066 -3953 0
-4285 4284 -4283 0
-4285 -4284 4283 0
4285 -4284 -4283 0
4285 4284 4283 0
-4286 3953 0
-4286 -4283 0
4286 -3953 4283 0
-4287 4066 0
-4287 -4283 0
4287 -4066 4283 0
-4288 -4287 0
-4288 -4286 0
4288 4287 4286 0
-4289 4066 0
-4289 3953 0
4289 -4066 -3953 0
-4290 -4289 0
-4290 4288 0
4290 4289 -4288 0
-4291 4073 3957 0
-4291 -4073 -3957 0
4291 -4073 3957 0
4291 4073 -3957 0
-4292 4291 -4290 0
-4292 -4291 4290 0
4292 -4291 -4290 0
4292 4291 4290 0
-4293 3957 0
-4293 -4290 0
4293 -3957 4290 0
-4294 4073 0
-4294 -4290 0
4294 -4073 4290 0
-4295 -4294 0
-4295 -4293 0
4295 4294 4293 0
-4296 4073 0
-4296 3957 0
4296 -4073 -3957 0
-4297 -4296 0
-4297 4295 0
4297 4296 -4295 0
-4298 4080 3961 0
-4298 -4080 -3961 0
4298 -4080 3961 0
4298 4080 -3961 0
-4299 4298 -4297 0
-4299 -4298 4297 0
4299 -4298 -4297 0
4299 4298 4297 0
-4300 3961 0
-4300 -4297 0
4300 -3961 4297 0
-4301 4080 0
-4301 -4297 0
4301 -4080 4297 0
-4302 -4301 0
-4302 -4300 0
4302 4301 4300 0
-4303 4080 0
-4303 3961 0
4303 -4080 -3961 0
-4304 -4303 0
-4304 4302 0
4304 4303 -4302 0
-4305 4087 3963 0
-4305 -4087 -3963 0
4305 -4087 3963 0
4305 4087 -3963 0
-4306 4305 -4304 0
-4306 -4305 4304 0
4306 -4305 -4304 0
4306 4305 4304 0
-4307 3963 0
-4307 -4304 0
4307 -3963 4304 0
-4308 4087 0
-4308 -4304 0
4308 -4087 4304 0
-4309 -4308 0
-4309 -4307 0
4309 4308 4307 0
-4310 4087 0
-4310 3963 0
4310 -4087 -3963 0
-4311 -4310 0
-4311 4309 0
4311 4310 -4309 0
-4312 4094 3967 0
-4312 -4094 -3967 0
4312 -4094 3967 0
4312 4094 -3967 0
-4313 4312 -4311 0
-4313 -4312 4311 0
4313 -4312 -4311 0
4313 4312 4311 0
-4314 3967 0
-4314 -4311 0
4314 -3967 4311 0
-4315 4094 0
-4315 -4311 0
4315 -4094 4311 0
-4316 -4315 0
-4316 -4314 0
4316 4315 4314 0
-4317 4094 0
-4317 3967 0
4317 -4094 -3967 0
-4318 -4317 0
-4318 4316 0
4318 4317 -4316 0
-4319 4101 3971 0
-4319 -4101 -3971 0
4319 -4101 3971 0
4319 4101 -3971 0
-4320 4319 -4318 0
-4320 -4319 4318 0
4320 -4319 -4318 0
4320 4319 4318 0
-4321 3971 0
-4321 -4318 0
4321 -3971 4318 0
-4322 4101 0
-4322 -4318 0
4322 -4101 4318 0
-4323 -4322 0
-4323 -4321 0
4323 4322 4321 0
-4324 4101 0
-4324 3971 0
4324 -4101 -3971 0
-4325 -4324 0
-4325 4323 0
4325 4324 -4323 0
-4326 4108 3973 0
-4326 -4108 -3973 0
4326 -4108 3973 0
4326 4108 -3973 0
-4327 4326 -4325 0
-4327 -4326 4325 0
4327 -4326 -4325 0
4327 4326 4325 0
-4328 3973 0
-4328 -4325 0
4328 -3973 4325 0
-4329 4108 0
-4329 -4325 0
4329 -4108 4325 0
-4330 -4329 0
-4330 -4328 0
4330 4329 4328 0
-4331 4108 0
-4331 3973 0
4331 -4108 -3973 0
-4332 -4331 0
-4332 4330 0
4332 4331 -4330 0
-4333 4115 3977 0
-4333 -4115 -3977 0
4333 -4115 3977 0
4333 4115 -3977 0
-4334 4333 -4332 0
-4334 -4333 4332 0
4334 -4333 -4332 0
4334 4333 4332 0
-4335 3977 0
-4335 -4332 0
4335 -3977 4332 0
-4336 4115 0
-4336 -4332 0
4336 -4115 4332 0
-4337 -4336 0
-4337 -4335 0
4337 4336 4335 0
-4338 4115 0
-4338 3977 0
4338 -4115 -3977 0
-4339 -4338 0
-4339 4337 0
4339 4338 -4337 0
-4340 4122 3979 0
-4340 -4122 -3979 0
4340 -4122 3979 0
4340 4122 -3979 0
-4341 4340 -4339 0
-4341 -4340 4339 0
4341 -4340 -4339 0
4341 4340 4339 0
-4342 3979 0
-4342 -4339 0
4342 -3979 4339 0
-4343 4122 0
-4343 -4339 0
4343 -4122 4339 0
-4344 -4343 0
-4344 -4342 0
4344 4343 4342 0
-4345 4122 0
-4345 3979 0
4345 -4122 -3979 0
-4346 -4345 0
-4346 4344 0
4346 4345 -4344 0
-4347 4129 3983 0
-4347 -4129 -3983 0
4347 -4129 3983 0
4347 4129 -3983 0
-4348 4347 -4346 0
-4348 -4347 4346 0
4348 -4347 -4346 0
4348 4347 4346 0
-4349 3983 0
-4349 -4346 0
4349 -3983 4346 0
-4350 4129 0
-4350 -4346 0
4350 -4129 4346 0
-4351 -4350 0
-4351 -4349 0
4351 4350 4349 0
-4352 4129 0
-4352 3983 0
4352 -4129 -3983 0
-4353 -4352 0
-4353 4351 0
4353 4352 -4351 0
-4354 4136 3985 0
-4354 -4136 -3985 0
4354 -4136 3985 0
4354 4136 -3985 0
-4355 4354 -4353 0
-4355 -4354 4353 0
4355 -4354 -4353 0
4355 4354 4353 0
-4356 3985 0
-4356 -4353 0
4356 -3985 4353 0
-4357 4136 0
-4357 -4353 0
4357 -4136 4353 0
-4358 -4357 0
-4358 -4356 0
4358 4357 4356 0
-4359 4136 0
-4359 3985 0
4359 -4136 -3985 0
-4360 -4359 0
-4360 4358 0
4360 4359 -4358 0
-4361 4143 3989 0
-4361 -4143 -3989 0
4361 -4143 3989 0
4361 4143 -3989 0
-4362 4361 -4360 0
-4362 -4361 4360 0
4362 -4361 -4360 0
4362 4361 4360 0
-4363 3989 0
-4363 -4360 0
4363 -3989 4360 0
-4364 4143 0
-4364 -4360 0
4364 -4143 4360 0
-4365 -4364 0
-4365 -4363 0
4365 4364 4363 0
-4366 4143 0
-4366 3989 0
4366 -4143 -3989 0
-4367 -4366 0
-4367 4365 0
4367 4366 -4365 0
-4368 4150 3991 0
-4368 -4150 -3991 0
4368 -4150 3991 0
4368 4150 -3991 0
-4369 4368 -4367 0
-4369 -4368 4367 0
4369 -4368 -4367 0
4369 4368 4367 0
-4370 3991 0
-4370 -4367 0
4370 -3991 4367 0
-4371 4150 0
-4371 -4367 0
4371 -4150 4367 0
-4372 -4371 0
-4372 -4370 0
4372 4371 4370 0
-4373 4150 0
-4373 3991 0
4373 -4150 -3991 0
-4374 -4373 0
-4374 4372 0
4374 4373 -4372 0
-4375 4157 3993 0
-4375 -4157 -3993 0
4375 -4157 3993 0
4375 4157 -3993 0
-4376 4375 -4374 0
-4376 -4375 4374 0
4376 -4375 -4374 0
4376 4375 4374 0
-4377 3993 0
-4377 -4374 0
4377 -3993 4374 0
-4378 4157 0
-4378 -4374 0
4378 -4157 4374 0
-4379 -4378 0
-4379 -4377 0
4379 4378 4377 0
-4380 4157 0
-4380 3993 0
4380 -4157 -3993 0
-4381 -4380 0
-4381 4379 0
4381 4380 -4379 0
-4382 4164 3997 0
-4382 -4164 -3997 0
4382 -4164 3997 0
4382 4164 -3997 0
-4383 4382 -4381 0
-4383 -4382 4381 0
4383 -4382 -4381 0
4383 4382 4381 0
-4384 3997 0
-4384 -4381 0
4384 -3997 4381 0
-4385 4164 0
-4385 -4381 0
4385 -4164 4381 0
-4386 -4385 0
-4386 -4384 0
4386 4385 4384 0
-4387 4164 0
-4387 3997 0
4387 -4164 -3997 0
-4388 -4387 0
-4388 4386 0
4388 4387 -4386 0
-4389 4171 4001 0
-4389 -4171 -4001 0
4389 -4171 4001 0
4389 4171 -4001 0
-4390 4389 -4388 0
-4390 -4389 4388 0
4390 -4389 -4388 0
4390 4389 4388 0
-4391 4001 0
-4391 -4388 0
4391 -4001 4388 0
-4392 4171 0
-4392 -4388 0
4392 -4171 4388 0
-4393 -4392 0
-4393 -4391 0
4393 4392 4391 0
-4394 4171 0
-4394 4001 0
4394 -4171 -4001 0
-4395 -4394 0
-4395 4393 0
4395 4394 -4393 0
-4396 4178 4005 0
-4396 -4178 -4005 0
4396 -4178 4005 0
4396 4178 -4005 0
-4397 4396 -4395 0
-4397 -4396 4395 0
4397 -4396 -4395 0
4397 4396 4395 0
-4398 4005 0
-4398 -4395 0
4398 -4005 4395 0
-4399 4178 0
-4399 -4395 0
4399 -4178 4395 0
-4400 -4399 0
-4400 -4398 0
4400 4399 4398 0
-4401 4178 0
-4401 4005 0
4401 -4178 -4005 0
-4402 -4401 0
-4402 4400 0
4402 4401 -4400 0
-4403 4185 4007 0
-4403 -4185 -4007 0
4403 -4185 4007 0
4403 4185 -4007 0
-4404 4403 -4402 0
-4404 -4403 4402 0
4404 -4403 -4402 0
4404 4403 4402 0
-4405 4007 0
-4405 -4402 0
4405 -4007 4402 0
-4406 4185 0
-4406 -4402 0
4406 -4185 4402 0
-4407 -4406 0
-4407 -4405 0
4407 4406 4405 0
-4408 4185 0
-4408 4007 0
4408 -4185 -4007 0
-4409 -4408 0
-4409 4407 0
4409 4408 -4407 0
-4410 3539 -3544 0
-4410 -3539 3544 0
4410 -3539 -3544 0
4410 3539 3544 0
-4411 3539 0
-4411 -3544 0
4411 -3539 3544 0
-4412 3551 -3556 0
-4412 -3551 3556 0
4412 -3551 -3556 0
4412 3551 3556 0
-4413 4412 4411 0
-4413 -4412 -4411 0
4413 -4412 4411 0
4413 4412 -4411 0
-4414 -3556 0
-4414 4411 0
4414 3556 -4411 0
-4415 3551 0
-4415 4411 0
4415 -3551 -4411 0
-4416 -4415 0
-4416 -4414 0
4416 4415 4414 0
-4417 3551 0
-4417 -3556 0
4417 -3551 3556 0
-4418 -4417 0
-4418 4416 0
4418 4417 -4416 0
-4419 3563 -3568 0
-4419 -3563 3568 0
4419 -3563 -3568 0
4419 3563 3568 0
-4420 4419 -4418 0
-4420 -4419 4418 0
4420 -4419 -4418 0
4420 4419 4418 0
-4421 -3568 0
-4421 -4418 0
4421 3568 4418 0
-4422 3563 0
-4422 -4418 0
4422 -3563 4418 0
-4423 -4422 0
-4423 -4421 0
4423 4422 4421 0
-4424 3563 0
-4424 -3568 0
4424 -3563 3568 0
-4425 -4424 0
-4425 4423 0
4425 4424 -4423 0
-4426 3575 -3580 0
-4426 -3575 3580 0
4426 -3575 -3580 0
4426 3575 3580 0
-4427 4426 -4425 0
-4427 -4426 4425 0
4427 -4426 -4425 0
4427 4426 4425 0
-4428 -3580 0
-4428 -4425 0
4428 3580 4425 0
-4429 3575 0
-4429 -4425 0
4429 -3575 4425 0
-4430 -4429 0
-4430 -4428 0
4430 4429 4428 0
-4431 3575 0
-4431 -3580 0
4431 -3575 3580 0
-4432 -4431 0
-4432 4430 0
4432 4431 -4430 0
-4433 3587 -3592 0
-4433 -3587 3592 0
4433 -3587 -3592 0
4433 3587 3592 0
-4434 4433 -4432 0
-4434 -4433 4432 0
4434 -4433 -4432 0
4434 4433 4432 0
-4435 -3592 0
-4435 -4432 0
4435 3592 4432 0
-4436 3587 0
-4436 -4432 0
4436 -3587 4432 0
-4437 -4436 0
-4437 -4435 0
4437 4436 4435 0
-4438 3587 0
-4438 -3592 0
4438 -3587 3592 0
-4439 -4438 0
-4439 4437 0
4439 4438 -4437 0
-4440 3599 -3604 0
-4440 -3599 3604 0
4440 -3599 -3604 0
4440 3599 3604 0
-4441 4440 -4439 0
-4441 -4440 4439 0
4441 -4440 -4439 0
4441 4440 4439 0
-4442 -3604 0
-4442 -4439 0
4442 3604 4439 0
-4443 3599 0
-4443 -4439 0
4443 -3599 4439 0
-4444 -4443 0
-4444 -4442 0
4444 4443 4442 0
-4445 3599 0
-4445 -3604 0
4445 -3599 3604 0
-4446 -4445 0
-4446 4444 0
4446 4445 -4444 0
-4447 3611 -3616 0
-4447 -3611 3616 0
4447 -3611 -3616 0
4447 3611 3616 0
-4448 4447 -4446 0
-4448 -4447 4446 0
4448 -4447 -4446 0
4448 4447 4446 0
-4449 -3616 0
-4449 -4446 0
4449 3616 4446 0
-4450 3611 0
-4450 -4446 0
4450 -3611 4446 0
-4451 -4450 0
-4451 -4449 0
4451 4450 4449 0
-4452 3611 0
-4452 -3616 0
4452 -3611 3616 0
-4453 -4452 0
-4453 4451 0
4453 4452 -4451 0
-4454 3623 -3628 0
-4454 -3623 3628 0
4454 -3623 -3628 0
4454 3623 3628 0
-4455 4454 -4453 0
-4455 -4454 4453 0
4455 -4454 -4453 0
4455 4454 4453 0
-4456 -3628 0
-4456 -4453 0
4456 3628 4453 0
-4457 3623 0
-4457 -4453 0
4457 -3623 4453 0
-4458 -4457 0
-4458 -4456 0
4458 4457 4456 0
-4459 3623 0
-4459 -3628 0
4459 -3623 3628 0
-4460 -4459 0
-4460 4458 0
4460 4459 -4458 0
-4461 3635 -3640 0
-4461 -3635 3640 0
4461 -3635 -3640 0
4461 3635 3640 0
-4462 4461 -4460 0
-4462 -4461 4460 0
4462 -4461 -4460 0
4462 4461 4460 0
-4463 -3640 0
-4463 -4460 0
4463 3640 4460 0
-4464 3635 0
-4464 -4460 0
4464 -3635 4460 0
-4465 -4464 0
-4465 -4463 0
4465 4464 4463 0
-4466 3635 0
-4466 -3640 0
4466 -3635 3640 0
-4467 -4466 0
-4467 4465 0
4467 4466 -4465 0
-4468 3647 -3652 0
-4468 -3647 3652 0
4468 -3647 -3652 0
4468 3647 3652 0
-4469 4468 -4467 0
-4469 -4468 4467 0
4469 -4468 -4467 0
4469 4468 4467 0
-4470 -3652 0
-4470 -4467 0
4470 3652 4467 0
-4471 3647 0
-4471 -4467 0
4471 -3647 4467 0
-4472 -4471 0
-4472 -4470 0
4472 4471 4470 0
-4473 3647 0
-4473 -3652 0
4473 -3647 3652 0
-4474 -4473 0
-4474 4472 0
4474 4473 -4472 0
-4475 3659 -3664 0
-4475 -3659 3664 0
4475 -3659 -3664 0
4475 3659 3664 0
-4476 4475 -4474 0
-4476 -4475 4474 0
4476 -4475 -4474 0
4476 4475 4474 0
-4477 -3664 0
-4477 -4474 0
4477 3664 4474 0
-4478 3659 0
-4478 -4474 0
4478 -3659 4474 0
-4479 -4478 0
-4479 -4477 0
4479 4478 4477 0
-4480 3659 0
-4480 -3664 0
4480 -3659 3664 0
-4481 -4480 0
-4481 4479 0
4481 4480 -4479 0
-4482 3671 -3676 0
-4482 -3671 3676 0
4482 -3671 -3676 0
4482 3671 3676 0
-4483 4482 -4481 0
-4483 -4482 4481 0
4483 -4482 -4481 0
4483 4482 4481 0
-4484 -3676 0
-4484 -4481 0
4484 3676 4481 0
-4485 3671 0
-4485 -4481 0
4485 -3671 4481 0
-4486 -4485 0
-4486 -4484 0
4486 4485 4484 0
-4487 3671 0
-4487 -3676 0
4487 -3671 3676 0
-4488 -4487 0
-4488 4486 0
4488 4487 -4486 0
-4489 3683 -3688 0
-4489 -3683 3688 0
4489 -3683 -3688 0
4489 3683 3688 0
-4490 4489 -4488 0
-4490 -4489 4488 0
4490 -4489 -4488 0
4490 4489 4488 0
-4491 -3688 0
-4491 -4488 0
4491 3688 4488 0
-4492 3683 0
-4492 -4488 0
4492 -3683 4488 0
-4493 -4492 0
-4493 -4491 0
4493 4492 4491 0
-4494 3683 0
-4494 -3688 0
4494 -3683 3688 0
-4495 -4494 0
-4495 4493 0
4495 4494 -4493 0
-4496 3695 -3700 0
-4496 -3695 3700 0
4496 -3695 -3700 0
4496 3695 3700 0
-4497 4496 -4495 0
-4497 -4496 4495 0
4497 -4496 -4495 0
4497 4496 4495 0
-4498 -3700 0
-4498 -4495 0
4498 3700 4495 0
-4499 3695 0
-4499 -4495 0
4499 -3695 4495 0
-4500 -4499 0
-4500 -4498 0
4500 4499 4498 0
-4501 3695 0
-4501 -3700 0
4501 -3695 3700 0
-4502 -4501 0
-4502 4500 0
4502 4501 -4500 0
-4503 3707 -3712 0
-4503 -3707 3712 0
4503 -3707 -3712 0
4503 3707 3712 0
-4504 4503 -4502 0
-4504 -4503 4502 0
4504 -4503 -4502 0
4504 4503 4502 0
-4505 -3712 0
-4505 -4502 0
4505 3712 4502 0
-4506 3707 0
-4506 -4502 0
4506 -3707 4502 0
-4507 -4506 0
-4507 -4505 0
4507 4506 4505 0
-4508 3707 0
-4508 -3712 0
4508 -3707 3712 0
-4509 -4508 0
-4509 4507 0
4509 4508 -4507 0
-4510 3719 -3724 0
-4510 -3719 3724 0
4510 -3719 -3724 0
4510 3719 3724 0
-4511 4510 -4509 0
-4511 -4510 4509 0
4511 -4510 -4509 0
4511 4510 4509 0
-4512 -3724 0
-4512 -4509 0
4512 3724 4509 0
-4513 3719 0
-4513 -4509 0
4513 -3719 4509 0
-4514 -4513 0
-4514 -4512 0
4514 4513 4512 0
-4515 3719 0
-4515 -3724 0
4515 -3719 3724 0
-4516 -4515 0
-4516 4514 0
4516 4515 -4514 0
-4517 3731 -3736 0
-4517 -3731 3736 0
4517 -3731 -3736 0
4517 3731 3736 0
-4518 4517 -4516 0
-4518 -4517 4516 0
4518 -4517 -4516 0
4518 4517 4516 0
-4519 -3736 0
-4519 -4516 0
4519 3736 4516 0
-4520 3731 0
-4520 -4516 0
4520 -3731 4516 0
-4521 -4520 0
-4521 -4519 0
4521 4520 4519 0
-4522 3731 0
-4522 -3736 0
4522 -3731 3736 0
-4523 -4522 0
-4523 4521 0
4523 4522 -4521 0
-4524 3743 -3748 0
-4524 -3743 3748 0
4524 -3743 -3748 0
4524 3743 3748 0
-4525 4524 -4523 0
-4525 -4524 4523 0
4525 -4524 -4523 0
4525 4524 4523 0
-4526 -3748 0
-4526 -4523 0
4526 3748 4523 0
-4527 3743 0
-4527 -4523 0
4527 -3743 4523 0
-4528 -4527 0
-4528 -4526 0
4528 4527 4526 0
-4529 3743 0
-4529 -3748 0
4529 -3743 3748 0
-4530 -4529 0
-4530 4528 0
4530 4529 -4528 0
-4531 3755 -3760 0
-4531 -3755 3760 0
4531 -3755 -3760 0
4531 3755 3760 0
-4532 4531 -4530 0
-4532 -4531 4530 0
4532 -4531 -4530 0
4532 4531 4530 0
-4533 -3760 0
-4533 -4530 0
4533 3760 4530 0
-4534 3755 0
-4534 -4530 0
4534 -3755 4530 0
-4535 -4534 0
-4535 -4533 0
4535 4534 4533 0
-4536 3755 0
-4536 -3760 0
4536 -3755 3760 0
-4537 -4536 0
-4537 4535 0
4537 4536 -4535 0
-4538 3767 -3772 0
-4538 -3767 3772 0
4538 -3767 -3772 0
4538 3767 3772 0
-4539 4538 -4537 0
-4539 -4538 4537 0
4539 -4538 -4537 0
4539 4538 4537 0
-4540 -3772 0
-4540 -4537 0
4540 3772 4537 0
-4541 3767 0
-4541 -4537 0
4541 -3767 4537 0
-4542 -4541 0
-4542 -4540 0
4542 4541 4540 0
-4543 3767 0
-4543 -3772 0
4543 -3767 3772 0
-4544 -4543 0
-4544 4542 0
4544 4543 -4542 0
-4545 3779 -3784 0
-4545 -3779 3784 0
4545 -3779 -3784 0
4545 3779 3784 0
-4546 4545 -4544 0
-4546 -4545 4544 0
4546 -4545 -4544 0
4546 4545 4544 0
-4547 -3784 0
-4547 -4544 0
4547 3784 4544 0
-4548 3779 0
-4548 -4544 0
4548 -3779 4544 0
-4549 -4548 0
-4549 -4547 0
4549 4548 4547 0
-4550 3779 0
-4550 -3784 0
4550 -3779 3784 0
-4551 -4550 0
-4551 4549 0
4551 4550 -4549 0
-4552 3791 -3796 0
-4552 -3791 3796 0
4552 -3791 -3796 0
4552 3791 3796 0
-4553 4552 -4551 0
-4553 -4552 4551 0
4553 -4552 -4551 0
4553 4552 4551 0
-4554 -3796 0
-4554 -4551 0
4554 3796 4551 0
-4555 3791 0
-4555 -4551 0
4555 -3791 4551 0
-4556 -4555 0
-4556 -4554 0
4556 4555 4554 0
-4557 3791 0
-4557 -3796 0
4557 -3791 3796 0
-4558 -4557 0
-4558 4556 0
4558 4557 -4556 0
-4559 3803 -3808 0
-4559 -3803 3808 0
4559 -3803 -3808 0
4559 3803 3808 0
-4560 4559 -4558 0
-4560 -4559 4558 0
4560 -4559 -4558 0
4560 4559 4558 0
-4561 -3808 0
-4561 -4558 0
4561 3808 4558 0
-4562 3803 0
-4562 -4558 0
4562 -3803 4558 0
-4563 -4562 0
-4563 -4561 0
4563 4562 4561 0
-4564 3803 0
-4564 -3808 0
4564 -3803 3808 0
-4565 -4564 0
-4565 4563 0
4565 4564 -4563 0
-4566 3815 -3820 0
-4566 -3815 3820 0
4566 -3815 -3820 0
4566 3815 3820 0
-4567 4566 -4565 0
-4567 -4566 4565 0
4567 -4566 -4565 0
4567 4566 4565 0
-4568 -3820 0
-4568 -4565 0
4568 3820 4565 0
-4569 3815 0
-4569 -4565 0
4569 -3815 4565 0
-4570 -4569 0
-4570 -4568 0
4570 4569 4568 0
-4571 3815 0
-4571 -3820 0
4571 -3815 3820 0
-4572 -4571 0
-4572 4570 0
4572 4571 -4570 0
-4573 3827 -3832 0
-4573 -3827 3832 0
4573 -3827 -3832 0
4573 3827 3832 0
-4574 4573 -4572 0
-4574 -4573 4572 0
4574 -4573 -4572 0
4574 4573 4572 0
-4575 -3832 0
-4575 -4572 0
4575 3832 4572 0
-4576 3827 0
-4576 -4572 0
4576 -3827 4572 0
-4577 -4576 0
-4577 -4575 0
4577 4576 4575 0
-4578 3827 0
-4578 -3832 0
4578 -3827 3832 0
-4579 -4578 0
-4579 4577 0
4579 4578 -4577 0
-4580 3839 -3844 0
-4580 -3839 3844 0
4580 -3839 -3844 0
4580 3839 3844 0
-4581 4580 -4579 0
-4581 -4580 4579 0
4581 -4580 -4579 0
4581 4580 4579 0
-4582 -3844 0
-4582 -4579 0
4582 3844 4579 0
-4583 3839 0
-4583 -4579 0
4583 -3839 4579 0
-4584 -4583 0
-4584 -4582 0
4584 4583 4582 0
-4585 3839 0
-4585 -3844 0
4585 -3839 3844 0
-4586 -4585 0
-4586 4584 0
4586 4585 -4584 0
-4587 3851 -3856 0
-4587 -3851 3856 0
4587 -3851 -3856 0
4587 3851 3856 0
-4588 4587 -4586 0
-4588 -4587 4586 0
4588 -4587 -4586 0
4588 4587 4586 0
-4589 -3856 0
-4589 -4586 0
4589 3856 4586 0
-4590 3851 0
-4590 -4586 0
4590 -3851 4586 0
-4591 -4590 0
-4591 -4589 0
4591 4590 4589 0
-4592 3851 0
-4592 -3856 0
4592 -3851 3856 0
-4593 -4592 0
-4593 4591 0
4593 4592 -4591 0
-4594 3863 -3868 0
-4594 -3863 3868 0
4594 -3863 -3868 0
4594 3863 3868 0
-4595 4594 -4593 0
-4595 -4594 4593 0
4595 -4594 -4593 0
4595 4594 4593 0
-4596 -3868 0
-4596 -4593 0
4596 3868 4593 0
-4597 3863 0
-4597 -4593 0
4597 -3863 4593 0
-4598 -4597 0
-4598 -4596 0
4598 4597 4596 0
-4599 3863 0
-4599 -3868 0
4599 -3863 3868 0
-4600 -4599 0
-4600 4598 0
4600 4599 -4598 0
-4601 3875 -3880 0
-4601 -3875 3880 0
4601 -3875 -3880 0
4601 3875 3880 0
-4602 4601 -4600 0
-4602 -4601 4600 0
4602 -4601 -4600 0
4602 4601 4600 0
-4603 -3880 0
-4603 -4600 0
4603 3880 4600 0
-4604 3875 0
-4604 -4600 0
4604 -3875 4600 0
-4605 -4604 0
-4605 -4603 0
4605 4604 4603 0
-4606 3875 0
-4606 -3880 0
4606 -3875 3880 0
-4607 -4606 0
-4607 4605 0
4607 4606 -4605 0
-4608 3887 -3892 0
-4608 -3887 3892 0
4608 -3887 -3892 0
4608 3887 3892 0
-4609 4608 -4607 0
-4609 -4608 4607 0
4609 -4608 -4607 0
4609 4608 4607 0
-4610 -3892 0
-4610 -4607 0
4610 3892 4607 0
-4611 3887 0
-4611 -4607 0
4611 -3887 4607 0
-4612 -4611 0
-4612 -4610 0
4612 4611 4610 0
-4613 3887 0
-4613 -3892 0
4613 -3887 3892 0
-4614 -4613 0
-4614 4612 0
4614 4613 -4612 0
-4615 3899 -3904 0
-4615 -3899 3904 0
4615 -3899 -3904 0
4615 3899 3904 0
-4616 4615 -4614 0
-4616 -4615 4614 0
4616 -4615 -4614 0
4616 4615 4614 0
-4617 -3904 0
-4617 -4614 0
4617 3904 4614 0
-4618 3899 0
-4618 -4614 0
4618 -3899 4614 0
-4619 -4618 0
-4619 -4617 0
4619 4618 4617 0
-4620 3899 0
-4620 -3904 0
4620 -3899 3904 0
-4621 -4620 0
-4621 4619 0
4621 4620 -4619 0
-4622 3911 -3916 0
-4622 -3911 3916 0
4622 -3911 -3916 0
4622 3911 3916 0
-4623 4622 -4621 0
-4623 -4622 4621 0
4623 -4622 -4621 0
4623 4622 4621 0
-4624 -3916 0
-4624 -4621 0
4624 3916 4621 0
-4625 3911 0
-4625 -4621 0
4625 -3911 4621 0
-4626 -4625 0
-4626 -4624 0
4626 4625 4624 0
-4627 3911 0
-4627 -3916 0
4627 -3911 3916 0
-4628 -4627 0
-4628 4626 0
4628 4627 -4626 0
-4629 4194 4191 0
-4629 -4194 -4191 0
4629 -4194 4191 0
4629 4194 -4191 0
-4630 4194 0
-4630 4191 0
4630 -4194 -4191 0
-4631 -4201 4630 0
-4631 4201 -4630 0
4631 4201 4630 0
4631 -4201 -4630 0
-4632 4201 0
-4632 4630 0
4632 -4201 -4630 0
-4633 -4630 0
-4633 -4632 0
4633 4630 4632 0
-4634 -4201 0
-4634 4633 0
4634 4201 -4633 0
-4635 -4208 -4634 0
-4635 4208 4634 0
4635 4208 -4634 0
4635 -4208 4634 0
-4636 4208 0
-4636 -4634 0
4636 -4208 4634 0
-4637 4634 0
-4637 -4636 0
4637 -4634 4636 0
-4638 -4208 0
-4638 4637 0
4638 4208 -4637 0
-4639 4215 -4638 0
-4639 -4215 4638 0
4639 -4215 -4638 0
4639 4215 4638 0
-4640 4215 0
-4640 -4638 0
4640 -4215 4638 0
-4641 4222 4640 0
-4641 -4222 -4640 0
4641 -4222 4640 0
4641 4222 -4640 0
-4642 4222 0
-4642 4640 0
4642 -4222 -4640 0
-4643 -4229 4642 0
-4643 4229 -4642 0
4643 4229 4642 0
4643 -4229 -4642 0
-4644 4229 0
-4644 4642 0
4644 -4229 -4642 0
-4645 -4642 0
-4645 -4644 0
4645 4642 4644 0
-4646 -4229 0
-4646 4645 0
4646 4229 -4645 0
-4647 -4236 -4646 0
-4647 4236 4646 0
4647 4236 -4646 0
4647 -4236 4646 0
-4648 4236 0
-4648 -4646 0
4648 -4236 4646 0
-4649 4646 0
-4649 -4648 0
4649 -4646 4648 0
-4650 -4236 0
-4650 4649 0
4650 4236 -4649 0
-4651 24 4243 0
-4651 -24 -4243 0
4651 -24 4243 0
4651 24 -4243 0
-4652 4651 -4650 0
-4652 -4651 4650 0
4652 -4651 -4650 0
4652 4651 4650 0
-4653 4243 0
-4653 -4650 0
4653 -4243 4650 0
-4654 24 0
-4654 -4650 0
4654 -24 4650 0
-4655 -4654 0
-4655 -4653 0
4655 4654 4653 0
-4656 24 0
-4656 4243 0
4656 -24 -4243 0
-4657 -4656 0
-4657 4655 0
4657 4656 -4655 0
-4658 281 4250 0
-4658 -281 -4250 0
4658 -281 4250 0
4658 281 -4250 0
-4659 4658 -4657 0
-4659 -4658 4657 0
4659 -4658 -4657 0
4659 4658 4657 0
-4660 4250 0
-4660 -4657 0
4660 -4250 4657 0
-4661 281 0
-4661 -4657 0
4661 -281 4657 0
-4662 -4661 0
-4662 -4660 0
4662 4661 4660 0
-4663 281 0
-4663 4250 0
4663 -281 -4250 0
-4664 -4663 0
-4664 4662 0
4664 4663 -4662 0
-4665 285 4257 0
-4665 -285 -4257 0
4665 -285 4257 0
4665 285 -4257 0
-4666 4665 -4664 0
-4666 -4665 4664 0
4666 -4665 -4664 0
4666 4665 4664 0
-4667 4257 0
-4667 -4664 0
4667 -4257 4664 0
-4668 285 0
-4668 -4664 0
4668 -285 4664 0
-4669 -4668 0
-4669 -4667 0
4669 4668 4667 0
-4670 285 0
-4670 4257 0
4670 -285 -4257 0
-4671 -4670 0
-4671 4669 0
4671 4670 -4669 0
-4672 287 4264 0
-4672 -287 -4264 0
4672 -287 4264 0
4672 287 -4264 0
-4673 4672 -4671 0
-4673 -4672 4671 0
4673 -4672 -4671 0
4673 4672 4671 0
-4674 4264 0
-4674 -4671 0
4674 -4264 4671 0
-4675 287 0
-4675 -4671 0
4675 -287 4671 0
-4676 -4675 0
-4676 -4674 0
4676 4675 4674 0
-4677 287 0
-4677 4264 0
4677 -287 -4264 0
-4678 -4677 0
-4678 4676 0
4678 4677 -4676 0
-4679 291 4271 0
-4679 -291 -4271 0
4679 -291 4271 0
4679 291 -4271 0
-4680 4679 -4678 0
-4680 -4679 4678 0
4680 -4679 -4678 0
4680 4679 4678 0
-4681 4271 0
-4681 -4678 0
4681 -4271 4678 0
-4682 291 0
-4682 -4678 0
4682 -291 4678 0
-4683 -4682 0
-4683 -4681 0
4683 4682 4681 0
-4684 291 0
-4684 4271 0
4684 -291 -4271 0
-4685 -4684 0
-4685 4683 0
4685 4684 -4683 0
-4686 295 4278 0
-4686 -295 -4278 0
4686 -295 4278 0
4686 295 -4278 0
-4687 4686 -4685 0
-4687 -4686 4685 0
4687 -4686 -4685 0
4687 4686 4685 0
-4688 4278 0
-4688 -4685 0
4688 -4278 4685 0
-4689 295 0
-4689 -4685 0
4689 -295 4685 0
-4690 -4689 0
-4690 -4688 0
4690 4689 4688 0
-4691 295 0
-4691 4278 0
4691 -295 -4278 0
-4692 -4691 0
-4692 4690 0
4692 4691 -4690 0
-4693 297 4285 0
-4693 -297 -4285 0
4693 -297 4285 0
4693 297 -4285 0
-4694 4693 -4692 0
-4694 -4693 4692 0
4694 -4693 -4692 0
4694 4693 4692 0
-4695 4285 0
-4695 -4692 0
4695 -4285 4692 0
-4696 297 0
-4696 -4692 0
4696 -297 4692 0
-4697 -4696 0
-4697 -4695 0
4697 4696 4695 0
-4698 297 0
-4698 4285 0
4698 -297 -4285 0
-4699 -4698 0
-4699 4697 0
4699 4698 -4697 0
-4700 299 4292 0
-4700 -299 -4292 0
4700 -299 4292 0
4700 299 -4292 0
-4701 4700 -4699 0
-4701 -4700 4699 0
4701 -4700 -4699 0
4701 4700 4699 0
-4702 4292 0
-4702 -4699 0
4702 -4292 4699 0
-4703 299 0
-4703 -4699 0
4703 -299 4699 0
-4704 -4703 0
-4704 -4702 0
4704 4703 4702 0
-4705 299 0
-4705 4292 0
4705 -299 -4292 0
-4706 -4705 0
-4706 4704 0
4706 4705 -4704 0
-4707 303 4299 0
-4707 -303 -4299 0
4707 -303 4299 0
4707 303 -4299 0
-4708 4707 -4706 0
-4708 -4707 4706 0
4708 -4707 -4706 0
4708 4707 4706 0
-4709 4299 0
-4709 -4706 0
4709 -4299 4706 0
-4710 303 0
-4710 -4706 0
4710 -303 4706 0
-4711 -4710 0
-4711 -4709 0
4711 4710 4709 0
-4712 303 0
-4712 4299 0
4712 -303 -4299 0
-4713 -4712 0
-4713 4711 0
4713 4712 -4711 0
-4714 305 4306 0
-4714 -305 -4306 0
4714 -305 4306 0
4714 305 -4306 0
-4715 4714 -4713 0
-4715 -4714 4713 0
4715 -4714 -4713 0
4715 4714 4713 0
-4716 4306 0
-4716 -4713 0
4716 -4306 4713 0
-4717 305 0
-4717 -4713 0
4717 -305 4713 0
-4718 -4717 0
-4718 -4716 0
4718 4717 4716 0
-4719 305 0
-4719 4306 0
4719 -305 -4306 0
-4720 -4719 0
-4720 4718 0
4720 4719 -4718 0
-4721 307 4313 0
-4721 -307 -4313 0
4721 -307 4313 0
4721 307 -4313 0
-4722 4721 -4720 0
-4722 -4721 4720 0
4722 -4721 -4720 0
4722 4721 4720 0
-4723 4313 0
-4723 -4720 0
4723 -4313 4720 0
-4724 307 0
-4724 -4720 0
4724 -307 4720 0
-4725 -4724 0
-4725 -4723 0
4725 4724 4723 0
-4726 307 0
-4726 4313 0
4726 -307 -4313 0
-4727 -4726 0
-4727 4725 0
4727 4726 -4725 0
-4728 309 4320 0
-4728 -309 -4320 0
4728 -309 4320 0
4728 309 -4320 0
-4729 4728 -4727 0
-4729 -4728 4727 0
4729 -4728 -4727 0
4729 4728 4727 0
-4730 4320 0
-4730 -4727 0
4730 -4320 4727 0
-4731 309 0
-4731 -4727 0
4731 -309 4727 0
-4732 -4731 0
-4732 -4730 0
4732 4731 4730 0
-4733 309 0
-4733 4320 0
4733 -309 -4320 0
-4734 -4733 0
-4734 4732 0
4734 4733 -4732 0
-4735 311 4327 0
-4735 -311 -4327 0
4735 -311 4327 0
4735 311 -4327 0
-4736 4735 -4734 0
-4736 -4735 4734 0
4736 -4735 -4734 0
4736 4735 4734 0
-4737 4327 0
-4737 -4734 0
4737 -4327 4734 0
-4738 311 0
-4738 -4734 0
4738 -311 4734 0
-4739 -4738 0
-4739 -4737 0
4739 4738 4737 0
-4740 311 0
-4740 4327 0
4740 -311 -4327 0
-4741 -4740 0
-4741 4739 0
4741 4740 -4739 0
-4742 315 4334 0
-4742 -315 -4334 0
4742 -315 4334 0
4742 315 -4334 0
-4743 4742 -4741 0
-4743 -4742 4741 0
4743 -4742 -4741 0
4743 4742 4741 0
-4744 4334 0
-4744 -4741 0
4744 -4334 4741 0
-4745 315 0
-4745 -4741 0
4745 -315 4741 0
-4746 -4745 0
-4746 -4744 0
4746 4745 4744 0
-4747 315 0
-4747 4334 0
4747 -315 -4334 0
-4748 -4747 0
-4748 4746 0
4748 4747 -4746 0
-4749 317 4341 0
-4749 -317 -4341 0
4749 -317 4341 0
4749 317 -4341 0
-4750 4749 -4748 0
-4750 -4749 4748 0
4750 -4749 -4748 0
4750 4749 4748 0
-4751 4341 0
-4751 -4748 0
4751 -4341 4748 0
-4752 317 0
-4752 -4748 0
4752 -317 4748 0
-4753 -4752 0
-4753 -4751 0
4753 4752 4751 0
-4754 317 0
-4754 4341 0
4754 -317 -4341 0
-4755 -4754 0
-4755 4753 0
4755 4754 -4753 0
-4756 319 4348 0
-4756 -319 -4348 0
4756 -319 4348 0
4756 319 -4348 0
-4757 4756 -4755 0
-4757 -4756 4755 0
4757 -4756 -4755 0
4757 4756 4755 0
-4758 4348 0
-4758 -4755 0
4758 -4348 4755 0
-4759 319 0
-4759 -4755 0
4759 -319 4755 0
-4760 -4759 0
-4760 -4758 0
4760 4759 4758 0
-4761 319 0
-4761 4348 0
4761 -319 -4348 0
-4762 -4761 0
-4762 4760 0
4762 4761 -4760 0
-4763 323 4355 0
-4763 -323 -4355 0
4763 -323 4355 0
4763 323 -4355 0
-4764 4763 -4762 0
-4764 -4763 4762 0
4764 -4763 -4762 0
4764 4763 4762 0
-4765 4355 0
-4765 -4762 0
4765 -4355 4762 0
-4766 323 0
-4766 -4762 0
4766 -323 4762 0
-4767 -4766 0
-4767 -4765 0
4767 4766 4765 0
-4768 323 0
-4768 4355 0
4768 -323 -4355 0
-4769 -4768 0
-4769 4767 0
4769 4768 -4767 0
-4770 325 4362 0
-4770 -325 -4362 0
4770 -325 4362 0
4770 325 -4362 0
-4771 4770 -4769 0
-4771 -4770 4769 0
4771 -4770 -4769 0
4771 4770 4769 0
-4772 4362 0
-4772 -4769 0
4772 -4362 4769 0
-4773 325 0
-4773 -4769 0
4773 -325 4769 0
-4774 -4773 0
-4774 -4772 0
4774 4773 4772 0
-4775 325 0
-4775 4362 0
4775 -325 -4362 0
-4776 -4775 0
-4776 4774 0
4776 4775 -4774 0
-4777 327 4369 0
-4777 -327 -4369 0
4777 -327 4369 0
4777 327 -4369 0
-4778 4777 -4776 0
-4778 -4777 4776 0
4778 -4777 -4776 0
4778 4777 4776 0
-4779 4369 0
-4779 -4776 0
4779 -4369 4776 0
-4780 327 0
-4780 -4776 0
4780 -327 4776 0
-4781 -4780 0
-4781 -4779 0
4781 4780 4779 0
-4782 327 0
-4782 4369 0
4782 -327 -4369 0
-4783 -4782 0
-4783 4781 0
4783 4782 -4781 0
-4784 329 4376 0
-4784 -329 -4376 0
4784 -329 4376 0
4784 329 -4376 0
-4785 4784 -4783 0
-4785 -4784 4783 0
4785 -4784 -4783 0
4785 4784 4783 0
-4786 4376 0
-4786 -4783 0
4786 -4376 4783 0
-4787 329 0
-4787 -4783 0
4787 -329 4783 0
-4788 -4787 0
-4788 -4786 0
4788 4787 4786 0
-4789 329 0
-4789 4376 0
4789 -329 -4376 0
-4790 -4789 0
-4790 4788 0
4790 4789 -4788 0
-4791 333 4383 0
-4791 -333 -4383 0
4791 -333 4383 0
4791 333 -4383 0
-4792 4791 -4790 0
-4792 -4791 4790 0
4792 -4791 -4790 0
4792 4791 4790 0
-4793 4383 0
-4793 -4790 0
4793 -4383 4790 0
-4794 333 0
-4794 -4790 0
4794 -333 4790 0
-4795 -4794 0
-4795 -4793 0
4795 4794 4793 0
-4796 333 0
-4796 4383 0
4796 -333 -4383 0
-4797 -4796 0
-4797 4795 0
4797 4796 -4795 0
-4798 335 4390 0
-4798 -335 -4390 0
4798 -335 4390 0
4798 335 -4390 0
-4799 4798 -4797 0
-4799 -4798 4797 0
4799 -4798 -4797 0
4799 4798 4797 0
-4800 4390 0
-4800 -4797 0
4800 -4390 4797 0
-4801 335 0
-4801 -4797 0
4801 -335 4797 0
-4802 -4801 0
-4802 -4800 0
4802 4801 4800 0
-4803 335 0
-4803 4390 0
4803 -335 -4390 0
-4804 -4803 0
-4804 4802 0
4804 4803 -4802 0
-4805 337 4397 0
-4805 -337 -4397 0
4805 -337 4397 0
4805 337 -4397 0
-4806 4805 -4804 0
-4806 -4805 4804 0
4806 -4805 -4804 0
4806 4805 4804 0
-4807 4397 0
-4807 -4804 0
4807 -4397 4804 0
-4808 337 0
-4808 -4804 0
4808 -337 4804 0
-4809 -4808 0
-4809 -4807 0
4809 4808 4807 0
-4810 337 0
-4810 4397 0
4810 -337 -4397 0
-4811 -4810 0
-4811 4809 0
4811 4810 -4809 0
-4812 339 4404 0
-4812 -339 -4404 0
4812 -339 4404 0
4812 339 -4404 0
-4813 4812 -4811 0
-4813 -4812 4811 0
4813 -4812 -4811 0
4813 4812 4811 0
-4814 4404 0
-4814 -4811 0
4814 -4404 4811 0
-4815 339 0
-4815 -4811 0
4815 -339 4811 0
-4816 -4815 0
-4816 -4814 0
4816 4815 4814 0
-4817 339 0
-4817 4404 0
4817 -339 -4404 0
-4818 -4817 0
-4818 4816 0
4818 4817 -4816 0
-4819 4191 4410 0
-4819 -4191 -4410 0
4819 -4191 4410 0
4819 4191 -4410 0
-4820 4191 0
-4820 4410 0
4820 -4191 -4410 0
-4821 4194 4413 0
-4821 -4194 -4413 0
4821 -4194 4413 0
4821 4194 -4413 0
-4822 4821 4820 0
-4822 -4821 -4820 0
4822 -4821 4820 0
4822 4821 -4820 0
-4823 4413 0
-4823 4820 0
4823 -4413 -4820 0
-4824 4194 0
-4824 4820 0
4824 -4194 -4820 0
-4825 -4824 0
-4825 -4823 0
4825 4824 4823 0
-4826 4194 0
-4826 4413 0
4826 -4194 -4413 0
-4827 -4826 0
-4827 4825 0
4827 4826 -4825 0
-4828 4201 4420 0
-4828 -4201 -4420 0
4828 -4201 4420 0
4828 4201 -4420 0
-4829 4828 -4827 0
-4829 -4828 4827 0
4829 -4828 -4827 0
4829 4828 4827 0
-4830 4420 0
-4830 -4827 0
4830 -4420 4827 0
-4831 4201 0
-4831 -4827 0
4831 -4201 4827 0
-4832 -4831 0
-4832 -4830 0
4832 4831 4830 0
-4833 4201 0
-4833 4420 0
4833 -4201 -4420 0
-4834 -4833 0
-4834 4832 0
4834 4833 -4832 0
-4835 4208 4427 0
-4835 -4208 -4427 0
4835 -4208 4427 0
4835 4208 -4427 0
-4836 4835 -4834 0
-4836 -4835 4834 0
4836 -4835 -4834 0
4836 4835 4834 0
-4837 4427 0
-4837 -4834 0
4837 -4427 4834 0
-4838 4208 0
-4838 -4834 0
4838 -4208 4834 0
-4839 -4838 0
-4839 -4837 0
4839 4838 4837 0
-4840 4208 0
-4840 4427 0
4840 -4208 -4427 0
-4841 -4840 0
-4841 4839 0
4841 4840 -4839 0
-4842 4215 4434 0
-4842 -4215 -4434 0
4842 -4215 4434 0
4842 4215 -4434 0
-4843 4842 -4841 0
-4843 -4842 4841 0
4843 -4842 -4841 0
4843 4842 4841 0
-4844 4434 0
-4844 -4841 0
4844 -4434 4841 0
-4845 4215 0
-4845 -4841 0
4845 -4215 4841 0
-4846 -4845 0
-4846 -4844 0
4846 4845 4844 0
-4847 4215 0
-4847 4434 0
4847 -4215 -4434 0
-4848 -4847 0
-4848 4846 0
4848 4847 -4846 0
-4849 4222 4441 0
-4849 -4222 -4441 0
4849 -4222 4441 0
4849 4222 -4441 0
-4850 4849 -4848 0
-4850 -4849 4848 0
4850 -4849 -4848 0
4850 4849 4848 0
-4851 4441 0
-4851 -4848 0
4851 -4441 4848 0
-4852 4222 0
-4852 -4848 0
4852 -4222 4848 0
-4853 -4852 0
-4853 -4851 0
4853 4852 4851 0
-4854 4222 0
-4854 4441 0
4854 -4222 -4441 0
-4855 -4854 0
-4855 4853 0
4855 4854 -4853 0
-4856 4229 4448 0
-4856 -4229 -4448 0
4856 -4229 4448 0
4856 4229 -4448 0
-4857 4856 -4855 0
-4857 -4856 4855 0
4857 -4856 -4855 0
4857 4856 4855 0
-4858 4448 0
-4858 -4855 0
4858 -4448 4855 0
-4859 4229 0
-4859 -4855 0
4859 -4229 4855 0
-4860 -4859 0
-4860 -4858 0
4860 4859 4858 0
-4861 4229 0
-4861 4448 0
4861 -4229 -4448 0
-4862 -4861 0
-4862 4860 0
4862 4861 -4860 0
-4863 4236 4455 0
-4863 -4236 -4455 0
4863 -4236 4455 0
4863 4236 -4455 0
-4864 4863 -4862 0
-4864 -4863 4862 0
4864 -4863 -4862 0
4864 4863 4862 0
-4865 4455 0
-4865 -4862 0
4865 -4455 4862 0
-4866 4236 0
-4866 -4862 0
4866 -4236 4862 0
-4867 -4866 0
-4867 -4865 0
4867 4866 4865 0
-4868 4236 0
-4868 4455 0
4868 -4236 -4455 0
-4869 -4868 0
-4869 4867 0
4869 4868 -4867 0
-4870 4243 4462 0
-4870 -4243 -4462 0
4870 -4243 4462 0
4870 4243 -4462 0
-4871 4870 -4869 0
-4871 -4870 4869 0
4871 -4870 -4869 0
4871 4870 4869 0
-4872 4462 0
-4872 -4869 0
4872 -4462 4869 0
-4873 4243 0
-4873 -4869 0
4873 -4243 4869 0
-4874 -4873 0
-4874 -4872 0
4874 4873 4872 0
-4875 4243 0
-4875 4462 0
4875 -4243 -4462 0
-4876 -4875 0
-4876 4874 0
4876 4875 -4874 0
-4877 4250 4469 0
-4877 -4250 -4469 0
4877 -4250 4469 0
4877 4250 -4469 0
-4878 4877 -4876 0
-4878 -4877 4876 0
4878 -4877 -4876 0
4878 4877 4876 0
-4879 4469 0
-4879 -4876 0
4879 -4469 4876 0
-4880 4250 0
-4880 -4876 0
4880 -4250 4876 0
-4881 -4880 0
-4881 -4879 0
4881 4880 4879 0
-4882 4250 0
-4882 4469 0
4882 -4250 -4469 0
-4883 -4882 0
-4883 4881 0
4883 4882 -4881 0
-4884 4257 4476 0
-4884 -4257 -4476 0
4884 -4257 4476 0
4884 4257 -4476 0
-4885 4884 -4883 0
-4885 -4884 4883 0
4885 -4884 -4883 0
4885 4884 4883 0
-4886 4476 0
-4886 -4883 0
4886 -4476 4883 0
-4887 4257 0
-4887 -4883 0
4887 -4257 4883 0
-4888 -4887 0
-4888 -4886 0
4888 4887 4886 0
-4889 4257 0
-4889 4476 0
4889 -4257 -4476 0
-4890 -4889 0
-4890 4888 0
4890 4889 -4888 0
-4891 4264 4483 0
-4891 -4264 -4483 0
4891 -4264 4483 0
4891 4264 -4483 0
-4892 4891 -4890 0
-4892 -4891 4890 0
4892 -4891 -4890 0
4892 4891 4890 0
-4893 4483 0
-4893 -4890 0
4893 -4483 4890 0
-4894 4264 0
-4894 -4890 0
4894 -4264 4890 0
-4895 -4894 0
-4895 -4893 0
4895 4894 4893 0
-4896 4264 0
-4896 4483 0
4896 -4264 -4483 0
-4897 -4896 0
-4897 4895 0
4897 4896 -4895 0
-4898 4271 4490 0
-4898 -4271 -4490 0
4898 -4271 4490 0
4898 4271 -4490 0
-4899 4898 -4897 0
-4899 -4898 4897 0
4899 -4898 -4897 0
4899 4898 4897 0
-4900 4490 0
-4900 -4897 0
4900 -4490 4897 0
-4901 4271 0
-4901 -4897 0
4901 -4271 4897 0
-4902 -4901 0
-4902 -4900 0
4902 4901 4900 0
-4903 4271 0
-4903 4490 0
4903 -4271 -4490 0
-4904 -4903 0
-4904 4902 0
4904 4903 -4902 0
-4905 4278 4497 0
-4905 -4278 -4497 0
4905 -4278 4497 0
4905 4278 -4497 0
-4906 4905 -4904 0
-4906 -4905 4904 0
4906 -4905 -4904 0
4906 4905 4904 0
-4907 4497 0
-4907 -4904 0
4907 -4497 4904 0
-4908 4278 0
-4908 -4904 0
4908 -4278 4904 0
-4909 -4908 0
-4909 -4907 0
4909 4908 4907 0
-4910 4278 0
-4910 4497 0
4910 -4278 -4497 0
-4911 -4910 0
-4911 4909 0
4911 4910 -4909 0
-4912 4285 4504 0
-4912 -4285 -4504 0
4912 -4285 4504 0
4912 4285 -4504 0
-4913 4912 -4911 0
-4913 -4912 4911 0
4913 -4912 -4911 0
4913 4912 4911 0
-4914 4504 0
-4914 -4911 0
4914 -4504 4911 0
-4915 4285 0
-4915 -4911 0
4915 -4285 4911 0
-4916 -4915 0
-4916 -4914 0
4916 4915 4914 0
-4917 4285 0
-4917 4504 0
4917 -4285 -4504 0
-4918 -4917 0
-4918 4916 0
4918 4917 -4916 0
-4919 4292 4511 0
-4919 -4292 -4511 0
4919 -4292 4511 0
4919 4292 -4511 0
-4920 4919 -4918 0
-4920 -4919 4918 0
4920 -4919 -4918 0
4920 4919 4918 0
-4921 4511 0
-4921 -4918 0
4921 -4511 4918 0
-4922 4292 0
-4922 -4918 0
4922 -4292 4918 0
-4923 -4922 0
-4923 -4921 0
4923 4922 4921 0
-4924 4292 0
-4924 4511 0
4924 -4292 -4511 0
-4925 -4924 0
-4925 4923 0
4925 4924 -4923 0
-4926 4299 4518 0
-4926 -4299 -4518 0
4926 -4299 4518 0
4926 4299 -4518 0
-4927 4926 -4925 0
-4927 -4926 4925 0
4927 -4926 -4925 0
4927 4926 4925 0
-4928 4518 0
-4928 -4925 0
4928 -4518 4925 0
-4929 4299 0
-4929 -4925 0
4929 -4299 4925 0
-4930 -4929 0
-4930 -4928 0
4930 4929 4928 0
-4931 4299 0
-4931 4518 0
4931 -4299 -4518 0
-4932 -4931 0
-4932 4930 0
4932 4931 -4930 0
-4933 4306 4525 0
-4933 -4306 -4525 0
4933 -4306 4525 0
4933 4306 -4525 0
-4934 4933 -4932 0
-4934 -4933 4932 0
4934 -4933 -4932 0
4934 4933 4932 0
-4935 4525 0
-4935 -4932 0
4935 -4525 4932 0
-4936 4306 0
-4936 -4932 0
4936 -4306 4932 0
-4937 -4936 0
-4937 -4935 0
4937 4936 4935 0
-4938 4306 0
-4938 4525 0
4938 -4306 -4525 0
-4939 -4938 0
-4939 4937 0
4939 4938 -4937 0
-4940 4313 4532 0
-4940 -4313 -4532 0
4940 -4313 4532 0
4940 4313 -4532 0
-4941 4940 -4939 0
-4941 -4940 4939 0
4941 -4940 -4939 0
4941 4940 4939 0
-4942 4532 0
-4942 -4939 0
4942 -4532 4939 0
-4943 4313 0
-4943 -4939 0
4943 -4313 4939 0
-4944 -4943 0
-4944 -4942 0
4944 4943 4942 0
-4945 4313 0
-4945 4532 0
4945 -4313 -4532 0
-4946 -4945 0
-4946 4944 0
4946 4945 -4944 0
-4947 4320 4539 0
-4947 -4320 -4539 0
4947 -4320 4539 0
4947 4320 -4539 0
-4948 4947 -4946 0
-4948 -4947 4946 0
4948 -4947 -4946 0
4948 4947 4946 0
-4949 4539 0
-4949 -4946 0
4949 -4539 4946 0
-4950 4320 0
-4950 -4946 0
4950 -4320 4946 0
-4951 -4950 0
-4951 -4949 0
4951 4950 4949 0
-4952 4320 0
-4952 4539 0
4952 -4320 -4539 0
-4953 -4952 0
-4953 4951 0
4953 4952 -4951 0
-4954 4327 4546 0
-4954 -4327 -4546 0
4954 -4327 4546 0
4954 4327 -4546 0
-4955 4954 -4953 0
-4955 -4954 4953 0
4955 -4954 -4953 0
4955 4954 4953 0
-4956 4546 0
-4956 -4953 0
4956 -4546 4953 0
-4957 4327 0
-4957 -4953 0
4957 -4327 4953 0
-4958 -4957 0
-4958 -4956 0
4958 4957 4956 0
-4959 4327 0
-4959 4546 0
4959 -4327 -4546 0
-4960 -4959 0
-4960 4958 0
4960 4959 -4958 0
-4961 4334 4553 0
-4961 -4334 -4553 0
4961 -4334 4553 0
4961 4334 -4553 0
-4962 4961 -4960 0
-4962 -4961 4960 0
4962 -4961 -4960 0
4962 4961 4960 0
-4963 4553 0
-4963 -4960 0
4963 -4553 4960 0
-4964 4334 0
-4964 -4960 0
4964 -4334 4960 0
-4965 -4964 0
-4965 -4963 0
4965 4964 4963 0
-4966 4334 0
-4966 4553 0
4966 -4334 -4553 0
-4967 -4966 0
-4967 4965 0
4967 4966 -4965 0
-4968 4341 4560 0
-4968 -4341 -4560 0
4968 -4341 4560 0
4968 4341 -4560 0
-4969 4968 -4967 0
-4969 -4968 4967 0
4969 -4968 -4967 0
4969 4968 4967 0
-4970 4560 0
-4970 -4967 0
4970 -4560 4967 0
-4971 4341 0
-4971 -4967 0
4971 -4341 4967 0
-4972 -4971 0
-4972 -4970 0
4972 4971 4970 0
-4973 4341 0
-4973 4560 0
4973 -4341 -4560 0
-4974 -4973 0
-4974 4972 0
4974 4973 -4972 0
-4975 4348 4567 0
-4975 -4348 -4567 0
4975 -4348 4567 0
4975 4348 -4567 0
-4976 4975 -4974 0
-4976 -4975 4974 0
4976 -4975 -4974 0
4976 4975 4974 0
-4977 4567 0
-4977 -4974 0
4977 -4567 4974 0
-4978 4348 0
-4978 -4974 0
4978 -4348 4974 0
-4979 -4978 0
-4979 -4977 0
4979 4978 4977 0
-4980 4348 0
-4980 4567 0
4980 -4348 -4567 0
-4981 -4980 0
-4981 4979 0
4981 4980 -4979 0
-4982 4355 4574 0
-4982 -4355 -4574 0
4982 -4355 4574 0
4982 4355 -4574 0
-4983 4982 -4981 0
-4983 -4982 4981 0
4983 -4982 -4981 0
4983 4982 4981 0
-4984 4574 0
-4984 -4981 0
4984 -4574 4981 0
-4985 4355 0
-4985 -4981 0
4985 -4355 4981 0
-4986 -4985 0
-4986 -4984 0
4986 4985 4984 0
-4987 4355 0
-4987 4574 0
4987 -4355 -4574 0
-4988 -4987 0
-4988 4986 0
4988 4987 -4986 0
-4989 4362 4581 0
-4989 -4362 -4581 0
4989 -4362 4581 0
4989 4362 -4581 0
-4990 4989 -4988 0
-4990 -4989 4988 0
4990 -4989 -4988 0
4990 4989 4988 0
-4991 4581 0
-4991 -4988 0
4991 -4581 4988 0
-4992 4362 0
-4992 -4988 0
4992 -4362 4988 0
-4993 -4992 0
-4993 -4991 0
4993 4992 4991 0
-4994 4362 0
-4994 4581 0
4994 -4362 -4581 0
-4995 -4994 0
-4995 4993 0
4995 4994 -4993 0
-4996 4369 4588 0
-4996 -4369 -4588 0
4996 -4369 4588 0
4996 4369 -4588 0
-4997 4996 -4995 0
-4997 -4996 4995 0
4997 -4996 -4995 0
4997 4996 4995 0
-4998 4588 0
-4998 -4995 0
4998 -4588 4995 0
-4999 4369 0
-4999 -4995 0
4999 -4369 4995 0
-5000 -4999 0
-5000 -4998 0
5000 4999 4998 0
-5001 4369 0
-5001 4588 0
5001 -4369 -4588 0
-5002 -5001 0
-5002 5000 0
5002 5001 -5000 0
-5003 4376 4595 0
-5003 -4376 -4595 0
5003 -4376 4595 0
5003 4376 -4595 0
-5004 5003 -5002 0
-5004 -5003 5002 0
5004 -5003 -5002 0
5004 5003 5002 0
-5005 4595 0
-5005 -5002 0
5005 -4595 5002 0
-5006 4376 0
-5006 -5002 0
5006 -4376 5002 0
-5007 -5006 0
-5007 -5005 0
5007 5006 5005 0
-5008 4376 0
-5008 4595 0
5008 -4376 -4595 0
-5009 -5008 0
-5009 5007 0
5009 5008 -5007 0
-5010 4383 4602 0
-5010 -4383 -4602 0
5010 -4383 4602 0
5010 4383 -4602 0
-5011 5010 -5009 0
-5011 -5010 5009 0
5011 -5010 -5009 0
5011 5010 5009 0
-5012 4602 0
-5012 -5009 0
5012 -4602 5009 0
-5013 4383 0
-5013 -5009 0
5013 -4383 5009 0
-5014 -5013 0
-5014 -5012 0
5014 5013 5012 0
-5015 4383 0
-5015 4602 0
5015 -4383 -4602 0
-5016 -5015 0
-5016 5014 0
5016 5015 -5014 0
-5017 4390 4609 0
-5017 -4390 -4609 0
5017 -4390 4609 0
5017 4390 -4609 0
-5018 5017 -5016 0
-5018 -5017 5016 0
5018 -5017 -5016 0
5018 5017 5016 0
-5019 4609 0
-5019 -5016 0
5019 -4609 5016 0
-5020 4390 0
-5020 -5016 0
5020 -4390 5016 0
-5021 -5020 0
-5021 -5019 0
5021 5020 5019 0
-5022 4390 0
-5022 4609 0
5022 -4390 -4609 0
-5023 -5022 0
-5023 5021 0
5023 5022 -5021 0
-5024 4397 4616 0
-5024 -4397 -4616 0
5024 -4397 4616 0
5024 4397 -4616 0
-5025 5024 -5023 0
-5025 -5024 5023 0
5025 -5024 -5023 0
5025 5024 5023 0
-5026 4616 0
-5026 -5023 0
5026 -4616 5023 0
-5027 4397 0
-5027 -5023 0
5027 -4397 5023 0
-5028 -5027 0
-5028 -5026 0
5028 5027 5026 0
-5029 4397 0
-5029 4616 0
5029 -4397 -4616 0
-5030 -5029 0
-5030 5028 0
5030 5029 -5028 0
-5031 4404 4623 0
-5031 -4404 -4623 0
5031 -4404 4623 0
5031 4404 -4623 0
-5032 5031 -5030 0
-5032 -5031 5030 0
5032 -5031 -5030 0
5032 5031 5030 0
-5033 4623 0
-5033 -5030 0
5033 -4623 5030 0
-5034 4404 0
-5034 -5030 0
5034 -4404 5030 0
-5035 -5034 0
-5035 -5033 0
5035 5034 5033 0
-5036 4404 0
-5036 4623 0
5036 -4404 -4623 0
-5037 -5036 0
-5037 5035 0
5037 5036 -5035 0
-5038 4643 4673 0
-5038 -4643 -4673 0
5038 -4643 4673 0
5038 4643 -4673 0
-5039 5038 4771 0
-5039 -5038 -4771 0
5039 -5038 4771 0
5039 5038 -4771 0
-5040 4191 0
-5040 -1502 0
5040 -4191 1502 0
-5041 -4191 0
-5041 -2784 0
5041 4191 2784 0
-5042 5041 5040 0
-5042 -5041 -5040 0
5042 -5041 5040 0
5042 5041 -5040 0
-5043 4829 4906 0
-5043 -4829 -4906 0
5043 -4829 4906 0
5043 4829 -4906 0
-5044 5043 4969 0
-5044 -5043 -4969 0
5044 -5043 4969 0
5044 5043 -4969 0
-5045 3314 0
-5045 2025 0
5045 -3314 -2025 0
-5046 4819 0
-5046 2025 0
5046 -4819 -2025 0
-5047 -5046 0
-5047 -5045 0
5047 5046 5045 0
-5048 4819 0
-5048 3314 0
5048 -4819 -3314 0
-5049 -5048 0
-5049 5047 0
5049 5048 -5047 0
-5050 4647 4680 0
-5050 -4647 -4680 0
5050 -4647 4680 0
5050 4647 -4680 0
-5051 5050 4778 0
-5051 -5050 -4778 0
5051 -5050 4778 0
5051 5050 -4778 0
-5052 -4629 0
-5052 1927 0
5052 4629 -1927 0
-5053 4629 0
-5053 3222 0
5053 -4629 -3222 0
-5054 5053 5052 0
-5054 -5053 -5052 0
5054 -5053 5052 0
5054 5053 -5052 0
-5055 4836 4913 0
-5055 -4836 -4913 0
5055 -4836 4913 0
5055 4836 -4913 0
-5056 5055 4976 0
-5056 -5055 -4976 0
5056 -5055 4976 0
5056 5055 -4976 0
-5057 3317 0
-5057 2028 0
5057 -3317 -2028 0
-5058 4822 0
-5058 2028 0
5058 -4822 -2028 0
-5059 -5058 0
-5059 -5057 0
5059 5058 5057 0
-5060 4822 0
-5060 3317 0
5060 -4822 -3317 0
-5061 -5060 0
-5061 5059 0
5061 5060 -5059 0
-5062 4652 4687 0
-5062 -4652 -4687 0
5062 -4652 4687 0
5062 4652 -4687 0
-5063 5062 4785 0
-5063 -5062 -4785 0
5063 -5062 4785 0
5063 5062 -4785 0
-5064 -4631 0
-5064 1929 0
5064 4631 -1929 0
-5065 4631 0
-5065 3226 0
5065 -4631 -3226 0
-5066 5065 5064 0
-5066 -5065 -5064 0
5066 -5065 5064 0
5066 5065 -5064 0
-5067 4843 4920 0
-5067 -4843 -4920 0
5067 -4843 4920 0
5067 4843 -4920 0
-5068 5067 4983 0
-5068 -5067 -4983 0
5068 -5067 4983 0
5068 5067 -4983 0
-5069 3324 0
-5069 2035 0
5069 -3324 -2035 0
-5070 4829 0
-5070 2035 0
5070 -4829 -2035 0
-5071 -5070 0
-5071 -5069 0
5071 5070 5069 0
-5072 4829 0
-5072 3324 0
5072 -4829 -3324 0
-5073 -5072 0
-5073 5071 0
5073 5072 -5071 0
-5074 4659 4694 0
-5074 -4659 -4694 0
5074 -4659 4694 0
5074 4659 -4694 0
-5075 5074 4792 0
-5075 -5074 -4792 0
5075 -5074 4792 0
5075 5074 -4792 0
-5076 -4635 0
-5076 1933 0
5076 4635 -1933 0
-5077 4635 0
-5077 3230 0
5077 -4635 -3230 0
-5078 5077 5076 0
-5078 -5077 -5076 0
5078 -5077 5076 0
5078 5077 -5076 0
-5079 4850 4927 0
-5079 -4850 -4927 0
5079 -4850 4927 0
5079 4850 -4927 0
-5080 5079 4990 0
-5080 -5079 -4990 0
5080 -5079 4990 0
5080 5079 -4990 0
-5081 3331 0
-5081 2042 0
5081 -3331 -2042 0
-5082 4836 0
-5082 2042 0
5082 -4836 -2042 0
-5083 -5082 0
-5083 -5081 0
5083 5082 5081 0
-5084 4836 0
-5084 3331 0
5084 -4836 -3331 0
-5085 -5084 0
-5085 5083 0
5085 5084 -5083 0
-5086 4666 4701 0
-5086 -4666 -4701 0
5086 -4666 4701 0
5086 4666 -4701 0
-5087 5086 4799 0
-5087 -5086 -4799 0
5087 -5086 4799 0
5087 5086 -4799 0
-5088 -4639 0
-5088 1935 0
5088 4639 -1935 0
-5089 4639 0
-5089 3232 0
5089 -4639 -3232 0
-5090 5089 5088 0
-5090 -5089 -5088 0
5090 -5089 5088 0
5090 5089 -5088 0
-5091 4857 4934 0
-5091 -4857 -4934 0
5091 -4857 4934 0
5091 4857 -4934 0
-5092 5091 4997 0
-5092 -5091 -4997 0
5092 -5091 4997 0
5092 5091 -4997 0
-5093 3338 0
-5093 2049 0
5093 -3338 -2049 0
-5094 4843 0
-5094 2049 0
5094 -4843 -2049 0
-5095 -5094 0
-5095 -5093 0
5095 5094 5093 0
-5096 4843 0
-5096 3338 0
5096 -4843 -3338 0
-5097 -5096 0
-5097 5095 0
5097 5096 -5095 0
-5098 4673 4708 0
-5098 -4673 -4708 0
5098 -4673 4708 0
5098 4673 -4708 0
-5099 5098 4806 0
-5099 -5098 -4806 0
5099 -5098 4806 0
5099 5098 -4806 0
-5100 -4641 0
-5100 1937 0
5100 4641 -1937 0
-5101 4641 0
-5101 3234 0
5101 -4641 -3234 0
-5102 5101 5100 0
-5102 -5101 -5100 0
5102 -5101 5100 0
5102 5101 -5100 0
-5103 4864 4941 0
-5103 -4864 -4941 0
5103 -4864 4941 0
5103 4864 -4941 0
-5104 5103 5004 0
-5104 -5103 -5004 0
5104 -5103 5004 0
5104 5103 -5004 0
-5105 3345 0
-5105 2056 0
5105 -3345 -2056 0
-5106 4850 0
-5106 2056 0
5106 -4850 -2056 0
-5107 -5106 0
-5107 -5105 0
5107 5106 5105 0
-5108 4850 0
-5108 3345 0
5108 -4850 -3345 0
-5109 -5108 0
-5109 5107 0
5109 5108 -5107 0
-5110 4680 4715 0
-5110 -4680 -4715 0
5110 -4680 4715 0
5110 4680 -4715 0
-5111 5110 4813 0
-5111 -5110 -4813 0
5111 -5110 4813 0
5111 5110 -4813 0
-5112 -4643 0
-5112 1939 0
5112 4643 -1939 0
-5113 4643 0
-5113 3238 0
5113 -4643 -3238 0
-5114 5113 5112 0
-5114 -5113 -5112 0
5114 -5113 5112 0
5114 5113 -5112 0
-5115 4871 4948 0
-5115 -4871 -4948 0
5115 -4871 4948 0
5115 4871 -4948 0
-5116 5115 5011 0
-5116 -5115 -5011 0
5116 -5115 5011 0
5116 5115 -5011 0
-5117 3352 0
-5117 2063 0
5117 -3352 -2063 0
-5118 4857 0
-5118 2063 0
5118 -4857 -2063 0
-5119 -5118 0
-5119 -5117 0
5119 5118 5117 0
-5120 4857 0
-5120 3352 0
5120 -4857 -3352 0
-5121 -5120 0
-5121 5119 0
5121 5120 -5119 0
-5122 4687 4722 0
-5122 -4687 -4722 0
5122 -4687 4722 0
5122 4687 -4722 0
-5123 5122 -4191 0
-5123 -5122 4191 0
5123 -5122 -4191 0
5123 5122 4191 0
-5124 -4647 0
-5124 1941 0
5124 4647 -1941 0
-5125 4647 0
-5125 3242 0
5125 -4647 -3242 0
-5126 5125 5124 0
-5126 -5125 -5124 0
5126 -5125 5124 0
5126 5125 -5124 0
-5127 4878 4955 0
-5127 -4878 -4955 0
5127 -4878 4955 0
5127 4878 -4955 0
-5128 5127 5018 0
-5128 -5127 -5018 0
5128 -5127 5018 0
5128 5127 -5018 0
-5129 3359 0
-5129 2070 0
5129 -3359 -2070 0
-5130 4864 0
-5130 2070 0
5130 -4864 -2070 0
-5131 -5130 0
-5131 -5129 0
5131 5130 5129 0
-5132 4864 0
-5132 3359 0
5132 -4864 -3359 0
-5133 -5132 0
-5133 5131 0
5133 5132 -5131 0
-5134 4694 4729 0
-5134 -4694 -4729 0
5134 -4694 4729 0
5134 4694 -4729 0
-5135 5134 4629 0
-5135 -5134 -4629 0
5135 -5134 4629 0
5135 5134 -4629 0
-5136 -4652 0
-5136 1945 0
5136 4652 -1945 0
-5137 4652 0
-5137 3244 0
5137 -4652 -3244 0
-5138 5137 5136 0
-5138 -5137 -5136 0
5138 -5137 5136 0
5138 5137 -5136 0
-5139 4885 4962 0
-5139 -4885 -4962 0
5139 -4885 4962 0
5139 4885 -4962 0
-5140 5139 5025 0
-5140 -5139 -5025 0
5140 -5139 5025 0
5140 5139 -5025 0
-5141 3366 0
-5141 2077 0
5141 -3366 -2077 0
-5142 4871 0
-5142 2077 0
5142 -4871 -2077 0
-5143 -5142 0
-5143 -5141 0
5143 5142 5141 0
-5144 4871 0
-5144 3366 0
5144 -4871 -3366 0
-5145 -5144 0
-5145 5143 0
5145 5144 -5143 0
-5146 4701 4736 0
-5146 -4701 -4736 0
5146 -4701 4736 0
5146 4701 -4736 0
-5147 5146 4631 0
-5147 -5146 -4631 0
5147 -5146 4631 0
5147 5146 -4631 0
-5148 -4659 0
-5148 1947 0
5148 4659 -1947 0
-5149 4659 0
-5149 3246 0
5149 -4659 -3246 0
-5150 5149 5148 0
-5150 -5149 -5148 0
5150 -5149 5148 0
5150 5149 -5148 0
-5151 4892 4969 0
-5151 -4892 -4969 0
5151 -4892 4969 0
5151 4892 -4969 0
-5152 5151 5032 0
-5152 -5151 -5032 0
5152 -5151 5032 0
5152 5151 -5032 0
-5153 3373 0
-5153 2084 0
5153 -3373 -2084 0
-5154 4878 0
-5154 2084 0
5154 -4878 -2084 0
-5155 -5154 0
-5155 -5153 0
5155 5154 5153 0
-5156 4878 0
-5156 3373 0
5156 -4878 -3373 0
-5157 -5156 0
-5157 5155 0
5157 5156 -5155 0
-5158 4708 4743 0
-5158 -4708 -4743 0
5158 -4708 4743 0
5158 4708 -4743 0
-5159 5158 4635 0
-5159 -5158 -4635 0
5159 -5158 4635 0
5159 5158 -4635 0
-5160 -4666 0
-5160 1951 0
5160 4666 -1951 0
-5161 4666 0
-5161 3250 0
5161 -4666 -3250 0
-5162 5161 5160 0
-5162 -5161 -5160 0
5162 -5161 5160 0
5162 5161 -5160 0
-5163 4899 4976 0
-5163 -4899 -4976 0
5163 -4899 4976 0
5163 4899 -4976 0
-5164 5163 4819 0
-5164 -5163 -4819 0
5164 -5163 4819 0
5164 5163 -4819 0
-5165 3380 0
-5165 2091 0
5165 -3380 -2091 0
-5166 4885 0
-5166 2091 0
5166 -4885 -2091 0
-5167 -5166 0
-5167 -5165 0
5167 5166 5165 0
-5168 4885 0
-5168 3380 0
5168 -4885 -3380 0
-5169 -5168 0
-5169 5167 0
5169 5168 -5167 0
-5170 4715 4750 0
-5170 -4715 -4750 0
5170 -4715 4750 0
5170 4715 -4750 0
-5171 5170 4639 0
-5171 -5170 -4639 0
5171 -5170 4639 0
5171 5170 -4639 0
-5172 -4673 0
-5172 1955 0
5172 4673 -1955 0
-5173 4673 0
-5173 3254 0
5173 -4673 -3254 0
-5174 5173 5172 0
-5174 -5173 -5172 0
5174 -5173 5172 0
5174 5173 -5172 0
-5175 4906 4983 0
-5175 -4906 -4983 0
5175 -4906 4983 0
5175 4906 -4983 0
-5176 5175 4822 0
-5176 -5175 -4822 0
5176 -5175 4822 0
5176 5175 -4822 0
-5177 3387 0
-5177 2098 0
5177 -3387 -2098 0
-5178 4892 0
-5178 2098 0
5178 -4892 -2098 0
-5179 -5178 0
-5179 -5177 0
5179 5178 5177 0
-5180 4892 0
-5180 3387 0
5180 -4892 -3387 0
-5181 -5180 0
-5181 5179 0
5181 5180 -5179 0
-5182 4722 4757 0
-5182 -4722 -4757 0
5182 -4722 4757 0
5182 4722 -4757 0
-5183 5182 4641 0
-5183 -5182 -4641 0
5183 -5182 4641 0
5183 5182 -4641 0
-5184 -4680 0
-5184 1959 0
5184 4680 -1959 0
-5185 4680 0
-5185 3256 0
5185 -4680 -3256 0
-5186 5185 5184 0
-5186 -5185 -5184 0
5186 -5185 5184 0
5186 5185 -5184 0
-5187 4913 4990 0
-5187 -4913 -4990 0
5187 -4913 4990 0
5187 4913 -4990 0
-5188 5187 4829 0
-5188 -5187 -4829 0
5188 -5187 4829 0
5188 5187 -4829 0
-5189 3394 0
-5189 2105 0
5189 -3394 -2105 0
-5190 4899 0
-5190 2105 0
5190 -4899 -2105 0
-5191 -5190 0
-5191 -5189 0
5191 5190 5189 0
-5192 4899 0
-5192 3394 0
5192 -4899 -3394 0
-5193 -5192 0
-5193 5191 0
5193 5192 -5191 0
-5194 4729 4764 0
-5194 -4729 -4764 0
5194 -4729 4764 0
5194 4729 -4764 0
-5195 5194 4643 0
-5195 -5194 -4643 0
5195 -5194 4643 0
5195 5194 -4643 0
-5196 -4687 0
-5196 1961 0
5196 4687 -1961 0
-5197 4687 0
-5197 3258 0
5197 -4687 -3258 0
-5198 5197 5196 0
-5198 -5197 -5196 0
5198 -5197 5196 0
5198 5197 -5196 0
-5199 4920 4997 0
-5199 -4920 -4997 0
5199 -4920 4997 0
5199 4920 -4997 0
-5200 5199 4836 0
-5200 -5199 -4836 0
5200 -5199 4836 0
5200 5199 -4836 0
-5201 3401 0
-5201 2112 0
5201 -3401 -2112 0
-5202 4906 0
-5202 2112 0
5202 -4906 -2112 0
-5203 -5202 0
-5203 -5201 0
5203 5202 5201 0
-5204 4906 0
-5204 3401 0
5204 -4906 -3401 0
-5205 -5204 0
-5205 5203 0
5205 5204 -5203 0
-5206 4736 4771 0
-5206 -4736 -4771 0
5206 -4736 4771 0
5206 4736 -4771 0
-5207 5206 4647 0
-5207 -5206 -4647 0
5207 -5206 4647 0
5207 5206 -4647 0
-5208 -4694 0
-5208 1965 0
5208 4694 -1965 0
-5209 4694 0
-5209 3262 0
5209 -4694 -3262 0
-5210 5209 5208 0
-5210 -5209 -5208 0
5210 -5209 5208 0
5210 5209 -5208 0
-5211 4927 5004 0
-5211 -4927 -5004 0
5211 -4927 5004 0
5211 4927 -5004 0
-5212 5211 4843 0
-5212 -5211 -4843 0
5212 -5211 4843 0
5212 5211 -4843 0
-5213 3408 0
-5213 2119 0
5213 -3408 -2119 0
-5214 4913 0
-5214 2119 0
5214 -4913 -2119 0
-5215 -5214 0
-5215 -5213 0
5215 5214 5213 0
-5216 4913 0
-5216 3408 0
5216 -4913 -3408 0
-5217 -5216 0
-5217 5215 0
5217 5216 -5215 0
-5218 4743 4778 0
-5218 -4743 -4778 0
5218 -4743 4778 0
5218 4743 -4778 0
-5219 5218 4652 0
-5219 -5218 -4652 0
5219 -5218 4652 0
5219 5218 -4652 0
-5220 -4701 0
-5220 1967 0
5220 4701 -1967 0
-5221 4701 0
-5221 3266 0
5221 -4701 -3266 0
-5222 5221 5220 0
-5222 -5221 -5220 0
5222 -5221 5220 0
5222 5221 -5220 0
-5223 4934 5011 0
-5223 -4934 -5011 0
5223 -4934 5011 0
5223 4934 -5011 0
-5224 5223 4850 0
-5224 -5223 -4850 0
5224 -5223 4850 0
5224 5223 -4850 0
-5225 3415 0
-5225 2126 0
5225 -3415 -2126 0
-5226 4920 0
-5226 2126 0
5226 -4920 -2126 0
-5227 -5226 0
-5227 -5225 0
5227 5226 5225 0
-5228 4920 0
-5228 3415 0
5228 -4920 -3415 0
-5229 -5228 0
-5229 5227 0
5229 5228 -5227 0
-5230 4750 4785 0
-5230 -4750 -4785 0
5230 -4750 4785 0
5230 4750 -4785 0
-5231 5230 4659 0
-5231 -5230 -4659 0
5231 -5230 4659 0
5231 5230 -4659 0
-5232 -4708 0
-5232 1971 0
5232 4708 -1971 0
-5233 4708 0
-5233 3270 0
5233 -4708 -3270 0
-5234 5233 5232 0
-5234 -5233 -5232 0
5234 -5233 5232 0
5234 5233 -5232 0
-5235 4941 5018 0
-5235 -4941 -5018 0
5235 -4941 5018 0
5235 4941 -5018 0
-5236 5235 4857 0
-5236 -5235 -4857 0
5236 -5235 4857 0
5236 5235 -4857 0
-5237 3422 0
-5237 2133 0
5237 -3422 -2133 0
-5238 4927 0
-5238 2133 0
5238 -4927 -2133 0
-5239 -5238 0
-5239 -5237 0
5239 5238 5237 0
-5240 4927 0
-5240 3422 0
5240 -4927 -3422 0
-5241 -5240 0
-5241 5239 0
5241 5240 -5239 0
-5242 4757 4792 0
-5242 -4757 -4792 0
5242 -4757 4792 0
5242 4757 -4792 0
-5243 5242 4666 0
-5243 -5242 -4666 0
5243 -5242 4666 0
5243 5242 -4666 0
-5244 -4715 0
-5244 1975 0
5244 4715 -1975 0
-5245 4715 0
-5245 3274 0
5245 -4715 -3274 0
-5246 5245 5244 0
-5246 -5245 -5244 0
5246 -5245 5244 0
5246 5245 -5244 0
-5247 4948 5025 0
-5247 -4948 -5025 0
5247 -4948 5025 0
5247 4948 -5025 0
-5248 5247 4864 0
-5248 -5247 -4864 0
5248 -5247 4864 0
5248 5247 -4864 0
-5249 3429 0
-5249 2140 0
5249 -3429 -2140 0
-5250 4934 0
-5250 2140 0
5250 -4934 -2140 0
-5251 -5250 0
-5251 -5249 0
5251 5250 5249 0
-5252 4934 0
-5252 3429 0
5252 -4934 -3429 0
-5253 -5252 0
-5253 5251 0
5253 5252 -5251 0
-5254 4764 4799 0
-5254 -4764 -4799 0
5254 -4764 4799 0
5254 4764 -4799 0
-5255 5254 4673 0
-5255 -5254 -4673 0
5255 -5254 4673 0
5255 5254 -4673 0
-5256 -4722 0
-5256 1979 0
5256 4722 -1979 0
-5257 4722 0
-5257 3276 0
5257 -4722 -3276 0
-5258 5257 5256 0
-5258 -5257 -5256 0
5258 -5257 5256 0
5258 5257 -5256 0
-5259 4955 5032 0
-5259 -4955 -5032 0
5259 -4955 5032 0
5259 4955 -5032 0
-5260 5259 4871 0
-5260 -5259 -4871 0
5260 -5259 4871 0
5260 5259 -4871 0
-5261 3436 0
-5261 2147 0
5261 -3436 -2147 0
-5262 4941 0
-5262 2147 0
5262 -4941 -2147 0
-5263 -5262 0
-5263 -5261 0
5263 5262 5261 0
-5264 4941 0
-5264 3436 0
5264 -4941 -3436 0
-5265 -5264 0
-5265 5263 0
5265 5264 -5263 0
-5266 4771 4806 0
-5266 -4771 -4806 0
5266 -4771 4806 0
5266 4771 -4806 0
-5267 5266 4680 0
-5267 -5266 -4680 0
5267 -5266 4680 0
5267 5266 -4680 0
-5268 -4729 0
-5268 1983 0
5268 4729 -1983 0
-5269 4729 0
-5269 3278 0
5269 -4729 -3278 0
-5270 5269 5268 0
-5270 -5269 -5268 0
5270 -5269 5268 0
5270 5269 -5268 0
-5271 4962 4819 0
-5271 -4962 -4819 0
5271 -4962 4819 0
5271 4962 -4819 0
-5272 5271 4878 0
-5272 -5271 -4878 0
5272 -5271 4878 0
5272 5271 -4878 0
-5273 3443 0
-5273 2154 0
5273 -3443 -2154 0
-5274 4948 0
-5274 2154 0
5274 -4948 -2154 0
-5275 -5274 0
-5275 -5273 0
5275 5274 5273 0
-5276 4948 0
-5276 3443 0
5276 -4948 -3443 0
-5277 -5276 0
-5277 5275 0
5277 5276 -5275 0
-5278 4778 4813 0
-5278 -4778 -4813 0
5278 -4778 4813 0
5278 4778 -4813 0
-5279 5278 4687 0
-5279 -5278 -4687 0
5279 -5278 4687 0
5279 5278 -4687 0
-5280 -4736 0
-5280 1985 0
5280 4736 -1985 0
-5281 4736 0
-5281 3282 0
5281 -4736 -3282 0
-5282 5281 5280 0
-5282 -5281 -5280 0
5282 -5281 5280 0
5282 5281 -5280 0
-5283 4969 4822 0
-5283 -4969 -4822 0
5283 -4969 4822 0
5283 4969 -4822 0
-5284 5283 4885 0
-5284 -5283 -4885 0
5284 -5283 4885 0
5284 5283 -4885 0
-5285 3450 0
-5285 2161 0
5285 -3450 -2161 0
-5286 4955 0
-5286 2161 0
5286 -4955 -2161 0
-5287 -5286 0
-5287 -5285 0
5287 5286 5285 0
-5288 4955 0
-5288 3450 0
5288 -4955 -3450 0
-5289 -5288 0
-5289 5287 0
5289 5288 -5287 0
-5290 4785 -4191 0
-5290 -4785 4191 0
5290 -4785 -4191 0
5290 4785 4191 0
-5291 5290 4694 0
-5291 -5290 -4694 0
5291 -5290 4694 0
5291 5290 -4694 0
-5292 -4743 0
-5292 1987 0
5292 4743 -1987 0
-5293 4743 0
-5293 3284 0
5293 -4743 -3284 0
-5294 5293 5292 0
-5294 -5293 -5292 0
5294 -5293 5292 0
5294 5293 -5292 0
-5295 4976 4829 0
-5295 -4976 -4829 0
5295 -4976 4829 0
5295 4976 -4829 0
-5296 5295 4892 0
-5296 -5295 -4892 0
5296 -5295 4892 0
5296 5295 -4892 0
-5297 3457 0
-5297 2168 0
5297 -3457 -2168 0
-5298 4962 0
-5298 2168 0
5298 -4962 -2168 0
-5299 -5298 0
-5299 -5297 0
5299 5298 5297 0
-5300 4962 0
-5300 3457 0
5300 -4962 -3457 0
-5301 -5300 0
-5301 5299 0
5301 5300 -5299 0
-5302 4792 4629 0
-5302 -4792 -4629 0
5302 -4792 4629 0
5302 4792 -4629 0
-5303 5302 4701 0
-5303 -5302 -4701 0
5303 -5302 4701 0
5303 5302 -4701 0
-5304 -4750 0
-5304 1991 0
5304 4750 -1991 0
-5305 4750 0
-5305 3286 0
5305 -4750 -3286 0
-5306 5305 5304 0
-5306 -5305 -5304 0
5306 -5305 5304 0
5306 5305 -5304 0
-5307 4983 4836 0
-5307 -4983 -4836 0
5307 -4983 4836 0
5307 4983 -4836 0
-5308 5307 4899 0
-5308 -5307 -4899 0
5308 -5307 4899 0
5308 5307 -4899 0
-5309 3464 0
-5309 2175 0
5309 -3464 -2175 0
-5310 4969 0
-5310 2175 0
5310 -4969 -2175 0
-5311 -5310 0
-5311 -5309 0
5311 5310 5309 0
-5312 4969 0
-5312 3464 0
5312 -4969 -3464 0
-5313 -5312 0
-5313 5311 0
5313 5312 -5311 0
-5314 4799 4631 0
-5314 -4799 -4631 0
5314 -4799 4631 0
5314 4799 -4631 0
-5315 5314 4708 0
-5315 -5314 -4708 0
5315 -5314 4708 0
5315 5314 -4708 0
-5316 -4757 0
-5316 1995 0
5316 4757 -1995 0
-5317 4757 0
-5317 3288 0
5317 -4757 -3288 0
-5318 5317 5316 0
-5318 -5317 -5316 0
5318 -5317 5316 0
5318 5317 -5316 0
-5319 4990 4843 0
-5319 -4990 -4843 0
5319 -4990 4843 0
5319 4990 -4843 0
-5320 5319 4906 0
-5320 -5319 -4906 0
5320 -5319 4906 0
5320 5319 -4906 0
-5321 3471 0
-5321 2182 0
5321 -3471 -2182 0
-5322 4976 0
-5322 2182 0
5322 -4976 -2182 0
-5323 -5322 0
-5323 -5321 0
5323 5322 5321 0
-5324 4976 0
-5324 3471 0
5324 -4976 -3471 0
-5325 -5324 0
-5325 5323 0
5325 5324 -5323 0
-5326 4806 4635 0
-5326 -4806 -4635 0
5326 -4806 4635 0
5326 4806 -4635 0
-5327 5326 4715 0
-5327 -5326 -4715 0
5327 -5326 4715 0
5327 5326 -4715 0
-5328 -4764 0
-5328 1997 0
5328 4764 -1997 0
-5329 4764 0
-5329 3290 0
5329 -4764 -3290 0
-5330 5329 5328 0
-5330 -5329 -5328 0
5330 -5329 5328 0
5330 5329 -5328 0
-5331 4997 4850 0
-5331 -4997 -4850 0
5331 -4997 4850 0
5331 4997 -4850 0
-5332 5331 4913 0
-5332 -5331 -4913 0
5332 -5331 4913 0
5332 5331 -4913 0
-5333 3478 0
-5333 2189 0
5333 -3478 -2189 0
-5334 4983 0
-5334 2189 0
5334 -4983 -2189 0
-5335 -5334 0
-5335 -5333 0
5335 5334 5333 0
-5336 4983 0
-5336 3478 0
5336 -4983 -3478 0
-5337 -5336 0
-5337 5335 0
5337 5336 -5335 0
-5338 4813 4639 0
-5338 -4813 -4639 0
5338 -4813 4639 0
5338 4813 -4639 0
-5339 5338 4722 0
-5339 -5338 -4722 0
5339 -5338 4722 0
5339 5338 -4722 0
-5340 -4771 0
-5340 2001 0
5340 4771 -2001 0
-5341 4771 0
-5341 3292 0
5341 -4771 -3292 0
-5342 5341 5340 0
-5342 -5341 -5340 0
5342 -5341 5340 0
5342 5341 -5340 0
-5343 5004 4857 0
-5343 -5004 -4857 0
5343 -5004 4857 0
5343 5004 -4857 0
-5344 5343 4920 0
-5344 -5343 -4920 0
5344 -5343 4920 0
5344 5343 -4920 0
-5345 3485 0
-5345 2196 0
5345 -3485 -2196 0
-5346 4990 0
-5346 2196 0
5346 -4990 -2196 0
-5347 -5346 0
-5347 -5345 0
5347 5346 5345 0
-5348 4990 0
-5348 3485 0
5348 -4990 -3485 0
-5349 -5348 0
-5349 5347 0
5349 5348 -5347 0
-5350 -4191 4641 0
-5350 4191 -4641 0
5350 4191 4641 0
5350 -4191 -4641 0
-5351 5350 4729 0
-5351 -5350 -4729 0
5351 -5350 4729 0
5351 5350 -4729 0
-5352 -4778 0
-5352 2005 0
5352 4778 -2005 0
-5353 4778 0
-5353 3296 0
5353 -4778 -3296 0
-5354 5353 5352 0
-5354 -5353 -5352 0
5354 -5353 5352 0
5354 5353 -5352 0
-5355 5011 4864 0
-5355 -5011 -4864 0
5355 -5011 4864 0
5355 5011 -4864 0
-5356 5355 4927 0
-5356 -5355 -4927 0
5356 -5355 4927 0
5356 5355 -4927 0
-5357 3492 0
-5357 2203 0
5357 -3492 -2203 0
-5358 4997 0
-5358 2203 0
5358 -4997 -2203 0
-5359 -5358 0
-5359 -5357 0
5359 5358 5357 0
-5360 4997 0
-5360 3492 0
5360 -4997 -3492 0
-5361 -5360 0
-5361 5359 0
5361 5360 -5359 0
-5362 4629 4643 0
-5362 -4629 -4643 0
5362 -4629 4643 0
5362 4629 -4643 0
-5363 5362 4736 0
-5363 -5362 -4736 0
5363 -5362 4736 0
5363 5362 -4736 0
-5364 -4785 0
-5364 2007 0
5364 4785 -2007 0
-5365 4785 0
-5365 3298 0
5365 -4785 -3298 0
-5366 5365 5364 0
-5366 -5365 -5364 0
5366 -5365 5364 0
5366 5365 -5364 0
-5367 5018 4871 0
-5367 -5018 -4871 0
5367 -5018 4871 0
5367 5018 -4871 0
-5368 5367 4934 0
-5368 -5367 -4934 0
5368 -5367 4934 0
5368 5367 -4934 0
-5369 3499 0
-5369 2210 0
5369 -3499 -2210 0
-5370 5004 0
-5370 2210 0
5370 -5004 -2210 0
-5371 -5370 0
-5371 -5369 0
5371 5370 5369 0
-5372 5004 0
-5372 3499 0
5372 -5004 -3499 0
-5373 -5372 0
-5373 5371 0
5373 5372 -5371 0
-5374 4631 4647 0
-5374 -4631 -4647 0
5374 -4631 4647 0
5374 4631 -4647 0
-5375 5374 4743 0
-5375 -5374 -4743 0
5375 -5374 4743 0
5375 5374 -4743 0
-5376 -4792 0
-5376 2011 0
5376 4792 -2011 0
-5377 4792 0
-5377 3302 0
5377 -4792 -3302 0
-5378 5377 5376 0
-5378 -5377 -5376 0
5378 -5377 5376 0
5378 5377 -5376 0
-5379 5025 4878 0
-5379 -5025 -4878 0
5379 -5025 4878 0
5379 5025 -4878 0
-5380 5379 4941 0
-5380 -5379 -4941 0
5380 -5379 4941 0
5380 5379 -4941 0
-5381 3506 0
-5381 2217 0
5381 -3506 -2217 0
-5382 5011 0
-5382 2217 0
5382 -5011 -2217 0
-5383 -5382 0
-5383 -5381 0
5383 5382 5381 0
-5384 5011 0
-5384 3506 0
5384 -5011 -3506 0
-5385 -5384 0
-5385 5383 0
5385 5384 -5383 0
-5386 4635 4652 0
-5386 -4635 -4652 0
5386 -4635 4652 0
5386 4635 -4652 0
-5387 5386 4750 0
-5387 -5386 -4750 0
5387 -5386 4750 0
5387 5386 -4750 0
-5388 -4799 0
-5388 2015 0
5388 4799 -2015 0
-5389 4799 0
-5389 3304 0
5389 -4799 -3304 0
-5390 5389 5388 0
-5390 -5389 -5388 0
5390 -5389 5388 0
5390 5389 -5388 0
-5391 5032 4885 0
-5391 -5032 -4885 0
5391 -5032 4885 0
5391 5032 -4885 0
-5392 5391 4948 0
-5392 -5391 -4948 0
5392 -5391 4948 0
5392 5391 -4948 0
-5393 3513 0
-5393 2224 0
5393 -3513 -2224 0
-5394 5018 0
-5394 2224 0
5394 -5018 -2224 0
-5395 -5394 0
-5395 -5393 0
5395 5394 5393 0
-5396 5018 0
-5396 3513 0
5396 -5018 -3513 0
-5397 -5396 0
-5397 5395 0
5397 5396 -5395 0
-5398 4639 4659 0
-5398 -4639 -4659 0
5398 -4639 4659 0
5398 4639 -4659 0
-5399 5398 4757 0
-5399 -5398 -4757 0
5399 -5398 4757 0
5399 5398 -4757 0
-5400 -4806 0
-5400 2019 0
5400 4806 -2019 0
-5401 4806 0
-5401 3308 0
5401 -4806 -3308 0
-5402 5401 5400 0
-5402 -5401 -5400 0
5402 -5401 5400 0
5402 5401 -5400 0
-5403 4819 4892 0
-5403 -4819 -4892 0
5403 -4819 4892 0
5403 4819 -4892 0
-5404 5403 4955 0
-5404 -5403 -4955 0
5404 -5403 4955 0
5404 5403 -4955 0
-5405 3520 0
-5405 2231 0
5405 -3520 -2231 0
-5406 5025 0
-5406 2231 0
5406 -5025 -2231 0
-5407 -5406 0
-5407 -5405 0
5407 5406 5405 0
-5408 5025 0
-5408 3520 0
5408 -5025 -3520 0
-5409 -5408 0
-5409 5407 0
5409 5408 -5407 0
-5410 4641 4666 0
-5410 -4641 -4666 0
5410 -4641 4666 0
5410 4641 -4666 0
-5411 5410 4764 0
-5411 -5410 -4764 0
5411 -5410 4764 0
5411 5410 -4764 0
-5412 -4813 0
-5412 2021 0
5412 4813 -2021 0
-5413 4813 0
-5413 3312 0
5413 -4813 -3312 0
-5414 5413 5412 0
-5414 -5413 -5412 0
5414 -5413 5412 0
5414 5413 -5412 0
-5415 4822 4899 0
-5415 -4822 -4899 0
5415 -4822 4899 0
5415 4822 -4899 0
-5416 5415 4962 0
-5416 -5415 -4962 0
5416 -5415 4962 0
5416 5415 -4962 0
-5417 3527 0
-5417 2238 0
5417 -3527 -2238 0
-5418 5032 0
-5418 2238 0
5418 -5032 -2238 0
-5419 -5418 0
-5419 -5417 0
5419 5418 5417 0
-5420 5032 0
-5420 3527 0
5420 -5032 -3527 0
-5421 -5420 0
-5421 5419 0
5421 5420 -5419 0
-5422 5054 5042 0
-5422 -5054 -5042 0
5422 -5054 5042 0
5422 5054 -5042 0
-5423 5054 0
-5423 5042 0
5423 -5054 -5042 0
-5424 5066 5423 0
-5424 -5066 -5423 0
5424 -5066 5423 0
5424 5066 -5423 0
-5425 5066 0
-5425 5423 0
5425 -5066 -5423 0
-5426 5078 5425 0
-5426 -5078 -5425 0
5426 -5078 5425 0
5426 5078 -5425 0
-5427 5078 0
-5427 5425 0
5427 -5078 -5425 0
-5428 -5090 5427 0
-5428 5090 -5427 0
5428 5090 5427 0
5428 -5090 -5427 0
-5429 5090 0
-5429 5427 0
5429 -5090 -5427 0
-5430 -5429 0
-5430 -5427 0
5430 5429 5427 0
-5431 -5090 0
-5431 5430 0
5431 5090 -5430 0
-5432 -5102 -5431 0
-5432 5102 5431 0
5432 5102 -5431 0
5432 -5102 5431 0
-5433 5102 0
-5433 -5431 0
5433 -5102 5431 0
-5434 -5433 0
-5434 5431 0
5434 5433 -5431 0
-5435 -5102 0
-5435 5434 0
5435 5102 -5434 0
-5436 -5114 -5435 0
-5436 5114 5435 0
5436 5114 -5435 0
5436 -5114 5435 0
-5437 5114 0
-5437 -5435 0
5437 -5114 5435 0
-5438 -5437 0
-5438 5435 0
5438 5437 -5435 0
-5439 -5114 0
-5439 5438 0
5439 5114 -5438 0
-5440 -5126 -5439 0
-5440 5126 5439 0
5440 5126 -5439 0
5440 -5126 5439 0
-5441 5126 0
-5441 -5439 0
5441 -5126 5439 0
-5442 -5441 0
-5442 5439 0
5442 5441 -5439 0
-5443 -5126 0
-5443 5442 0
5443 5126 -5442 0
-5444 -5138 -5443 0
-5444 5138 5443 0
5444 5138 -5443 0
5444 -5138 5443 0
-5445 5138 0
-5445 -5443 0
5445 -5138 5443 0
-5446 -5445 0
-5446 5443 0
5446 5445 -5443 0
-5447 -5138 0
-5447 5446 0
5447 5138 -5446 0
-5448 5150 -5447 0
-5448 -5150 5447 0
5448 -5150 -5447 0
5448 5150 5447 0
-5449 5150 0
-5449 -5447 0
5449 -5150 5447 0
-5450 5162 5449 0
-5450 -5162 -5449 0
5450 -5162 5449 0
5450 5162 -5449 0
-5451 5162 0
-5451 5449 0
5451 -5162 -5449 0
-5452 5174 5451 0
-5452 -5174 -5451 0
5452 -5174 5451 0
5452 5174 -5451 0
-5453 5174 0
-5453 5451 0
5453 -5174 -5451 0
-5454 -5186 5453 0
-5454 5186 -5453 0
5454 5186 5453 0
5454 -5186 -5453 0
-5455 5186 0
-5455 5453 0
5455 -5186 -5453 0
-5456 -5455 0
-5456 -5453 0
5456 5455 5453 0
-5457 -5186 0
-5457 5456 0
5457 5186 -5456 0
-5458 5198 -5457 0
-5458 -5198 5457 0
5458 -5198 -5457 0
5458 5198 5457 0
-5459 5198 0
-5459 -5457 0
5459 -5198 5457 0
-5460 5210 5459 0
-5460 -5210 -5459 0
5460 -5210 5459 0
5460 5210 -5459 0
-5461 5210 0
-5461 5459 0
5461 -5210 -5459 0
-5462 5222 5461 0
-5462 -5222 -5461 0
5462 -5222 5461 0
5462 5222 -5461 0
-5463 5222 0
-5463 5461 0
5463 -5222 -5461 0
-5464 -5234 5463 0
-5464 5234 -5463 0
5464 5234 5463 0
5464 -5234 -5463 0
-5465 5234 0
-5465 5463 0
5465 -5234 -5463 0
-5466 -5465 0
-5466 -5463 0
5466 5465 5463 0
-5467 -5234 0
-5467 5466 0
5467 5234 -5466 0
-5468 5246 -5467 0
-5468 -5246 5467 0
5468 -5246 -5467 0
5468 5246 5467 0
-5469 5246 0
-5469 -5467 0
5469 -5246 5467 0
-5470 5258 5469 0
-5470 -5258 -5469 0
5470 -5258 5469 0
5470 5258 -5469 0
-5471 5258 0
-5471 5469 0
5471 -5258 -5469 0
-5472 5270 5471 0
-5472 -5270 -5471 0
5472 -5270 5471 0
5472 5270 -5471 0
-5473 5270 0
-5473 5471 0
5473 -5270 -5471 0
-5474 -5282 5473 0
-5474 5282 -5473 0
5474 5282 5473 0
5474 -5282 -5473 0
-5475 5282 0
-5475 5473 0
5475 -5282 -5473 0
-5476 -5475 0
-5476 -5473 0
5476 5475 5473 0
-5477 -5282 0
-5477 5476 0
5477 5282 -5476 0
-5478 -5294 -5477 0
-5478 5294 5477 0
5478 5294 -5477 0
5478 -5294 5477 0
-5479 5294 0
-5479 -5477 0
5479 -5294 5477 0
-5480 -5479 0
-5480 5477 0
5480 5479 -5477 0
-5481 -5294 0
-5481 5480 0
5481 5294 -5480 0
-5482 -5306 -5481 0
-5482 5306 5481 0
5482 5306 -5481 0
5482 -5306 5481 0
-5483 5306 0
-5483 -5481 0
5483 -5306 5481 0
-5484 -5483 0
-5484 5481 0
5484 5483 -5481 0
-5485 -5306 0
-5485 5484 0
5485 5306 -5484 0
-5486 -5318 -5485 0
-5486 5318 5485 0
5486 5318 -5485 0
5486 -5318 5485 0
-5487 5318 0
-5487 -5485 0
5487 -5318 5485 0
-5488 -5487 0
-5488 5485 0
5488 5487 -5485 0
-5489 -5318 0
-5489 5488 0
5489 5318 -5488 0
-5490 -5330 -5489 0
-5490 5330 5489 0
5490 5330 -5489 0
5490 -5330 5489 0
-5491 5330 0
-5491 -5489 0
5491 -5330 5489 0
-5492 -5491 0
-5492 5489 0
5492 5491 -5489 0
-5493 -5330 0
-5493 5492 0
5493 5330 -5492 0
-5494 5342 -5493 0
-5494 -5342 5493 0
5494 -5342 -5493 0
5494 5342 5493 0
-5495 5342 0
-5495 -5493 0
5495 -5342 5493 0
-5496 5354 5495 0
-5496 -5354 -5495 0
5496 -5354 5495 0
5496 5354 -5495 0
-5497 5354 0
-5497 5495 0
5497 -5354 -5495 0
-5498 -5366 5497 0
-5498 5366 -5497 0
5498 5366 5497 0
5498 -5366 -5497 0
-5499 5366 0
-5499 5497 0
5499 -5366 -5497 0
-5500 -5499 0
-5500 -5497 0
5500 5499 5497 0
-5501 -5366 0
-5501 5500 0
5501 5366 -5500 0
-5502 -5378 -5501 0
-5502 5378 5501 0
5502 5378 -5501 0
5502 -5378 5501 0
-5503 5378 0
-5503 -5501 0
5503 -5378 5501 0
-5504 -5503 0
-5504 5501 0
5504 5503 -5501 0
-5505 -5378 0
-5505 5504 0
5505 5378 -5504 0
-5506 5390 -5505 0
-5506 -5390 5505 0
5506 -5390 -5505 0
5506 5390 5505 0
-5507 5390 0
-5507 -5505 0
5507 -5390 5505 0
-5508 -5402 5507 0
-5508 5402 -5507 0
5508 5402 5507 0
5508 -5402 -5507 0
-5509 5402 0
-5509 5507 0
5509 -5402 -5507 0
-5510 -5509 0
-5510 -5507 0
5510 5509 5507 0
-5511 -5402 0
-5511 5510 0
5511 5402 -5510 0
-5512 5414 -5511 0
-5512 -5414 5511 0
5512 -5414 -5511 0
5512 5414 5511 0
-5513 5414 0
-5513 -5511 0
5513 -5414 5511 0
-5514 341 5039 0
-5514 -341 -5039 0
5514 -341 5039 0
5514 341 -5039 0
-5515 341 0
-5515 5039 0
5515 -341 -5039 0
-5516 -521 5051 0
-5516 521 -5051 0
5516 521 5051 0
5516 -521 -5051 0
-5517 5516 5515 0
-5517 -5516 -5515 0
5517 -5516 5515 0
5517 5516 -5515 0
-5518 5051 0
-5518 5515 0
5518 -5051 -5515 0
-5519 -521 0
-5519 5515 0
5519 521 -5515 0
-5520 -5519 0
-5520 -5518 0
5520 5519 5518 0
-5521 -521 0
-5521 5051 0
5521 521 -5051 0
-5522 -5521 0
-5522 5520 0
5522 5521 -5520 0
-5523 818 5063 0
-5523 -818 -5063 0
5523 -818 5063 0
5523 818 -5063 0
-5524 5523 -5522 0
-5524 -5523 5522 0
5524 -5523 -5522 0
5524 5523 5522 0
-5525 5063 0
-5525 -5522 0
5525 -5063 5522 0
-5526 818 0
-5526 -5522 0
5526 -818 5522 0
-5527 -5526 0
-5527 -5525 0
5527 5526 5525 0
-5528 818 0
-5528 5063 0
5528 -818 -5063 0
-5529 -5528 0
-5529 5527 0
5529 5528 -5527 0
-5530 820 5075 0
-5530 -820 -5075 0
5530 -820 5075 0
5530 820 -5075 0
-5531 5530 -5529 0
-5531 -5530 5529 0
5531 -5530 -5529 0
5531 5530 5529 0
-5532 5075 0
-5532 -5529 0
5532 -5075 5529 0
-5533 820 0
-5533 -5529 0
5533 -820 5529 0
-5534 -5533 0
-5534 -5532 0
5534 5533 5532 0
-5535 820 0
-5535 5075 0
5535 -820 -5075 0
-5536 -5535 0
-5536 5534 0
5536 5535 -5534 0
-5537 822 5087 0
-5537 -822 -5087 0
5537 -822 5087 0
5537 822 -5087 0
-5538 5537 -5536 0
-5538 -5537 5536 0
5538 -5537 -5536 0
5538 5537 5536 0
-5539 5087 0
-5539 -5536 0
5539 -5087 5536 0
-5540 822 0
-5540 -5536 0
5540 -822 5536 0
-5541 -5540 0
-5541 -5539 0
5541 5540 5539 0
-5542 822 0
-5542 5087 0
5542 -822 -5087 0
-5543 -5542 0
-5543 5541 0
5543 5542 -5541 0
-5544 826 5099 0
-5544 -826 -5099 0
5544 -826 5099 0
5544 826 -5099 0
-5545 5544 -5543 0
-5545 -5544 5543 0
5545 -5544 -5543 0
5545 5544 5543 0
-5546 5099 0
-5546 -5543 0
5546 -5099 5543 0
-5547 826 0
-5547 -5543 0
5547 -826 5543 0
-5548 -5547 0
-5548 -5546 0
5548 5547 5546 0
-5549 826 0
-5549 5099 0
5549 -826 -5099 0
-5550 -5549 0
-5550 5548 0
5550 5549 -5548 0
-5551 830 5111 0
-5551 -830 -5111 0
5551 -830 5111 0
5551 830 -5111 0
-5552 5551 -5550 0
-5552 -5551 5550 0
5552 -5551 -5550 0
5552 5551 5550 0
-5553 5111 0
-5553 -5550 0
5553 -5111 5550 0
-5554 830 0
-5554 -5550 0
5554 -830 5550 0
-5555 -5554 0
-5555 -5553 0
5555 5554 5553 0
-5556 830 0
-5556 5111 0
5556 -830 -5111 0
-5557 -5556 0
-5557 5555 0
5557 5556 -5555 0
-5558 834 5123 0
-5558 -834 -5123 0
5558 -834 5123 0
5558 834 -5123 0
-5559 5558 -5557 0
-5559 -5558 5557 0
5559 -5558 -5557 0
5559 5558 5557 0
-5560 5123 0
-5560 -5557 0
5560 -5123 5557 0
-5561 834 0
-5561 -5557 0
5561 -834 5557 0
-5562 -5561 0
-5562 -5560 0
5562 5561 5560 0
-5563 834 0
-5563 5123 0
5563 -834 -5123 0
-5564 -5563 0
-5564 5562 0
5564 5563 -5562 0
-5565 836 5135 0
-5565 -836 -5135 0
5565 -836 5135 0
5565 836 -5135 0
-5566 5565 -5564 0
-5566 -5565 5564 0
5566 -5565 -5564 0
5566 5565 5564 0
-5567 5135 0
-5567 -5564 0
5567 -5135 5564 0
-5568 836 0
-5568 -5564 0
5568 -836 5564 0
-5569 -5568 0
-5569 -5567 0
5569 5568 5567 0
-5570 836 0
-5570 5135 0
5570 -836 -5135 0
-5571 -5570 0
-5571 5569 0
5571 5570 -5569 0
-5572 840 5147 0
-5572 -840 -5147 0
5572 -840 5147 0
5572 840 -5147 0
-5573 5572 -5571 0
-5573 -5572 5571 0
5573 -5572 -5571 0
5573 5572 5571 0
-5574 5147 0
-5574 -5571 0
5574 -5147 5571 0
-5575 840 0
-5575 -5571 0
5575 -840 5571 0
-5576 -5575 0
-5576 -5574 0
5576 5575 5574 0
-5577 840 0
-5577 5147 0
5577 -840 -5147 0
-5578 -5577 0
-5578 5576 0
5578 5577 -5576 0
-5579 844 5159 0
-5579 -844 -5159 0
5579 -844 5159 0
5579 844 -5159 0
-5580 5579 -5578 0
-5580 -5579 5578 0
5580 -5579 -5578 0
5580 5579 5578 0
-5581 5159 0
-5581 -5578 0
5581 -5159 5578 0
-5582 844 0
-5582 -5578 0
5582 -844 5578 0
-5583 -5582 0
-5583 -5581 0
5583 5582 5581 0
-5584 844 0
-5584 5159 0
5584 -844 -5159 0
-5585 -5584 0
-5585 5583 0
5585 5584 -5583 0
-5586 846 5171 0
-5586 -846 -5171 0
5586 -846 5171 0
5586 846 -5171 0
-5587 5586 -5585 0
-5587 -5586 5585 0
5587 -5586 -5585 0
5587 5586 5585 0
-5588 5171 0
-5588 -5585 0
5588 -5171 5585 0
-5589 846 0
-5589 -5585 0
5589 -846 5585 0
-5590 -5589 0
-5590 -5588 0
5590 5589 5588 0
-5591 846 0
-5591 5171 0
5591 -846 -5171 0
-5592 -5591 0
-5592 5590 0
5592 5591 -5590 0
-5593 848 5183 0
-5593 -848 -5183 0
5593 -848 5183 0
5593 848 -5183 0
-5594 5593 -5592 0
-5594 -5593 5592 0
5594 -5593 -5592 0
5594 5593 5592 0
-5595 5183 0
-5595 -5592 0
5595 -5183 5592 0
-5596 848 0
-5596 -5592 0
5596 -848 5592 0
-5597 -5596 0
-5597 -5595 0
5597 5596 5595 0
-5598 848 0
-5598 5183 0
5598 -848 -5183 0
-5599 -5598 0
-5599 5597 0
5599 5598 -5597 0
-5600 852 5195 0
-5600 -852 -5195 0
5600 -852 5195 0
5600 852 -5195 0
-5601 5600 -5599 0
-5601 -5600 5599 0
5601 -5600 -5599 0
5601 5600 5599 0
-5602 5195 0
-5602 -5599 0
5602 -5195 5599 0
-5603 852 0
-5603 -5599 0
5603 -852 5599 0
-5604 -5603 0
-5604 -5602 0
5604 5603 5602 0
-5605 852 0
-5605 5195 0
5605 -852 -5195 0
-5606 -5605 0
-5606 5604 0
5606 5605 -5604 0
-5607 856 5207 0
-5607 -856 -5207 0
5607 -856 5207 0
5607 856 -5207 0
-5608 5607 -5606 0
-5608 -5607 5606 0
5608 -5607 -5606 0
5608 5607 5606 0
-5609 5207 0
-5609 -5606 0
5609 -5207 5606 0
-5610 856 0
-5610 -5606 0
5610 -856 5606 0
-5611 -5610 0
-5611 -5609 0
5611 5610 5609 0
-5612 856 0
-5612 5207 0
5612 -856 -5207 0
-5613 -5612 0
-5613 5611 0
5613 5612 -5611 0
-5614 860 5219 0
-5614 -860 -5219 0
5614 -860 5219 0
5614 860 -5219 0
-5615 5614 -5613 0
-5615 -5614 5613 0
5615 -5614 -5613 0
5615 5614 5613 0
-5616 5219 0
-5616 -5613 0
5616 -5219 5613 0
-5617 860 0
-5617 -5613 0
5617 -860 5613 0
-5618 -5617 0
-5618 -5616 0
5618 5617 5616 0
-5619 860 0
-5619 5219 0
5619 -860 -5219 0
-5620 -5619 0
-5620 5618 0
5620 5619 -5618 0
-5621 864 5231 0
-5621 -864 -5231 0
5621 -864 5231 0
5621 864 -5231 0
-5622 5621 -5620 0
-5622 -5621 5620 0
5622 -5621 -5620 0
5622 5621 5620 0
-5623 5231 0
-5623 -5620 0
5623 -5231 5620 0
-5624 864 0
-5624 -5620 0
5624 -864 5620 0
-5625 -5624 0
-5625 -5623 0
5625 5624 5623 0
-5626 864 0
-5626 5231 0
5626 -864 -5231 0
-5627 -5626 0
-5627 5625 0
5627 5626 -5625 0
-5628 866 5243 0
-5628 -866 -5243 0
5628 -866 5243 0
5628 866 -5243 0
-5629 5628 -5627 0
-5629 -5628 5627 0
5629 -5628 -5627 0
5629 5628 5627 0
-5630 5243 0
-5630 -5627 0
5630 -5243 5627 0
-5631 866 0
-5631 -5627 0
5631 -866 5627 0
-5632 -5631 0
-5632 -5630 0
5632 5631 5630 0
-5633 866 0
-5633 5243 0
5633 -866 -5243 0
-5634 -5633 0
-5634 5632 0
5634 5633 -5632 0
-5635 870 5255 0
-5635 -870 -5255 0
5635 -870 5255 0
5635 870 -5255 0
-5636 5635 -5634 0
-5636 -5635 5634 0
5636 -5635 -5634 0
5636 5635 5634 0
-5637 5255 0
-5637 -5634 0
5637 -5255 5634 0
-5638 870 0
-5638 -5634 0
5638 -870 5634 0
-5639 -5638 0
-5639 -5637 0
5639 5638 5637 0
-5640 870 0
-5640 5255 0
5640 -870 -5255 0
-5641 -5640 0
-5641 5639 0
5641 5640 -5639 0
-5642 874 5267 0
-5642 -874 -5267 0
5642 -874 5267 0
5642 874 -5267 0
-5643 5642 -5641 0
-5643 -5642 5641 0
5643 -5642 -5641 0
5643 5642 5641 0
-5644 5267 0
-5644 -5641 0
5644 -5267 5641 0
-5645 874 0
-5645 -5641 0
5645 -874 5641 0
-5646 -5645 0
-5646 -5644 0
5646 5645 5644 0
-5647 874 0
-5647 5267 0
5647 -874 -5267 0
-5648 -5647 0
-5648 5646 0
5648 5647 -5646 0
-5649 878 5279 0
-5649 -878 -5279 0
5649 -878 5279 0
5649 878 -5279 0
-5650 5649 -5648 0
-5650 -5649 5648 0
5650 -5649 -5648 0
5650 5649 5648 0
-5651 5279 0
-5651 -5648 0
5651 -5279 5648 0
-5652 878 0
-5652 -5648 0
5652 -878 5648 0
-5653 -5652 0
-5653 -5651 0
5653 5652 5651 0
-5654 878 0
-5654 5279 0
5654 -878 -5279 0
-5655 -5654 0
-5655 5653 0
5655 5654 -5653 0
-5656 880 5291 0
-5656 -880 -5291 0
5656 -880 5291 0
5656 880 -5291 0
-5657 5656 -5655 0
-5657 -5656 5655 0
5657 -5656 -5655 0
5657 5656 5655 0
-5658 5291 0
-5658 -5655 0
5658 -5291 5655 0
-5659 880 0
-5659 -5655 0
5659 -880 5655 0
-5660 -5659 0
-5660 -5658 0
5660 5659 5658 0
-5661 880 0
-5661 5291 0
5661 -880 -5291 0
-5662 -5661 0
-5662 5660 0
5662 5661 -5660 0
-5663 884 5303 0
-5663 -884 -5303 0
5663 -884 5303 0
5663 884 -5303 0
-5664 5663 -5662 0
-5664 -5663 5662 0
5664 -5663 -5662 0
5664 5663 5662 0
-5665 5303 0
-5665 -5662 0
5665 -5303 5662 0
-5666 884 0
-5666 -5662 0
5666 -884 5662 0
-5667 -5666 0
-5667 -5665 0
5667 5666 5665 0
-5668 884 0
-5668 5303 0
5668 -884 -5303 0
-5669 -5668 0
-5669 5667 0
5669 5668 -5667 0
-5670 888 5315 0
-5670 -888 -5315 0
5670 -888 5315 0
5670 888 -5315 0
-5671 5670 -5669 0
-5671 -5670 5669 0
5671 -5670 -5669 0
5671 5670 5669 0
-5672 5315 0
-5672 -5669 0
5672 -5315 5669 0
-5673 888 0
-5673 -5669 0
5673 -888 5669 0
-5674 -5673 0
-5674 -5672 0
5674 5673 5672 0
-5675 888 0
-5675 5315 0
5675 -888 -5315 0
-5676 -5675 0
-5676 5674 0
5676 5675 -5674 0
-5677 890 5327 0
-5677 -890 -5327 0
5677 -890 5327 0
5677 890 -5327 0
-5678 5677 -5676 0
-5678 -5677 5676 0
5678 -5677 -5676 0
5678 5677 5676 0
-5679 5327 0
-5679 -5676 0
5679 -5327 5676 0
-5680 890 0
-5680 -5676 0
5680 -890 5676 0
-5681 -5680 0
-5681 -5679 0
5681 5680 5679 0
-5682 890 0
-5682 5327 0
5682 -890 -5327 0
-5683 -5682 0
-5683 5681 0
5683 5682 -5681 0
-5684 892 5339 0
-5684 -892 -5339 0
5684 -892 5339 0
5684 892 -5339 0
-5685 5684 -5683 0
-5685 -5684 5683 0
5685 -5684 -5683 0
5685 5684 5683 0
-5686 5339 0
-5686 -5683 0
5686 -5339 5683 0
-5687 892 0
-5687 -5683 0
5687 -892 5683 0
-5688 -5687 0
-5688 -5686 0
5688 5687 5686 0
-5689 892 0
-5689 5339 0
5689 -892 -5339 0
-5690 -5689 0
-5690 5688 0
5690 5689 -5688 0
-5691 894 5351 0
-5691 -894 -5351 0
5691 -894 5351 0
5691 894 -5351 0
-5692 5691 -5690 0
-5692 -5691 5690 0
5692 -5691 -5690 0
5692 5691 5690 0
-5693 5351 0
-5693 -5690 0
5693 -5351 5690 0
-5694 894 0
-5694 -5690 0
5694 -894 5690 0
-5695 -5694 0
-5695 -5693 0
5695 5694 5693 0
-5696 894 0
-5696 5351 0
5696 -894 -5351 0
-5697 -5696 0
-5697 5695 0
5697 5696 -5695 0
-5698 898 5363 0
-5698 -898 -5363 0
5698 -898 5363 0
5698 898 -5363 0
-5699 5698 -5697 0
-5699 -5698 5697 0
5699 -5698 -5697 0
5699 5698 5697 0
-5700 5363 0
-5700 -5697 0
5700 -5363 5697 0
-5701 898 0
-5701 -5697 0
5701 -898 5697 0
-5702 -5701 0
-5702 -5700 0
5702 5701 5700 0
-5703 898 0
-5703 5363 0
5703 -898 -5363 0
-5704 -5703 0
-5704 5702 0
5704 5703 -5702 0
-5705 902 5375 0
-5705 -902 -5375 0
5705 -902 5375 0
5705 902 -5375 0
-5706 5705 -5704 0
-5706 -5705 5704 0
5706 -5705 -5704 0
5706 5705 5704 0
-5707 5375 0
-5707 -5704 0
5707 -5375 5704 0
-5708 902 0
-5708 -5704 0
5708 -902 5704 0
-5709 -5708 0
-5709 -5707 0
5709 5708 5707 0
-5710 902 0
-5710 5375 0
5710 -902 -5375 0
-5711 -5710 0
-5711 5709 0
5711 5710 -5709 0
-5712 906 5387 0
-5712 -906 -5387 0
5712 -906 5387 0
5712 906 -5387 0
-5713 5712 -5711 0
-5713 -5712 5711 0
5713 -5712 -5711 0
5713 5712 5711 0
-5714 5387 0
-5714 -5711 0
5714 -5387 5711 0
-5715 906 0
-5715 -5711 0
5715 -906 5711 0
-5716 -5715 0
-5716 -5714 0
5716 5715 5714 0
-5717 906 0
-5717 5387 0
5717 -906 -5387 0
-5718 -5717 0
-5718 5716 0
5718 5717 -5716 0
-5719 910 5399 0
-5719 -910 -5399 0
5719 -910 5399 0
5719 910 -5399 0
-5720 5719 -5718 0
-5720 -5719 5718 0
5720 -5719 -5718 0
5720 5719 5718 0
-5721 5399 0
-5721 -5718 0
5721 -5399 5718 0
-5722 910 0
-5722 -5718 0
5722 -910 5718 0
-5723 -5722 0
-5723 -5721 0
5723 5722 5721 0
-5724 910 0
-5724 5399 0
5724 -910 -5399 0
-5725 -5724 0
-5725 5723 0
5725 5724 -5723 0
-5726 912 5411 0
-5726 -912 -5411 0
5726 -912 5411 0
5726 912 -5411 0
-5727 5726 -5725 0
-5727 -5726 5725 0
5727 -5726 -5725 0
5727 5726 5725 0
-5728 5411 0
-5728 -5725 0
5728 -5411 5725 0
-5729 912 0
-5729 -5725 0
5729 -912 5725 0
-5730 -5729 0
-5730 -5728 0
5730 5729 5728 0
-5731 912 0
-5731 5411 0
5731 -912 -5411 0
-5732 -5731 0
-5732 5730 0
5732 5731 -5730 0
-5733 5514 -5042 0
-5733 -5514 5042 0
5733 -5514 -5042 0
5733 5514 5042 0
-5734 5514 0
-5734 -5042 0
5734 -5514 5042 0
-5735 5517 5422 0
-5735 -5517 -5422 0
5735 -5517 5422 0
5735 5517 -5422 0
-5736 5735 5734 0
-5736 -5735 -5734 0
5736 -5735 5734 0
5736 5735 -5734 0
-5737 5422 0
-5737 5734 0
5737 -5422 -5734 0
-5738 5517 0
-5738 5734 0
5738 -5517 -5734 0
-5739 -5738 0
-5739 -5737 0
5739 5738 5737 0
-5740 5517 0
-5740 5422 0
5740 -5517 -5422 0
-5741 -5740 0
-5741 5739 0
5741 5740 -5739 0
-5742 5524 5424 0
-5742 -5524 -5424 0
5742 -5524 5424 0
5742 5524 -5424 0
-5743 5742 -5741 0
-5743 -5742 5741 0
5743 -5742 -5741 0
5743 5742 5741 0
-5744 5424 0
-5744 -5741 0
5744 -5424 5741 0
-5745 5524 0
-5745 -5741 0
5745 -5524 5741 0
-5746 -5745 0
-5746 -5744 0
5746 5745 5744 0
-5747 5524 0
-5747 5424 0
5747 -5524 -5424 0
-5748 -5747 0
-5748 5746 0
5748 5747 -5746 0
-5749 5531 5426 0
-5749 -5531 -5426 0
5749 -5531 5426 0
5749 5531 -5426 0
-5750 5749 -5748 0
-5750 -5749 5748 0
5750 -5749 -5748 0
5750 5749 5748 0
-5751 5426 0
-5751 -5748 0
5751 -5426 5748 0
-5752 5531 0
-5752 -5748 0
5752 -5531 5748 0
-5753 -5752 0
-5753 -5751 0
5753 5752 5751 0
-5754 5531 0
-5754 5426 0
5754 -5531 -5426 0
-5755 -5754 0
-5755 5753 0
5755 5754 -5753 0
-5756 5538 5428 0
-5756 -5538 -5428 0
5756 -5538 5428 0
5756 5538 -5428 0
-5757 5756 -5755 0
-5757 -5756 5755 0
5757 -5756 -5755 0
5757 5756 5755 0
-5758 5428 0
-5758 -5755 0
5758 -5428 5755 0
-5759 5538 0
-5759 -5755 0
5759 -5538 5755 0
-5760 -5759 0
-5760 -5758 0
5760 5759 5758 0
-5761 5538 0
-5761 5428 0
5761 -5538 -5428 0
-5762 -5761 0
-5762 5760 0
5762 5761 -5760 0
-5763 5545 5432 0
-5763 -5545 -5432 0
5763 -5545 5432 0
5763 5545 -5432 0
-5764 5763 -5762 0
-5764 -5763 5762 0
5764 -5763 -5762 0
5764 5763 5762 0
-5765 5432 0
-5765 -5762 0
5765 -5432 5762 0
-5766 5545 0
-5766 -5762 0
5766 -5545 5762 0
-5767 -5766 0
-5767 -5765 0
5767 5766 5765 0
-5768 5545 0
-5768 5432 0
5768 -5545 -5432 0
-5769 -5768 0
-5769 5767 0
5769 5768 -5767 0
-5770 5552 5436 0
-5770 -5552 -5436 0
5770 -5552 5436 0
5770 5552 -5436 0
-5771 5770 -5769 0
-5771 -5770 5769 0
5771 -5770 -5769 0
5771 5770 5769 0
-5772 5436 0
-5772 -5769 0
5772 -5436 5769 0
-5773 5552 0
-5773 -5769 0
5773 -5552 5769 0
-5774 -5773 0
-5774 -5772 0
5774 5773 5772 0
-5775 5552 0
-5775 5436 0
5775 -5552 -5436 0
-5776 -5775 0
-5776 5774 0
5776 5775 -5774 0
-5777 5559 5440 0
-5777 -5559 -5440 0
5777 -5559 5440 0
5777 5559 -5440 0
-5778 5777 -5776 0
-5778 -5777 5776 0
5778 -5777 -5776 0
5778 5777 5776 0
-5779 5440 0
-5779 -5776 0
5779 -5440 5776 0
-5780 5559 0
-5780 -5776 0
5780 -5559 5776 0
-5781 -5780 0
-5781 -5779 0
5781 5780 5779 0
-5782 5559 0
-5782 5440 0
5782 -5559 -5440 0
-5783 -5782 0
-5783 5781 0
5783 5782 -5781 0
-5784 5566 5444 0
-5784 -5566 -5444 0
5784 -5566 5444 0
5784 5566 -5444 0
-5785 5784 -5783 0
-5785 -5784 5783 0
5785 -5784 -5783 0
5785 5784 5783 0
-5786 5444 0
-5786 -5783 0
5786 -5444 5783 0
-5787 5566 0
-5787 -5783 0
5787 -5566 5783 0
-5788 -5787 0
-5788 -5786 0
5788 5787 5786 0
-5789 5566 0
-5789 5444 0
5789 -5566 -5444 0
-5790 -5789 0
-5790 5788 0
5790 5789 -5788 0
-5791 5573 5448 0
-5791 -5573 -5448 0
5791 -5573 5448 0
5791 5573 -5448 0
-5792 5791 -5790 0
-5792 -5791 5790 0
5792 -5791 -5790 0
5792 5791 5790 0
-5793 5448 0
-5793 -5790 0
5793 -5448 5790 0
-5794 5573 0
-5794 -5790 0
5794 -5573 5790 0
-5795 -5794 0
-5795 -5793 0
5795 5794 5793 0
-5796 5573 0
-5796 5448 0
5796 -5573 -5448 0
-5797 -5796 0
-5797 5795 0
5797 5796 -5795 0
-5798 5580 5450 0
-5798 -5580 -5450 0
5798 -5580 5450 0
5798 5580 -5450 0
-5799 5798 -5797 0
-5799 -5798 5797 0
5799 -5798 -5797 0
5799 5798 5797 0
-5800 5450 0
-5800 -5797 0
5800 -5450 5797 0
-5801 5580 0
-5801 -5797 0
5801 -5580 5797 0
-5802 -5801 0
-5802 -5800 0
5802 5801 5800 0
-5803 5580 0
-5803 5450 0
5803 -5580 -5450 0
-5804 -5803 0
-5804 5802 0
5804 5803 -5802 0
-5805 5587 5452 0
-5805 -5587 -5452 0
5805 -5587 5452 0
5805 5587 -5452 0
-5806 5805 -5804 0
-5806 -5805 5804 0
5806 -5805 -5804 0
5806 5805 5804 0
-5807 5452 0
-5807 -5804 0
5807 -5452 5804 0
-5808 5587 0
-5808 -5804 0
5808 -5587 5804 0
-5809 -5808 0
-5809 -5807 0
5809 5808 5807 0
-5810 5587 0
-5810 5452 0
5810 -5587 -5452 0
-5811 -5810 0
-5811 5809 0
5811 5810 -5809 0
-5812 5594 5454 0
-5812 -5594 -5454 0
5812 -5594 5454 0
5812 5594 -5454 0
-5813 5812 -5811 0
-5813 -5812 5811 0
5813 -5812 -5811 0
5813 5812 5811 0
-5814 5454 0
-5814 -5811 0
5814 -5454 5811 0
-5815 5594 0
-5815 -5811 0
5815 -5594 5811 0
-5816 -5815 0
-5816 -5814 0
5816 5815 5814 0
-5817 5594 0
-5817 5454 0
5817 -5594 -5454 0
-5818 -5817 0
-5818 5816 0
5818 5817 -5816 0
-5819 5601 5458 0
-5819 -5601 -5458 0
5819 -5601 5458 0
5819 5601 -5458 0
-5820 5819 -5818 0
-5820 -5819 5818 0
5820 -5819 -5818 0
5820 5819 5818 0
-5821 5458 0
-5821 -5818 0
5821 -5458 5818 0
-5822 5601 0
-5822 -5818 0
5822 -5601 5818 0
-5823 -5822 0
-5823 -5821 0
5823 5822 5821 0
-5824 5601 0
-5824 5458 0
5824 -5601 -5458 0
-5825 -5824 0
-5825 5823 0
5825 5824 -5823 0
-5826 5608 5460 0
-5826 -5608 -5460 0
5826 -5608 5460 0
5826 5608 -5460 0
-5827 5826 -5825 0
-5827 -5826 5825 0
5827 -5826 -5825 0
5827 5826 5825 0
-5828 5460 0
-5828 -5825 0
5828 -5460 5825 0
-5829 5608 0
-5829 -5825 0
5829 -5608 5825 0
-5830 -5829 0
-5830 -5828 0
5830 5829 5828 0
-5831 5608 0
-5831 5460 0
5831 -5608 -5460 0
-5832 -5831 0
-5832 5830 0
5832 5831 -5830 0
-5833 5615 5462 0
-5833 -5615 -5462 0
5833 -5615 5462 0
5833 5615 -5462 0
-5834 5833 -5832 0
-5834 -5833 5832 0
5834 -5833 -5832 0
5834 5833 5832 0
-5835 5462 0
-5835 -5832 0
5835 -5462 5832 0
-5836 5615 0
-5836 -5832 0
5836 -5615 5832 0
-5837 -5836 0
-5837 -5835 0
5837 5836 5835 0
-5838 5615 0
-5838 5462 0
5838 -5615 -5462 0
-5839 -5838 0
-5839 5837 0
5839 5838 -5837 0
-5840 5622 5464 0
-5840 -5622 -5464 0
5840 -5622 5464 0
5840 5622 -5464 0
-5841 5840 -5839 0
-5841 -5840 5839 0
5841 -5840 -5839 0
5841 5840 5839 0
-5842 5464 0
-5842 -5839 0
5842 -5464 5839 0
-5843 5622 0
-5843 -5839 0
5843 -5622 5839 0
-5844 -5843 0
-5844 -5842 0
5844 5843 5842 0
-5845 5622 0
-5845 5464 0
5845 -5622 -5464 0
-5846 -5845 0
-5846 5844 0
5846 5845 -5844 0
-5847 5629 5468 0
-5847 -5629 -5468 0
5847 -5629 5468 0
5847 5629 -5468 0
-5848 5847 -5846 0
-5848 -5847 5846 0
5848 -5847 -5846 0
5848 5847 5846 0
-5849 5468 0
-5849 -5846 0
5849 -5468 5846 0
-5850 5629 0
-5850 -5846 0
5850 -5629 5846 0
-5851 -5850 0
-5851 -5849 0
5851 5850 5849 0
-5852 5629 0
-5852 5468 0
5852 -5629 -5468 0
-5853 -5852 0
-5853 5851 0
5853 5852 -5851 0
-5854 5636 5470 0
-5854 -5636 -5470 0
5854 -5636 5470 0
5854 5636 -5470 0
-5855 5854 -5853 0
-5855 -5854 5853 0
5855 -5854 -5853 0
5855 5854 5853 0
-5856 5470 0
-5856 -5853 0
5856 -5470 5853 0
-5857 5636 0
-5857 -5853 0
5857 -5636 5853 0
-5858 -5857 0
-5858 -5856 0
5858 5857 5856 0
-5859 5636 0
-5859 5470 0
5859 -5636 -5470 0
-5860 -5859 0
-5860 5858 0
5860 5859 -5858 0
-5861 5643 5472 0
-5861 -5643 -5472 0
5861 -5643 5472 0
5861 5643 -5472 0
-5862 5861 -5860 0
-5862 -5861 5860 0
5862 -5861 -5860 0
5862 5861 5860 0
-5863 5472 0
-5863 -5860 0
5863 -5472 5860 0
-5864 5643 0
-5864 -5860 0
5864 -5643 5860 0
-5865 -5864 0
-5865 -5863 0
5865 5864 5863 0
-5866 5643 0
-5866 5472 0
5866 -5643 -5472 0
-5867 -5866 0
-5867 5865 0
5867 5866 -5865 0
-5868 5650 5474 0
-5868 -5650 -5474 0
5868 -5650 5474 0
5868 5650 -5474 0
-5869 5868 -5867 0
-5869 -5868 5867 0
5869 -5868 -5867 0
5869 5868 5867 0
-5870 5474 0
-5870 -5867 0
5870 -5474 5867 0
-5871 5650 0
-5871 -5867 0
5871 -5650 5867 0
-5872 -5871 0
-5872 -5870 0
5872 5871 5870 0
-5873 5650 0
-5873 5474 0
5873 -5650 -5474 0
-5874 -5873 0
-5874 5872 0
5874 5873 -5872 0
-5875 5657 5478 0
-5875 -5657 -5478 0
5875 -5657 5478 0
5875 5657 -5478 0
-5876 5875 -5874 0
-5876 -5875 5874 0
5876 -5875 -5874 0
5876 5875 5874 0
-5877 5478 0
-5877 -5874 0
5877 -5478 5874 0
-5878 5657 0
-5878 -5874 0
5878 -5657 5874 0
-5879 -5878 0
-5879 -5877 0
5879 5878 5877 0
-5880 5657 0
-5880 5478 0
5880 -5657 -5478 0
-5881 -5880 0
-5881 5879 0
5881 5880 -5879 0
-5882 5664 5482 0
-5882 -5664 -5482 0
5882 -5664 5482 0
5882 5664 -5482 0
-5883 5882 -5881 0
-5883 -5882 5881 0
5883 -5882 -5881 0
5883 5882 5881 0
-5884 5482 0
-5884 -5881 0
5884 -5482 5881 0
-5885 5664 0
-5885 -5881 0
5885 -5664 5881 0
-5886 -5885 0
-5886 -5884 0
5886 5885 5884 0
-5887 5664 0
-5887 5482 0
5887 -5664 -5482 0
-5888 -5887 0
-5888 5886 0
5888 5887 -5886 0
-5889 5671 5486 0
-5889 -5671 -5486 0
5889 -5671 5486 0
5889 5671 -5486 0
-5890 5889 -5888 0
-5890 -5889 5888 0
5890 -5889 -5888 0
5890 5889 5888 0
-5891 5486 0
-5891 -5888 0
5891 -5486 5888 0
-5892 5671 0
-5892 -5888 0
5892 -5671 5888 0
-5893 -5892 0
-5893 -5891 0
5893 5892 5891 0
-5894 5671 0
-5894 5486 0
5894 -5671 -5486 0
-5895 -5894 0
-5895 5893 0
5895 5894 -5893 0
-5896 5678 5490 0
-5896 -5678 -5490 0
5896 -5678 5490 0
5896 5678 -5490 0
-5897 5896 -5895 0
-5897 -5896 5895 0
5897 -5896 -5895 0
5897 5896 5895 0
-5898 5490 0
-5898 -5895 0
5898 -5490 5895 0
-5899 5678 0
-5899 -5895 0
5899 -5678 5895 0
-5900 -5899 0
-5900 -5898 0
5900 5899 5898 0
-5901 5678 0
-5901 5490 0
5901 -5678 -5490 0
-5902 -5901 0
-5902 5900 0
5902 5901 -5900 0
-5903 5685 5494 0
-5903 -5685 -5494 0
5903 -5685 5494 0
5903 5685 -5494 0
-5904 5903 -5902 0
-5904 -5903 5902 0
5904 -5903 -5902 0
5904 5903 5902 0
-5905 5494 0
-5905 -5902 0
5905 -5494 5902 0
-5906 5685 0
-5906 -5902 0
5906 -5685 5902 0
-5907 -5906 0
-5907 -5905 0
5907 5906 5905 0
-5908 5685 0
-5908 5494 0
5908 -5685 -5494 0
-5909 -5908 0
-5909 5907 0
5909 5908 -5907 0
-5910 5692 5496 0
-5910 -5692 -5496 0
5910 -5692 5496 0
5910 5692 -5496 0
-5911 5910 -5909 0
-5911 -5910 5909 0
5911 -5910 -5909 0
5911 5910 5909 0
-5912 5496 0
-5912 -5909 0
5912 -5496 5909 0
-5913 5692 0
-5913 -5909 0
5913 -5692 5909 0
-5914 -5913 0
-5914 -5912 0
5914 5913 5912 0
-5915 5692 0
-5915 5496 0
5915 -5692 -5496 0
-5916 -5915 0
-5916 5914 0
5916 5915 -5914 0
-5917 5699 5498 0
-5917 -5699 -5498 0
5917 -5699 5498 0
5917 5699 -5498 0
-5918 5917 -5916 0
-5918 -5917 5916 0
5918 -5917 -5916 0
5918 5917 5916 0
-5919 5498 0
-5919 -5916 0
5919 -5498 5916 0
-5920 5699 0
-5920 -5916 0
5920 -5699 5916 0
-5921 -5920 0
-5921 -5919 0
5921 5920 5919 0
-5922 5699 0
-5922 5498 0
5922 -5699 -5498 0
-5923 -5922 0
-5923 5921 0
5923 5922 -5921 0
-5924 5706 5502 0
-5924 -5706 -5502 0
5924 -5706 5502 0
5924 5706 -5502 0
-5925 5924 -5923 0
-5925 -5924 5923 0
5925 -5924 -5923 0
5925 5924 5923 0
-5926 5502 0
-5926 -5923 0
5926 -5502 5923 0
-5927 5706 0
-5927 -5923 0
5927 -5706 5923 0
-5928 -5927 0
-5928 -5926 0
5928 5927 5926 0
-5929 5706 0
-5929 5502 0
5929 -5706 -5502 0
-5930 -5929 0
-5930 5928 0
5930 5929 -5928 0
-5931 5713 5506 0
-5931 -5713 -5506 0
5931 -5713 5506 0
5931 5713 -5506 0
-5932 5931 -5930 0
-5932 -5931 5930 0
5932 -5931 -5930 0
5932 5931 5930 0
-5933 5506 0
-5933 -5930 0
5933 -5506 5930 0
-5934 5713 0
-5934 -5930 0
5934 -5713 5930 0
-5935 -5934 0
-5935 -5933 0
5935 5934 5933 0
-5936 5713 0
-5936 5506 0
5936 -5713 -5506 0
-5937 -5936 0
-5937 5935 0
5937 5936 -5935 0
-5938 5720 5508 0
-5938 -5720 -5508 0
5938 -5720 5508 0
5938 5720 -5508 0
-5939 5938 -5937 0
-5939 -5938 5937 0
5939 -5938 -5937 0
5939 5938 5937 0
-5940 5508 0
-5940 -5937 0
5940 -5508 5937 0
-5941 5720 0
-5941 -5937 0
5941 -5720 5937 0
-5942 -5941 0
-5942 -5940 0
5942 5941 5940 0
-5943 5720 0
-5943 5508 0
5943 -5720 -5508 0
-5944 -5943 0
-5944 5942 0
5944 5943 -5942 0
-5945 5727 5512 0
-5945 -5727 -5512 0
5945 -5727 5512 0
5945 5727 -5512 0
-5946 5945 -5944 0
-5946 -5945 5944 0
5946 -5945 -5944 0
5946 5945 5944 0
-5947 5512 0
-5947 -5944 0
5947 -5512 5944 0
-5948 5727 0
-5948 -5944 0
5948 -5727 5944 0
-5949 -5948 0
-5949 -5947 0
5949 5948 5947 0
-5950 5727 0
-5950 5512 0
5950 -5727 -5512 0
-5951 -5950 0
-5951 5949 0
5951 5950 -5949 0
-5952 5044 -5049 0
-5952 -5044 5049 0
5952 -5044 -5049 0
5952 5044 5049 0
-5953 5044 0
-5953 -5049 0
5953 -5044 5049 0
-5954 5056 -5061 0
-5954 -5056 5061 0
5954 -5056 -5061 0
5954 5056 5061 0
-5955 5954 5953 0
-5955 -5954 -5953 0
5955 -5954 5953 0
5955 5954 -5953 0
-5956 -5061 0
-5956 5953 0
5956 5061 -5953 0
-5957 5056 0
-5957 5953 0
5957 -5056 -5953 0
-5958 -5957 0
-5958 -5956 0
5958 5957 5956 0
-5959 5056 0
-5959 -5061 0
5959 -5056 5061 0
-5960 -5959 0
-5960 5958 0
5960 5959 -5958 0
-5961 5068 -5073 0
-5961 -5068 5073 0
5961 -5068 -5073 0
5961 5068 5073 0
-5962 5961 -5960 0
-5962 -5961 5960 0
5962 -5961 -5960 0
5962 5961 5960 0
-5963 -5073 0
-5963 -5960 0
5963 5073 5960 0
-5964 5068 0
-5964 -5960 0
5964 -5068 5960 0
-5965 -5964 0
-5965 -5963 0
5965 5964 5963 0
-5966 5068 0
-5966 -5073 0
5966 -5068 5073 0
-5967 -5966 0
-5967 5965 0
5967 5966 -5965 0
-5968 5080 -5085 0
-5968 -5080 5085 0
5968 -5080 -5085 0
5968 5080 5085 0
-5969 5968 -5967 0
-5969 -5968 5967 0
5969 -5968 -5967 0
5969 5968 5967 0
-5970 -5085 0
-5970 -5967 0
5970 5085 5967 0
-5971 5080 0
-5971 -5967 0
5971 -5080 5967 0
-5972 -5971 0
-5972 -5970 0
5972 5971 5970 0
-5973 5080 0
-5973 -5085 0
5973 -5080 5085 0
-5974 -5973 0
-5974 5972 0
5974 5973 -5972 0
-5975 5092 -5097 0
-5975 -5092 5097 0
5975 -5092 -5097 0
5975 5092 5097 0
-5976 5975 -5974 0
-5976 -5975 5974 0
5976 -5975 -5974 0
5976 5975 5974 0
-5977 -5097 0
-5977 -5974 0
5977 5097 5974 0
-5978 5092 0
-5978 -5974 0
5978 -5092 5974 0
-5979 -5978 0
-5979 -5977 0
5979 5978 5977 0
-5980 5092 0
-5980 -5097 0
5980 -5092 5097 0
-5981 -5980 0
-5981 5979 0
5981 5980 -5979 0
-5982 5104 -5109 0
-5982 -5104 5109 0
5982 -5104 -5109 0
5982 5104 5109 0
-5983 5982 -5981 0
-5983 -5982 5981 0
5983 -5982 -5981 0
5983 5982 5981 0
-5984 -5109 0
-5984 -5981 0
5984 5109 5981 0
-5985 5104 0
-5985 -5981 0
5985 -5104 5981 0
-5986 -5985 0
-5986 -5984 0
5986 5985 5984 0
-5987 5104 0
-5987 -5109 0
5987 -5104 5109 0
-5988 -5987 0
-5988 5986 0
5988 5987 -5986 0
-5989 5116 -5121 0
-5989 -5116 5121 0
5989 -5116 -5121 0
5989 5116 5121 0
-5990 5989 -5988 0
-5990 -5989 5988 0
5990 -5989 -5988 0
5990 5989 5988 0
-5991 -5121 0
-5991 -5988 0
5991 5121 5988 0
-5992 5116 0
-5992 -5988 0
5992 -5116 5988 0
-5993 -5992 0
-5993 -5991 0
5993 5992 5991 0
-5994 5116 0
-5994 -5121 0
5994 -5116 5121 0
-5995 -5994 0
-5995 5993 0
5995 5994 -5993 0
-5996 5128 -5133 0
-5996 -5128 5133 0
5996 -5128 -5133 0
5996 5128 5133 0
-5997 5996 -5995 0
-5997 -5996 5995 0
5997 -5996 -5995 0
5997 5996 5995 0
-5998 -5133 0
-5998 -5995 0
5998 5133 5995 0
-5999 5128 0
-5999 -5995 0
5999 -5128 5995 0
-6000 -5999 0
-6000 -5998 0
6000 5999 5998 0
-6001 5128 0
-6001 -5133 0
6001 -5128 5133 0
-6002 -6001 0
-6002 6000 0
6002 6001 -6000 0
-6003 5140 -5145 0
-6003 -5140 5145 0
6003 -5140 -5145 0
6003 5140 5145 0
-6004 6003 -6002 0
-6004 -6003 6002 0
6004 -6003 -6002 0
6004 6003 6002 0
-6005 -5145 0
-6005 -6002 0
6005 5145 6002 0
-6006 5140 0
-6006 -6002 0
6006 -5140 6002 0
-6007 -6006 0
-6007 -6005 0
6007 6006 6005 0
-6008 5140 0
-6008 -5145 0
6008 -5140 5145 0
-6009 -6008 0
-6009 6007 0
6009 6008 -6007 0
-6010 5152 -5157 0
-6010 -5152 5157 0
6010 -5152 -5157 0
6010 5152 5157 0
-6011 6010 -6009 0
-6011 -6010 6009 0
6011 -6010 -6009 0
6011 6010 6009 0
-6012 -5157 0
-6012 -6009 0
6012 5157 6009 0
-6013 5152 0
-6013 -6009 0
6013 -5152 6009 0
-6014 -6013 0
-6014 -6012 0
6014 6013 6012 0
-6015 5152 0
-6015 -5157 0
6015 -5152 5157 0
-6016 -6015 0
-6016 6014 0
6016 6015 -6014 0
-6017 5164 -5169 0
-6017 -5164 5169 0
6017 -5164 -5169 0
6017 5164 5169 0
-6018 6017 -6016 0
-6018 -6017 6016 0
6018 -6017 -6016 0
6018 6017 6016 0
-6019 -5169 0
-6019 -6016 0
6019 5169 6016 0
-6020 5164 0
-6020 -6016 0
6020 -5164 6016 0
-6021 -6020 0
-6021 -6019 0
6021 6020 6019 0
-6022 5164 0
-6022 -5169 0
6022 -5164 5169 0
-6023 -6022 0
-6023 6021 0
6023 6022 -6021 0
-6024 5176 -5181 0
-6024 -5176 5181 0
6024 -5176 -5181 0
6024 5176 5181 0
-6025 6024 -6023 0
-6025 -6024 6023 0
6025 -6024 -6023 0
6025 6024 6023 0
-6026 -5181 0
-6026 -6023 0
6026 5181 6023 0
-6027 5176 0
-6027 -6023 0
6027 -5176 6023 0
-6028 -6027 0
-6028 -6026 0
6028 6027 6026 0
-6029 5176 0
-6029 -5181 0
6029 -5176 5181 0
-6030 -6029 0
-6030 6028 0
6030 6029 -6028 0
-6031 5188 -5193 0
-6031 -5188 5193 0
6031 -5188 -5193 0
6031 5188 5193 0
-6032 6031 -6030 0
-6032 -6031 6030 0
6032 -6031 -6030 0
6032 6031 6030 0
-6033 -5193 0
-6033 -6030 0
6033 5193 6030 0
-6034 5188 0
-6034 -6030 0
6034 -5188 6030 0
-6035 -6034 0
-6035 -6033 0
6035 6034 6033 0
-6036 5188 0
-6036 -5193 0
6036 -5188 5193 0
-6037 -6036 0
-6037 6035 0
6037 6036 -6035 0
-6038 5200 -5205 0
-6038 -5200 5205 0
6038 -5200 -5205 0
6038 5200 5205 0
-6039 6038 -6037 0
-6039 -6038 6037 0
6039 -6038 -6037 0
6039 6038 6037 0
-6040 -5205 0
-6040 -6037 0
6040 5205 6037 0
-6041 5200 0
-6041 -6037 0
6041 -5200 6037 0
-6042 -6041 0
-6042 -6040 0
6042 6041 6040 0
-6043 5200 0
-6043 -5205 0
6043 -5200 5205 0
-6044 -6043 0
-6044 6042 0
6044 6043 -6042 0
-6045 5212 -5217 0
-6045 -5212 5217 0
6045 -5212 -5217 0
6045 5212 5217 0
-6046 6045 -6044 0
-6046 -6045 6044 0
6046 -6045 -6044 0
6046 6045 6044 0
-6047 -5217 0
-6047 -6044 0
6047 5217 6044 0
-6048 5212 0
-6048 -6044 0
6048 -5212 6044 0
-6049 -6048 0
-6049 -6047 0
6049 6048 6047 0
-6050 5212 0
-6050 -5217 0
6050 -5212 5217 0
-6051 -6050 0
-6051 6049 0
6051 6050 -6049 0
-6052 5224 -5229 0
-6052 -5224 5229 0
6052 -5224 -5229 0
6052 5224 5229 0
-6053 6052 -6051 0
-6053 -6052 6051 0
6053 -6052 -6051 0
6053 6052 6051 0
-6054 -5229 0
-6054 -6051 0
6054 5229 6051 0
-6055 5224 0
-6055 -6051 0
6055 -5224 6051 0
-6056 -6055 0
-6056 -6054 0
6056 6055 6054 0
-6057 5224 0
-6057 -5229 0
6057 -5224 5229 0
-6058 -6057 0
-6058 6056 0
6058 6057 -6056 0
-6059 5236 -5241 0
-6059 -5236 5241 0
6059 -5236 -5241 0
6059 5236 5241 0
-6060 6059 -6058 0
-6060 -6059 6058 0
6060 -6059 -6058 0
6060 6059 6058 0
-6061 -5241 0
-6061 -6058 0
6061 5241 6058 0
-6062 5236 0
-6062 -6058 0
6062 -5236 6058 0
-6063 -6062 0
-6063 -6061 0
6063 6062 6061 0
-6064 5236 0
-6064 -5241 0
6064 -5236 5241 0
-6065 -6064 0
-6065 6063 0
6065 6064 -6063 0
-6066 5248 -5253 0
-6066 -5248 5253 0
6066 -5248 -5253 0
6066 5248 5253 0
-6067 6066 -6065 0
-6067 -6066 6065 0
6067 -6066 -6065 0
6067 6066 6065 0
-6068 -5253 0
-6068 -6065 0
6068 5253 6065 0
-6069 5248 0
-6069 -6065 0
6069 -5248 6065 0
-6070 -6069 0
-6070 -6068 0
6070 6069 6068 0
-6071 5248 0
-6071 -5253 0
6071 -5248 5253 0
-6072 -6071 0
-6072 6070 0
6072 6071 -6070 0
-6073 5260 -5265 0
-6073 -5260 5265 0
6073 -5260 -5265 0
6073 5260 5265 0
-6074 6073 -6072 0
-6074 -6073 6072 0
6074 -6073 -6072 0
6074 6073 6072 0
-6075 -5265 0
-6075 -6072 0
6075 5265 6072 0
-6076 5260 0
-6076 -6072 0
6076 -5260 6072 0
-6077 -6076 0
-6077 -6075 0
6077 6076 6075 0
-6078 5260 0
-6078 -5265 0
6078 -5260 5265 0
-6079 -6078 0
-6079 6077 0
6079 6078 -6077 0
-6080 5272 -5277 0
-6080 -5272 5277 0
6080 -5272 -5277 0
6080 5272 5277 0
-6081 6080 -6079 0
-6081 -6080 6079 0
6081 -6080 -6079 0
6081 6080 6079 0
-6082 -5277 0
-6082 -6079 0
6082 5277 6079 0
-6083 5272 0
-6083 -6079 0
6083 -5272 6079 0
-6084 -6083 0
-6084 -6082 0
6084 6083 6082 0
-6085 5272 0
-6085 -5277 0
6085 -5272 5277 0
-6086 -6085 0
-6086 6084 0
6086 6085 -6084 0
-6087 5284 -5289 0
-6087 -5284 5289 0
6087 -5284 -5289 0
6087 5284 5289 0
-6088 6087 -6086 0
-6088 -6087 6086 0
6088 -6087 -6086 0
6088 6087 6086 0
-6089 -5289 0
-6089 -6086 0
6089 5289 6086 0
-6090 5284 0
-6090 -6086 0
6090 -5284 6086 0
-6091 -6090 0
-6091 -6089 0
6091 6090 6089 0
-6092 5284 0
-6092 -5289 0
6092 -5284 5289 0
-6093 -6092 0
-6093 6091 0
6093 6092 -6091 0
-6094 5296 -5301 0
-6094 -5296 5301 0
6094 -5296 -5301 0
6094 5296 5301 0
-6095 6094 -6093 0
-6095 -6094 6093 0
6095 -6094 -6093 0
6095 6094 6093 0
-6096 -5301 0
-6096 -6093 0
6096 5301 6093 0
-6097 5296 0
-6097 -6093 0
6097 -5296 6093 0
-6098 -6097 0
-6098 -6096 0
6098 6097 6096 0
-6099 5296 0
-6099 -5301 0
6099 -5296 5301 0
-6100 -6099 0
-6100 6098 0
6100 6099 -6098 0
-6101 5308 -5313 0
-6101 -5308 5313 0
6101 -5308 -5313 0
6101 5308 5313 0
-6102 6101 -6100 0
-6102 -6101 6100 0
6102 -6101 -6100 0
6102 6101 6100 0
-6103 -5313 0
-6103 -6100 0
6103 5313 6100 0
-6104 5308 0
-6104 -6100 0
6104 -5308 6100 0
-6105 -6104 0
-6105 -6103 0
6105 6104 6103 0
-6106 5308 0
-6106 -5313 0
6106 -5308 5313 0
-6107 -6106 0
-6107 6105 0
6107 6106 -6105 0
-6108 5320 -5325 0
-6108 -5320 5325 0
6108 -5320 -5325 0
6108 5320 5325 0
-6109 6108 -6107 0
-6109 -6108 6107 0
6109 -6108 -6107 0
6109 6108 6107 0
-6110 -5325 0
-6110 -6107 0
6110 5325 6107 0
-6111 5320 0
-6111 -6107 0
6111 -5320 6107 0
-6112 -6111 0
-6112 -6110 0
6112 6111 6110 0
-6113 5320 0
-6113 -5325 0
6113 -5320 5325 0
-6114 -6113 0
-6114 6112 0
6114 6113 -6112 0
-6115 5332 -5337 0
-6115 -5332 5337 0
6115 -5332 -5337 0
6115 5332 5337 0
-6116 6115 -6114 0
-6116 -6115 6114 0
6116 -6115 -6114 0
6116 6115 6114 0
-6117 -5337 0
-6117 -6114 0
6117 5337 6114 0
-6118 5332 0
-6118 -6114 0
6118 -5332 6114 0
-6119 -6118 0
-6119 -6117 0
6119 6118 6117 0
-6120 5332 0
-6120 -5337 0
6120 -5332 5337 0
-6121 -6120 0
-6121 6119 0
6121 6120 -6119 0
-6122 5344 -5349 0
-6122 -5344 5349 0
6122 -5344 -5349 0
6122 5344 5349 0
-6123 6122 -6121 0
-6123 -6122 6121 0
6123 -6122 -6121 0
6123 6122 6121 0
-6124 -5349 0
-6124 -6121 0
6124 5349 6121 0
-6125 5344 0
-6125 -6121 0
6125 -5344 6121 0
-6126 -6125 0
-6126 -6124 0
6126 6125 6124 0
-6127 5344 0
-6127 -5349 0
6127 -5344 5349 0
-6128 -6127 0
-6128 6126 0
6128 6127 -6126 0
-6129 5356 -5361 0
-6129 -5356 5361 0
6129 -5356 -5361 0
6129 5356 5361 0
-6130 6129 -6128 0
-6130 -6129 6128 0
6130 -6129 -6128 0
6130 6129 6128 0
-6131 -5361 0
-6131 -6128 0
6131 5361 6128 0
-6132 5356 0
-6132 -6128 0
6132 -5356 6128 0
-6133 -6132 0
-6133 -6131 0
6133 6132 6131 0
-6134 5356 0
-6134 -5361 0
6134 -5356 5361 0
-6135 -6134 0
-6135 6133 0
6135 6134 -6133 0
-6136 5368 -5373 0
-6136 -5368 5373 0
6136 -5368 -5373 0
6136 5368 5373 0
-6137 6136 -6135 0
-6137 -6136 6135 0
6137 -6136 -6135 0
6137 6136 6135 0
-6138 -5373 0
-6138 -6135 0
6138 5373 6135 0
-6139 5368 0
-6139 -6135 0
6139 -5368 6135 0
-6140 -6139 0
-6140 -6138 0
6140 6139 6138 0
-6141 5368 0
-6141 -5373 0
6141 -5368 5373 0
-6142 -6141 0
-6142 6140 0
6142 6141 -6140 0
-6143 5380 -5385 0
-6143 -5380 5385 0
6143 -5380 -5385 0
6143 5380 5385 0
-6144 6143 -6142 0
-6144 -6143 6142 0
6144 -6143 -6142 0
6144 6143 6142 0
-6145 -5385 0
-6145 -6142 0
6145 5385 6142 0
-6146 5380 0
-6146 -6142 0
6146 -5380 6142 0
-6147 -6146 0
-6147 -6145 0
6147 6146 6145 0
-6148 5380 0
-6148 -5385 0
6148 -5380 5385 0
-6149 -6148 0
-6149 6147 0
6149 6148 -6147 0
-6150 5392 -5397 0
-6150 -5392 5397 0
6150 -5392 -5397 0
6150 5392 5397 0
-6151 6150 -6149 0
-6151 -6150 6149 0
6151 -6150 -6149 0
6151 6150 6149 0
-6152 -5397 0
-6152 -6149 0
6152 5397 6149 0
-6153 5392 0
-6153 -6149 0
6153 -5392 6149 0
-6154 -6153 0
-6154 -6152 0
6154 6153 6152 0
-6155 5392 0
-6155 -5397 0
6155 -5392 5397 0
-6156 -6155 0
-6156 6154 0
6156 6155 -6154 0
-6157 5404 -5409 0
-6157 -5404 5409 0
6157 -5404 -5409 0
6157 5404 5409 0
-6158 6157 -6156 0
-6158 -6157 6156 0
6158 -6157 -6156 0
6158 6157 6156 0
-6159 -5409 0
-6159 -6156 0
6159 5409 6156 0
-6160 5404 0
-6160 -6156 0
6160 -5404 6156 0
-6161 -6160 0
-6161 -6159 0
6161 6160 6159 0
-6162 5404 0
-6162 -5409 0
6162 -5404 5409 0
-6163 -6162 0
-6163 6161 0
6163 6162 -6161 0
-6164 5416 -5421 0
-6164 -5416 5421 0
6164 -5416 -5421 0
6164 5416 5421 0
-6165 6164 -6163 0
-6165 -6164 6163 0
6165 -6164 -6163 0
6165 6164 6163 0
-6166 -5421 0
-6166 -6163 0
6166 5421 6163 0
-6167 5416 0
-6167 -6163 0
6167 -5416 6163 0
-6168 -6167 0
-6168 -6166 0
6168 6167 6166 0
-6169 5416 0
-6169 -5421 0
6169 -5416 5421 0
-6170 -6169 0
-6170 6168 0
6170 6169 -6168 0
-6171 914 5733 0
-6171 -914 -5733 0
6171 -914 5733 0
6171 914 -5733 0
-6172 914 0
-6172 5733 0
6172 -914 -5733 0
-6173 917 5736 0
-6173 -917 -5736 0
6173 -917 5736 0
6173 917 -5736 0
-6174 6173 6172 0
-6174 -6173 -6172 0
6174 -6173 6172 0
6174 6173 -6172 0
-6175 5736 0
-6175 6172 0
6175 -5736 -6172 0
-6176 917 0
-6176 6172 0
6176 -917 -6172 0
-6177 -6176 0
-6177 -6175 0
6177 6176 6175 0
-6178 917 0
-6178 5736 0
6178 -917 -5736 0
-6179 -6178 0
-6179 6177 0
6179 6178 -6177 0
-6180 924 5743 0
-6180 -924 -5743 0
6180 -924 5743 0
6180 924 -5743 0
-6181 6180 -6179 0
-6181 -6180 6179 0
6181 -6180 -6179 0
6181 6180 6179 0
-6182 5743 0
-6182 -6179 0
6182 -5743 6179 0
-6183 924 0
-6183 -6179 0
6183 -924 6179 0
-6184 -6183 0
-6184 -6182 0
6184 6183 6182 0
-6185 924 0
-6185 5743 0
6185 -924 -5743 0
-6186 -6185 0
-6186 6184 0
6186 6185 -6184 0
-6187 931 5750 0
-6187 -931 -5750 0
6187 -931 5750 0
6187 931 -5750 0
-6188 6187 -6186 0
-6188 -6187 6186 0
6188 -6187 -6186 0
6188 6187 6186 0
-6189 5750 0
-6189 -6186 0
6189 -5750 6186 0
-6190 931 0
-6190 -6186 0
6190 -931 6186 0
-6191 -6190 0
-6191 -6189 0
6191 6190 6189 0
-6192 931 0
-6192 5750 0
6192 -931 -5750 0
-6193 -6192 0
-6193 6191 0
6193 6192 -6191 0
-6194 938 5757 0
-6194 -938 -5757 0
6194 -938 5757 0
6194 938 -5757 0
-6195 6194 -6193 0
-6195 -6194 6193 0
6195 -6194 -6193 0
6195 6194 6193 0
-6196 5757 0
-6196 -6193 0
6196 -5757 6193 0
-6197 938 0
-6197 -6193 0
6197 -938 6193 0
-6198 -6197 0
-6198 -6196 0
6198 6197 6196 0
-6199 938 0
-6199 5757 0
6199 -938 -5757 0
-6200 -6199 0
-6200 6198 0
6200 6199 -6198 0
-6201 945 5764 0
-6201 -945 -5764 0
6201 -945 5764 0
6201 945 -5764 0
-6202 6201 -6200 0
-6202 -6201 6200 0
6202 -6201 -6200 0
6202 6201 6200 0
-6203 5764 0
-6203 -6200 0
6203 -5764 6200 0
-6204 945 0
-6204 -6200 0
6204 -945 6200 0
-6205 -6204 0
-6205 -6203 0
6205 6204 6203 0
-6206 945 0
-6206 5764 0
6206 -945 -5764 0
-6207 -6206 0
-6207 6205 0
6207 6206 -6205 0
-6208 952 5771 0
-6208 -952 -5771 0
6208 -952 5771 0
6208 952 -5771 0
-6209 6208 -6207 0
-6209 -6208 6207 0
6209 -6208 -6207 0
6209 6208 6207 0
-6210 5771 0
-6210 -6207 0
6210 -5771 6207 0
-6211 952 0
-6211 -6207 0
6211 -952 6207 0
-6212 -6211 0
-6212 -6210 0
6212 6211 6210 0
-6213 952 0
-6213 5771 0
6213 -952 -5771 0
-6214 -6213 0
-6214 6212 0
6214 6213 -6212 0
-6215 959 5778 0
-6215 -959 -5778 0
6215 -959 5778 0
6215 959 -5778 0
-6216 6215 -6214 0
-6216 -6215 6214 0
6216 -6215 -6214 0
6216 6215 6214 0
-6217 5778 0
-6217 -6214 0
6217 -5778 6214 0
-6218 959 0
-6218 -6214 0
6218 -959 6214 0
-6219 -6218 0
-6219 -6217 0
6219 6218 6217 0
-6220 959 0
-6220 5778 0
6220 -959 -5778 0
-6221 -6220 0
-6221 6219 0
6221 6220 -6219 0
-6222 966 5785 0
-6222 -966 -5785 0
6222 -966 5785 0
6222 966 -5785 0
-6223 6222 -6221 0
-6223 -6222 6221 0
6223 -6222 -6221 0
6223 6222 6221 0
-6224 5785 0
-6224 -6221 0
6224 -5785 6221 0
-6225 966 0
-6225 -6221 0
6225 -966 6221 0
-6226 -6225 0
-6226 -6224 0
6226 6225 6224 0
-6227 966 0
-6227 5785 0
6227 -966 -5785 0
-6228 -6227 0
-6228 6226 0
6228 6227 -6226 0
-6229 973 5792 0
-6229 -973 -5792 0
6229 -973 5792 0
6229 973 -5792 0
-6230 6229 -6228 0
-6230 -6229 6228 0
6230 -6229 -6228 0
6230 6229 6228 0
-6231 5792 0
-6231 -6228 0
6231 -5792 6228 0
-6232 973 0
-6232 -6228 0
6232 -973 6228 0
-6233 -6232 0
-6233 -6231 0
6233 6232 6231 0
-6234 973 0
-6234 5792 0
6234 -973 -5792 0
-6235 -6234 0
-6235 6233 0
6235 6234 -6233 0
-6236 980 5799 0
-6236 -980 -5799 0
6236 -980 5799 0
6236 980 -5799 0
-6237 6236 -6235 0
-6237 -6236 6235 0
6237 -6236 -6235 0
6237 6236 6235 0
-6238 5799 0
-6238 -6235 0
6238 -5799 6235 0
-6239 980 0
-6239 -6235 0
6239 -980 6235 0
-6240 -6239 0
-6240 -6238 0
6240 6239 6238 0
-6241 980 0
-6241 5799 0
6241 -980 -5799 0
-6242 -6241 0
-6242 6240 0
6242 6241 -6240 0
-6243 987 5806 0
-6243 -987 -5806 0
6243 -987 5806 0
6243 987 -5806 0
-6244 6243 -6242 0
-6244 -6243 6242 0
6244 -6243 -6242 0
6244 6243 6242 0
-6245 5806 0
-6245 -6242 0
6245 -5806 6242 0
-6246 987 0
-6246 -6242 0
6246 -987 6242 0
-6247 -6246 0
-6247 -6245 0
6247 6246 6245 0
-6248 987 0
-6248 5806 0
6248 -987 -5806 0
-6249 -6248 0
-6249 6247 0
6249 6248 -6247 0
-6250 994 5813 0
-6250 -994 -5813 0
6250 -994 5813 0
6250 994 -5813 0
-6251 6250 -6249 0
-6251 -6250 6249 0
6251 -6250 -6249 0
6251 6250 6249 0
-6252 5813 0
-6252 -6249 0
6252 -5813 6249 0
-6253 994 0
-6253 -6249 0
6253 -994 6249 0
-6254 -6253 0
-6254 -6252 0
6254 6253 6252 0
-6255 994 0
-6255 5813 0
6255 -994 -5813 0
-6256 -6255 0
-6256 6254 0
6256 6255 -6254 0
-6257 1001 5820 0
-6257 -1001 -5820 0
6257 -1001 5820 0
6257 1001 -5820 0
-6258 6257 -6256 0
-6258 -6257 6256 0
6258 -6257 -6256 0
6258 6257 6256 0
-6259 5820 0
-6259 -6256 0
6259 -5820 6256 0
-6260 1001 0
-6260 -6256 0
6260 -1001 6256 0
-6261 -6260 0
-6261 -6259 0
6261 6260 6259 0
-6262 1001 0
-6262 5820 0
6262 -1001 -5820 0
-6263 -6262 0
-6263 6261 0
6263 6262 -6261 0
-6264 1008 5827 0
-6264 -1008 -5827 0
6264 -1008 5827 0
6264 1008 -5827 0
-6265 6264 -6263 0
-6265 -6264 6263 0
6265 -6264 -6263 0
6265 6264 6263 0
-6266 5827 0
-6266 -6263 0
6266 -5827 6263 0
-6267 1008 0
-6267 -6263 0
6267 -1008 6263 0
-6268 -6267 0
-6268 -6266 0
6268 6267 6266 0
-6269 1008 0
-6269 5827 0
6269 -1008 -5827 0
-6270 -6269 0
-6270 6268 0
6270 6269 -6268 0
-6271 1015 5834 0
-6271 -1015 -5834 0
6271 -1015 5834 0
6271 1015 -5834 0
-6272 6271 -6270 0
-6272 -6271 6270 0
6272 -6271 -6270 0
6272 6271 6270 0
-6273 5834 0
-6273 -6270 0
6273 -5834 6270 0
-6274 1015 0
-6274 -6270 0
6274 -1015 6270 0
-6275 -6274 0
-6275 -6273 0
6275 6274 6273 0
-6276 1015 0
-6276 5834 0
6276 -1015 -5834 0
-6277 -6276 0
-6277 6275 0
6277 6276 -6275 0
-6278 1022 5841 0
-6278 -1022 -5841 0
6278 -1022 5841 0
6278 1022 -5841 0
-6279 6278 -6277 0
-6279 -6278 6277 0
6279 -6278 -6277 0
6279 6278 6277 0
-6280 5841 0
-6280 -6277 0
6280 -5841 6277 0
-6281 1022 0
-6281 -6277 0
6281 -1022 6277 0
-6282 -6281 0
-6282 -6280 0
6282 6281 6280 0
-6283 1022 0
-6283 5841 0
6283 -1022 -5841 0
-6284 -6283 0
-6284 6282 0
6284 6283 -6282 0
-6285 1029 5848 0
-6285 -1029 -5848 0
6285 -1029 5848 0
6285 1029 -5848 0
-6286 6285 -6284 0
-6286 -6285 6284 0
6286 -6285 -6284 0
6286 6285 6284 0
-6287 5848 0
-6287 -6284 0
6287 -5848 6284 0
-6288 1029 0
-6288 -6284 0
6288 -1029 6284 0
-6289 -6288 0
-6289 -6287 0
6289 6288 6287 0
-6290 1029 0
-6290 5848 0
6290 -1029 -5848 0
-6291 -6290 0
-6291 6289 0
6291 6290 -6289 0
-6292 1036 5855 0
-6292 -1036 -5855 0
6292 -1036 5855 0
6292 1036 -5855 0
-6293 6292 -6291 0
-6293 -6292 6291 0
6293 -6292 -6291 0
6293 6292 6291 0
-6294 5855 0
-6294 -6291 0
6294 -5855 6291 0
-6295 1036 0
-6295 -6291 0
6295 -1036 6291 0
-6296 -6295 0
-6296 -6294 0
6296 6295 6294 0
-6297 1036 0
-6297 5855 0
6297 -1036 -5855 0
-6298 -6297 0
-6298 6296 0
6298 6297 -6296 0
-6299 1043 5862 0
-6299 -1043 -5862 0
6299 -1043 5862 0
6299 1043 -5862 0
-6300 6299 -6298 0
-6300 -6299 6298 0
6300 -6299 -6298 0
6300 6299 6298 0
-6301 5862 0
-6301 -6298 0
6301 -5862 6298 0
-6302 1043 0
-6302 -6298 0
6302 -1043 6298 0
-6303 -6302 0
-6303 -6301 0
6303 6302 6301 0
-6304 1043 0
-6304 5862 0
6304 -1043 -5862 0
-6305 -6304 0
-6305 6303 0
6305 6304 -6303 0
-6306 1050 5869 0
-6306 -1050 -5869 0
6306 -1050 5869 0
6306 1050 -5869 0
-6307 6306 -6305 0
-6307 -6306 6305 0
6307 -6306 -6305 0
6307 6306 6305 0
-6308 5869 0
-6308 -6305 0
6308 -5869 6305 0
-6309 1050 0
-6309 -6305 0
6309 -1050 6305 0
-6310 -6309 0
-6310 -6308 0
6310 6309 6308 0
-6311 1050 0
-6311 5869 0
6311 -1050 -5869 0
-6312 -6311 0
-6312 6310 0
6312 6311 -6310 0
-6313 1057 5876 0
-6313 -1057 -5876 0
6313 -1057 5876 0
6313 1057 -5876 0
-6314 6313 -6312 0
-6314 -6313 6312 0
6314 -6313 -6312 0
6314 6313 6312 0
-6315 5876 0
-6315 -6312 0
6315 -5876 6312 0
-6316 1057 0
-6316 -6312 0
6316 -1057 6312 0
-6317 -6316 0
-6317 -6315 0
6317 6316 6315 0
-6318 1057 0
-6318 5876 0
6318 -1057 -5876 0
-6319 -6318 0
-6319 6317 0
6319 6318 -6317 0
-6320 1064 5883 0
-6320 -1064 -5883 0
6320 -1064 5883 0
6320 1064 -5883 0
-6321 6320 -6319 0
-6321 -6320 6319 0
6321 -6320 -6319 0
6321 6320 6319 0
-6322 5883 0
-6322 -6319 0
6322 -5883 6319 0
-6323 1064 0
-6323 -6319 0
6323 -1064 6319 0
-6324 -6323 0
-6324 -6322 0
6324 6323 6322 0
-6325 1064 0
-6325 5883 0
6325 -1064 -5883 0
-6326 -6325 0
-6326 6324 0
6326 6325 -6324 0
-6327 1071 5890 0
-6327 -1071 -5890 0
6327 -1071 5890 0
6327 1071 -5890 0
-6328 6327 -6326 0
-6328 -6327 6326 0
6328 -6327 -6326 0
6328 6327 6326 0
-6329 5890 0
-6329 -6326 0
6329 -5890 6326 0
-6330 1071 0
-6330 -6326 0
6330 -1071 6326 0
-6331 -6330 0
-6331 -6329 0
6331 6330 6329 0
-6332 1071 0
-6332 5890 0
6332 -1071 -5890 0
-6333 -6332 0
-6333 6331 0
6333 6332 -6331 0
-6334 1078 5897 0
-6334 -1078 -5897 0
6334 -1078 5897 0
6334 1078 -5897 0
-6335 6334 -6333 0
-6335 -6334 6333 0
6335 -6334 -6333 0
6335 6334 6333 0
-6336 5897 0
-6336 -6333 0
6336 -5897 6333 0
-6337 1078 0
-6337 -6333 0
6337 -1078 6333 0
-6338 -6337 0
-6338 -6336 0
6338 6337 6336 0
-6339 1078 0
-6339 5897 0
6339 -1078 -5897 0
-6340 -6339 0
-6340 6338 0
6340 6339 -6338 0
-6341 1085 5904 0
-6341 -1085 -5904 0
6341 -1085 5904 0
6341 1085 -5904 0
-6342 6341 -6340 0
-6342 -6341 6340 0
6342 -6341 -6340 0
6342 6341 6340 0
-6343 5904 0
-6343 -6340 0
6343 -5904 6340 0
-6344 1085 0
-6344 -6340 0
6344 -1085 6340 0
-6345 -6344 0
-6345 -6343 0
6345 6344 6343 0
-6346 1085 0
-6346 5904 0
6346 -1085 -5904 0
-6347 -6346 0
-6347 6345 0
6347 6346 -6345 0
-6348 1092 5911 0
-6348 -1092 -5911 0
6348 -1092 5911 0
6348 1092 -5911 0
-6349 6348 -6347 0
-6349 -6348 6347 0
6349 -6348 -6347 0
6349 6348 6347 0
-6350 5911 0
-6350 -6347 0
6350 -5911 6347 0
-6351 1092 0
-6351 -6347 0
6351 -1092 6347 0
-6352 -6351 0
-6352 -6350 0
6352 6351 6350 0
-6353 1092 0
-6353 5911 0
6353 -1092 -5911 0
-6354 -6353 0
-6354 6352 0
6354 6353 -6352 0
-6355 1099 5918 0
-6355 -1099 -5918 0
6355 -1099 5918 0
6355 1099 -5918 0
-6356 6355 -6354 0
-6356 -6355 6354 0
6356 -6355 -6354 0
6356 6355 6354 0
-6357 5918 0
-6357 -6354 0
6357 -5918 6354 0
-6358 1099 0
-6358 -6354 0
6358 -1099 6354 0
-6359 -6358 0
-6359 -6357 0
6359 6358 6357 0
-6360 1099 0
-6360 5918 0
6360 -1099 -5918 0
-6361 -6360 0
-6361 6359 0
6361 6360 -6359 0
-6362 1106 5925 0
-6362 -1106 -5925 0
6362 -1106 5925 0
6362 1106 -5925 0
-6363 6362 -6361 0
-6363 -6362 6361 0
6363 -6362 -6361 0
6363 6362 6361 0
-6364 5925 0
-6364 -6361 0
6364 -5925 6361 0
-6365 1106 0
-6365 -6361 0
6365 -1106 6361 0
-6366 -6365 0
-6366 -6364 0
6366 6365 6364 0
-6367 1106 0
-6367 5925 0
6367 -1106 -5925 0
-6368 -6367 0
-6368 6366 0
6368 6367 -6366 0
-6369 1113 5932 0
-6369 -1113 -5932 0
6369 -1113 5932 0
6369 1113 -5932 0
-6370 6369 -6368 0
-6370 -6369 6368 0
6370 -6369 -6368 0
6370 6369 6368 0
-6371 5932 0
-6371 -6368 0
6371 -5932 6368 0
-6372 1113 0
-6372 -6368 0
6372 -1113 6368 0
-6373 -6372 0
-6373 -6371 0
6373 6372 6371 0
-6374 1113 0
-6374 5932 0
6374 -1113 -5932 0
-6375 -6374 0
-6375 6373 0
6375 6374 -6373 0
-6376 1120 5939 0
-6376 -1120 -5939 0
6376 -1120 5939 0
6376 1120 -5939 0
-6377 6376 -6375 0
-6377 -6376 6375 0
6377 -6376 -6375 0
6377 6376 6375 0
-6378 5939 0
-6378 -6375 0
6378 -5939 6375 0
-6379 1120 0
-6379 -6375 0
6379 -1120 6375 0
-6380 -6379 0
-6380 -6378 0
6380 6379 6378 0
-6381 1120 0
-6381 5939 0
6381 -1120 -5939 0
-6382 -6381 0
-6382 6380 0
6382 6381 -6380 0
-6383 1127 5946 0
-6383 -1127 -5946 0
6383 -1127 5946 0
6383 1127 -5946 0
-6384 6383 -6382 0
-6384 -6383 6382 0
6384 -6383 -6382 0
6384 6383 6382 0
-6385 5946 0
-6385 -6382 0
6385 -5946 6382 0
-6386 1127 0
-6386 -6382 0
6386 -1127 6382 0
-6387 -6386 0
-6387 -6385 0
6387 6386 6385 0
-6388 1127 0
-6388 5946 0
6388 -1127 -5946 0
-6389 -6388 0
-6389 6387 0
6389 6388 -6387 0
-6390 5733 5952 0
-6390 -5733 -5952 0
6390 -5733 5952 0
6390 5733 -5952 0
-6391 5733 0
-6391 5952 0
6391 -5733 -5952 0
-6392 5736 5955 0
-6392 -5736 -5955 0
6392 -5736 5955 0
6392 5736 -5955 0
-6393 6392 6391 0
-6393 -6392 -6391 0
6393 -6392 6391 0
6393 6392 -6391 0
-6394 5955 0
-6394 6391 0
6394 -5955 -6391 0
-6395 5736 0
-6395 6391 0
6395 -5736 -6391 0
-6396 -6395 0
-6396 -6394 0
6396 6395 6394 0
-6397 5736 0
-6397 5955 0
6397 -5736 -5955 0
-6398 -6397 0
-6398 6396 0
6398 6397 -6396 0
-6399 5743 5962 0
-6399 -5743 -5962 0
6399 -5743 5962 0
6399 5743 -5962 0
-6400 6399 -6398 0
-6400 -6399 6398 0
6400 -6399 -6398 0
6400 6399 6398 0
-6401 5962 0
-6401 -6398 0
6401 -5962 6398 0
-6402 5743 0
-6402 -6398 0
6402 -5743 6398 0
-6403 -6402 0
-6403 -6401 0
6403 6402 6401 0
-6404 5743 0
-6404 5962 0
6404 -5743 -5962 0
-6405 -6404 0
-6405 6403 0
6405 6404 -6403 0
-6406 5750 5969 0
-6406 -5750 -5969 0
6406 -5750 5969 0
6406 5750 -5969 0
-6407 6406 -6405 0
-6407 -6406 6405 0
6407 -6406 -6405 0
6407 6406 6405 0
-6408 5969 0
-6408 -6405 0
6408 -5969 6405 0
-6409 5750 0
-6409 -6405 0
6409 -5750 6405 0
-6410 -6409 0
-6410 -6408 0
6410 6409 6408 0
-6411 5750 0
-6411 5969 0
6411 -5750 -5969 0
-6412 -6411 0
-6412 6410 0
6412 6411 -6410 0
-6413 5757 5976 0
-6413 -5757 -5976 0
6413 -5757 5976 0
6413 5757 -5976 0
-6414 6413 -6412 0
-6414 -6413 6412 0
6414 -6413 -6412 0
6414 6413 6412 0
-6415 5976 0
-6415 -6412 0
6415 -5976 6412 0
-6416 5757 0
-6416 -6412 0
6416 -5757 6412 0
-6417 -6416 0
-6417 -6415 0
6417 6416 6415 0
-6418 5757 0
-6418 5976 0
6418 -5757 -5976 0
-6419 -6418 0
-6419 6417 0
6419 6418 -6417 0
-6420 5764 5983 0
-6420 -5764 -5983 0
6420 -5764 5983 0
6420 5764 -5983 0
-6421 6420 -6419 0
-6421 -6420 6419 0
6421 -6420 -6419 0
6421 6420 6419 0
-6422 5983 0
-6422 -6419 0
6422 -5983 6419 0
-6423 5764 0
-6423 -6419 0
6423 -5764 6419 0
-6424 -6423 0
-6424 -6422 0
6424 6423 6422 0
-6425 5764 0
-6425 5983 0
6425 -5764 -5983 0
-6426 -6425 0
-6426 6424 0
6426 6425 -6424 0
-6427 5771 5990 0
-6427 -5771 -5990 0
6427 -5771 5990 0
6427 5771 -5990 0
-6428 6427 -6426 0
-6428 -6427 6426 0
6428 -6427 -6426 0
6428 6427 6426 0
-6429 5990 0
-6429 -6426 0
6429 -5990 6426 0
-6430 5771 0
-6430 -6426 0
6430 -5771 6426 0
-6431 -6430 0
-6431 -6429 0
6431 6430 6429 0
-6432 5771 0
-6432 5990 0
6432 -5771 -5990 0
-6433 -6432 0
-6433 6431 0
6433 6432 -6431 0
-6434 5778 5997 0
-6434 -5778 -5997 0
6434 -5778 5997 0
6434 5778 -5997 0
-6435 6434 -6433 0
-6435 -6434 6433 0
6435 -6434 -6433 0
6435 6434 6433 0
-6436 5997 0
-6436 -6433 0
6436 -5997 6433 0
-6437 5778 0
-6437 -6433 0
6437 -5778 6433 0
-6438 -6437 0
-6438 -6436 0
6438 6437 6436 0
-6439 5778 0
-6439 5997 0
6439 -5778 -5997 0
-6440 -6439 0
-6440 6438 0
6440 6439 -6438 0
-6441 5785 6004 0
-6441 -5785 -6004 0
6441 -5785 6004 0
6441 5785 -6004 0
-6442 6441 -6440 0
-6442 -6441 6440 0
6442 -6441 -6440 0
6442 6441 6440 0
-6443 6004 0
-6443 -6440 0
6443 -6004 6440 0
-6444 5785 0
-6444 -6440 0
6444 -5785 6440 0
-6445 -6444 0
-6445 -6443 0
6445 6444 6443 0
-6446 5785 0
-6446 6004 0
6446 -5785 -6004 0
-6447 -6446 0
-6447 6445 0
6447 6446 -6445 0
-6448 5792 6011 0
-6448 -5792 -6011 0
6448 -5792 6011 0
6448 5792 -6011 0
-6449 6448 -6447 0
-6449 -6448 6447 0
6449 -6448 -6447 0
6449 6448 6447 0
-6450 6011 0
-6450 -6447 0
6450 -6011 6447 0
-6451 5792 0
-6451 -6447 0
6451 -5792 6447 0
-6452 -6451 0
-6452 -6450 0
6452 6451 6450 0
-6453 5792 0
-6453 6011 0
6453 -5792 -6011 0
-6454 -6453 0
-6454 6452 0
6454 6453 -6452 0
-6455 5799 6018 0
-6455 -5799 -6018 0
6455 -5799 6018 0
6455 5799 -6018 0
-6456 6455 -6454 0
-6456 -6455 6454 0
6456 -6455 -6454 0
6456 6455 6454 0
-6457 6018 0
-6457 -6454 0
6457 -6018 6454 0
-6458 5799 0
-6458 -6454 0
6458 -5799 6454 0
-6459 -6458 0
-6459 -6457 0
6459 6458 6457 0
-6460 5799 0
-6460 6018 0
6460 -5799 -6018 0
-6461 -6460 0
-6461 6459 0
6461 6460 -6459 0
-6462 5806 6025 0
-6462 -5806 -6025 0
6462 -5806 6025 0
6462 5806 -6025 0
-6463 6462 -6461 0
-6463 -6462 6461 0
6463 -6462 -6461 0
6463 6462 6461 0
-6464 6025 0
-6464 -6461 0
6464 -6025 6461 0
-6465 5806 0
-6465 -6461 0
6465 -5806 6461 0
-6466 -6465 0
-6466 -6464 0
6466 6465 6464 0
-6467 5806 0
-6467 6025 0
6467 -5806 -6025 0
-6468 -6467 0
-6468 6466 0
6468 6467 -6466 0
-6469 5813 6032 0
-6469 -5813 -6032 0
6469 -5813 6032 0
6469 5813 -6032 0
-6470 6469 -6468 0
-6470 -6469 6468 0
6470 -6469 -6468 0
6470 6469 6468 0
-6471 6032 0
-6471 -6468 0
6471 -6032 6468 0
-6472 5813 0
-6472 -6468 0
6472 -5813 6468 0
-6473 -6472 0
-6473 -6471 0
6473 6472 6471 0
-6474 5813 0
-6474 6032 0
6474 -5813 -6032 0
-6475 -6474 0
-6475 6473 0
6475 6474 -6473 0
-6476 5820 6039 0
-6476 -5820 -6039 0
6476 -5820 6039 0
6476 5820 -6039 0
-6477 6476 -6475 0
-6477 -6476 6475 0
6477 -6476 -6475 0
6477 6476 6475 0
-6478 6039 0
-6478 -6475 0
6478 -6039 6475 0
-6479 5820 0
-6479 -6475 0
6479 -5820 6475 0
-6480 -6479 0
-6480 -6478 0
6480 6479 6478 0
-6481 5820 0
-6481 6039 0
6481 -5820 -6039 0
-6482 -6481 0
-6482 6480 0
6482 6481 -6480 0
-6483 5827 6046 0
-6483 -5827 -6046 0
6483 -5827 6046 0
6483 5827 -6046 0
-6484 6483 -6482 0
-6484 -6483 6482 0
6484 -6483 -6482 0
6484 6483 6482 0
-6485 6046 0
-6485 -6482 0
6485 -6046 6482 0
-6486 5827 0
-6486 -6482 0
6486 -5827 6482 0
-6487 -6486 0
-6487 -6485 0
6487 6486 6485 0
-6488 5827 0
-6488 6046 0
6488 -5827 -6046 0
-6489 -6488 0
-6489 6487 0
6489 6488 -6487 0
-6490 5834 6053 0
-6490 -5834 -6053 0
6490 -5834 6053 0
6490 5834 -6053 0
-6491 6490 -6489 0
-6491 -6490 6489 0
6491 -6490 -6489 0
6491 6490 6489 0
-6492 6053 0
-6492 -6489 0
6492 -6053 6489 0
-6493 5834 0
-6493 -6489 0
6493 -5834 6489 0
-6494 -6493 0
-6494 -6492 0
6494 6493 6492 0
-6495 5834 0
-6495 6053 0
6495 -5834 -6053 0
-6496 -6495 0
-6496 6494 0
6496 6495 -6494 0
-6497 5841 6060 0
-6497 -5841 -6060 0
6497 -5841 6060 0
6497 5841 -6060 0
-6498 6497 -6496 0
-6498 -6497 6496 0
6498 -6497 -6496 0
6498 6497 6496 0
-6499 6060 0
-6499 -6496 0
6499 -6060 6496 0
-6500 5841 0
-6500 -6496 0
6500 -5841 6496 0
-6501 -6500 0
-6501 -6499 0
6501 6500 6499 0
-6502 5841 0
-6502 6060 0
6502 -5841 -6060 0
-6503 -6502 0
-6503 6501 0
6503 6502 -6501 0
-6504 5848 6067 0
-6504 -5848 -6067 0
6504 -5848 6067 0
6504 5848 -6067 0
-6505 6504 -6503 0
-6505 -6504 6503 0
6505 -6504 -6503 0
6505 6504 6503 0
-6506 6067 0
-6506 -6503 0
6506 -6067 6503 0
-6507 5848 0
-6507 -6503 0
6507 -5848 6503 0
-6508 -6507 0
-6508 -6506 0
6508 6507 6506 0
-6509 5848 0
-6509 6067 0
6509 -5848 -6067 0
-6510 -6509 0
-6510 6508 0
6510 6509 -6508 0
-6511 5855 6074 0
-6511 -5855 -6074 0
6511 -5855 6074 0
6511 5855 -6074 0
-6512 6511 -6510 0
-6512 -6511 6510 0
6512 -6511 -6510 0
6512 6511 6510 0
-6513 6074 0
-6513 -6510 0
6513 -6074 6510 0
-6514 5855 0
-6514 -6510 0
6514 -5855 6510 0
-6515 -6514 0
-6515 -6513 0
6515 6514 6513 0
-6516 5855 0
-6516 6074 0
6516 -5855 -6074 0
-6517 -6516 0
-6517 6515 0
6517 6516 -6515 0
-6518 5862 6081 0
-6518 -5862 -6081 0
6518 -5862 6081 0
6518 5862 -6081 0
-6519 6518 -6517 0
-6519 -6518 6517 0
6519 -6518 -6517 0
6519 6518 6517 0
-6520 6081 0
-6520 -6517 0
6520 -6081 6517 0
-6521 5862 0
-6521 -6517 0
6521 -5862 6517 0
-6522 -6521 0
-6522 -6520 0
6522 6521 6520 0
-6523 5862 0
-6523 6081 0
6523 -5862 -6081 0
-6524 -6523 0
-6524 6522 0
6524 6523 -6522 0
-6525 5869 6088 0
-6525 -5869 -6088 0
6525 -5869 6088 0
6525 5869 -6088 0
-6526 6525 -6524 0
-6526 -6525 6524 0
6526 -6525 -6524 0
6526 6525 6524 0
-6527 6088 0
-6527 -6524 0
6527 -6088 6524 0
-6528 5869 0
-6528 -6524 0
6528 -5869 6524 0
-6529 -6528 0
-6529 -6527 0
6529 6528 6527 0
-6530 5869 0
-6530 6088 0
6530 -5869 -6088 0
-6531 -6530 0
-6531 6529 0
6531 6530 -6529 0
-6532 5876 6095 0
-6532 -5876 -6095 0
6532 -5876 6095 0
6532 5876 -6095 0
-6533 6532 -6531 0
-6533 -6532 6531 0
6533 -6532 -6531 0
6533 6532 6531 0
-6534 6095 0
-6534 -6531 0
6534 -6095 6531 0
-6535 5876 0
-6535 -6531 0
6535 -5876 6531 0
-6536 -6535 0
-6536 -6534 0
6536 6535 6534 0
-6537 5876 0
-6537 6095 0
6537 -5876 -6095 0
-6538 -6537 0
-6538 6536 0
6538 6537 -6536 0
-6539 5883 6102 0
-6539 -5883 -6102 0
6539 -5883 6102 0
6539 5883 -6102 0
-6540 6539 -6538 0
-6540 -6539 6538 0
6540 -6539 -6538 0
6540 6539 6538 0
-6541 6102 0
-6541 -6538 0
6541 -6102 6538 0
-6542 5883 0
-6542 -6538 0
6542 -5883 6538 0
-6543 -6542 0
-6543 -6541 0
6543 6542 6541 0
-6544 5883 0
-6544 6102 0
6544 -5883 -6102 0
-6545 -6544 0
-6545 6543 0
6545 6544 -6543 0
-6546 5890 6109 0
-6546 -5890 -6109 0
6546 -5890 6109 0
6546 5890 -6109 0
-6547 6546 -6545 0
-6547 -6546 6545 0
6547 -6546 -6545 0
6547 6546 6545 0
-6548 6109 0
-6548 -6545 0
6548 -6109 6545 0
-6549 5890 0
-6549 -6545 0
6549 -5890 6545 0
-6550 -6549 0
-6550 -6548 0
6550 6549 6548 0
-6551 5890 0
-6551 6109 0
6551 -5890 -6109 0
-6552 -6551 0
-6552 6550 0
6552 6551 -6550 0
-6553 5897 6116 0
-6553 -5897 -6116 0
6553 -5897 6116 0
6553 5897 -6116 0
-6554 6553 -6552 0
-6554 -6553 6552 0
6554 -6553 -6552 0
6554 6553 6552 0
-6555 6116 0
-6555 -6552 0
6555 -6116 6552 0
-6556 5897 0
-6556 -6552 0
6556 -5897 6552 0
-6557 -6556 0
-6557 -6555 0
6557 6556 6555 0
-6558 5897 0
-6558 6116 0
6558 -5897 -6116 0
-6559 -6558 0
-6559 6557 0
6559 6558 -6557 0
-6560 5904 6123 0
-6560 -5904 -6123 0
6560 -5904 6123 0
6560 5904 -6123 0
-6561 6560 -6559 0
-6561 -6560 6559 0
6561 -6560 -6559 0
6561 6560 6559 0
-6562 6123 0
-6562 -6559 0
6562 -6123 6559 0
-6563 5904 0
-6563 -6559 0
6563 -5904 6559 0
-6564 -6563 0
-6564 -6562 0
6564 6563 6562 0
-6565 5904 0
-6565 6123 0
6565 -5904 -6123 0
-6566 -6565 0
-6566 6564 0
6566 6565 -6564 0
-6567 5911 6130 0
-6567 -5911 -6130 0
6567 -5911 6130 0
6567 5911 -6130 0
-6568 6567 -6566 0
-6568 -6567 6566 0
6568 -6567 -6566 0
6568 6567 6566 0
-6569 6130 0
-6569 -6566 0
6569 -6130 6566 0
-6570 5911 0
-6570 -6566 0
6570 -5911 6566 0
-6571 -6570 0
-6571 -6569 0
6571 6570 6569 0
-6572 5911 0
-6572 6130 0
6572 -5911 -6130 0
-6573 -6572 0
-6573 6571 0
6573 6572 -6571 0
-6574 5918 6137 0
-6574 -5918 -6137 0
6574 -5918 6137 0
6574 5918 -6137 0
-6575 6574 -6573 0
-6575 -6574 6573 0
6575 -6574 -6573 0
6575 6574 6573 0
-6576 6137 0
-6576 -6573 0
6576 -6137 6573 0
-6577 5918 0
-6577 -6573 0
6577 -5918 6573 0
-6578 -6577 0
-6578 -6576 0
6578 6577 6576 0
-6579 5918 0
-6579 6137 0
6579 -5918 -6137 0
-6580 -6579 0
-6580 6578 0
6580 6579 -6578 0
-6581 5925 6144 0
-6581 -5925 -6144 0
6581 -5925 6144 0
6581 5925 -6144 0
-6582 6581 -6580 0
-6582 -6581 6580 0
6582 -6581 -6580 0
6582 6581 6580 0
-6583 6144 0
-6583 -6580 0
6583 -6144 6580 0
-6584 5925 0
-6584 -6580 0
6584 -5925 6580 0
-6585 -6584 0
-6585 -6583 0
6585 6584 6583 0
-6586 5925 0
-6586 6144 0
6586 -5925 -6144 0
-6587 -6586 0
-6587 6585 0
6587 6586 -6585 0
-6588 5932 6151 0
-6588 -5932 -6151 0
6588 -5932 6151 0
6588 5932 -6151 0
-6589 6588 -6587 0
-6589 -6588 6587 0
6589 -6588 -6587 0
6589 6588 6587 0
-6590 6151 0
-6590 -6587 0
6590 -6151 6587 0
-6591 5932 0
-6591 -6587 0
6591 -5932 6587 0
-6592 -6591 0
-6592 -6590 0
6592 6591 6590 0
-6593 5932 0
-6593 6151 0
6593 -5932 -6151 0
-6594 -6593 0
-6594 6592 0
6594 6593 -6592 0
-6595 5939 6158 0
-6595 -5939 -6158 0
6595 -5939 6158 0
6595 5939 -6158 0
-6596 6595 -6594 0
-6596 -6595 6594 0
6596 -6595 -6594 0
6596 6595 6594 0
-6597 6158 0
-6597 -6594 0
6597 -6158 6594 0
-6598 5939 0
-6598 -6594 0
6598 -5939 6594 0
-6599 -6598 0
-6599 -6597 0
6599 6598 6597 0
-6600 5939 0
-6600 6158 0
6600 -5939 -6158 0
-6601 -6600 0
-6601 6599 0
6601 6600 -6599 0
-6602 5946 6165 0
-6602 -5946 -6165 0
6602 -5946 6165 0
6602 5946 -6165 0
-6603 6602 -6601 0
-6603 -6602 6601 0
6603 -6602 -6601 0
6603 6602 6601 0
-6604 6165 0
-6604 -6601 0
6604 -6165 6601 0
-6605 5946 0
-6605 -6601 0
6605 -5946 6601 0
-6606 -6605 0
-6606 -6604 0
6606 6605 6604 0
-6607 5946 0
-6607 6165 0
6607 -5946 -6165 0
-6608 -6607 0
-6608 6606 0
6608 6607 -6606 0
-6609 6209 6244 0
-6609 -6209 -6244 0
6609 -6209 6244 0
6609 6209 -6244 0
-6610 6609 6342 0
-6610 -6609 -6342 0
6610 -6609 6342 0
6610 6609 -6342 0
-6611 -6171 0
-6611 -2784 0
6611 6171 2784 0
-6612 6171 0
-6612 -4191 0
6612 -6171 4191 0
-6613 6612 6611 0
-6613 -6612 -6611 0
6613 -6612 6611 0
6613 6612 -6611 0
-6614 6400 6477 0
-6614 -6400 -6477 0
6614 -6400 6477 0
6614 6400 -6477 0
-6615 6614 6540 0
-6615 -6614 -6540 0
6615 -6614 6540 0
6615 6614 -6540 0
-6616 4819 0
-6616 3314 0
6616 -4819 -3314 0
-6617 6390 0
-6617 3314 0
6617 -6390 -3314 0
-6618 -6617 0
-6618 -6616 0
6618 6617 6616 0
-6619 6390 0
-6619 4819 0
6619 -6390 -4819 0
-6620 -6619 0
-6620 6618 0
6620 6619 -6618 0
-6621 6216 6251 0
-6621 -6216 -6251 0
6621 -6216 6251 0
6621 6216 -6251 0
-6622 6621 6349 0
-6622 -6621 -6349 0
6622 -6621 6349 0
6622 6621 -6349 0
-6623 -6174 0
-6623 3222 0
6623 6174 -3222 0
-6624 6174 0
-6624 4629 0
6624 -6174 -4629 0
-6625 6624 6623 0
-6625 -6624 -6623 0
6625 -6624 6623 0
6625 6624 -6623 0
-6626 6407 6484 0
-6626 -6407 -6484 0
6626 -6407 6484 0
6626 6407 -6484 0
-6627 6626 6547 0
-6627 -6626 -6547 0
6627 -6626 6547 0
6627 6626 -6547 0
-6628 4822 0
-6628 3317 0
6628 -4822 -3317 0
-6629 6393 0
-6629 3317 0
6629 -6393 -3317 0
-6630 -6629 0
-6630 -6628 0
6630 6629 6628 0
-6631 6393 0
-6631 4822 0
6631 -6393 -4822 0
-6632 -6631 0
-6632 6630 0
6632 6631 -6630 0
-6633 6223 6258 0
-6633 -6223 -6258 0
6633 -6223 6258 0
6633 6223 -6258 0
-6634 6633 6356 0
-6634 -6633 -6356 0
6634 -6633 6356 0
6634 6633 -6356 0
-6635 -6181 0
-6635 3226 0
6635 6181 -3226 0
-6636 6181 0
-6636 4631 0
6636 -6181 -4631 0
-6637 6636 6635 0
-6637 -6636 -6635 0
6637 -6636 6635 0
6637 6636 -6635 0
-6638 6414 6491 0
-6638 -6414 -6491 0
6638 -6414 6491 0
6638 6414 -6491 0
-6639 6638 6554 0
-6639 -6638 -6554 0
6639 -6638 6554 0
6639 6638 -6554 0
-6640 4829 0
-6640 3324 0
6640 -4829 -3324 0
-6641 6400 0
-6641 3324 0
6641 -6400 -3324 0
-6642 -6641 0
-6642 -6640 0
6642 6641 6640 0
-6643 6400 0
-6643 4829 0
6643 -6400 -4829 0
-6644 -6643 0
-6644 6642 0
6644 6643 -6642 0
-6645 6230 6265 0
-6645 -6230 -6265 0
6645 -6230 6265 0
6645 6230 -6265 0
-6646 6645 6363 0
-6646 -6645 -6363 0
6646 -6645 6363 0
6646 6645 -6363 0
-6647 -6188 0
-6647 3230 0
6647 6188 -3230 0
-6648 6188 0
-6648 4635 0
6648 -6188 -4635 0
-6649 6648 6647 0
-6649 -6648 -6647 0
6649 -6648 6647 0
6649 6648 -6647 0
-6650 6421 6498 0
-6650 -6421 -6498 0
6650 -6421 6498 0
6650 6421 -6498 0
-6651 6650 6561 0
-6651 -6650 -6561 0
6651 -6650 6561 0
6651 6650 -6561 0
-6652 4836 0
-6652 3331 0
6652 -4836 -3331 0
-6653 6407 0
-6653 3331 0
6653 -6407 -3331 0
-6654 -6653 0
-6654 -6652 0
6654 6653 6652 0
-6655 6407 0
-6655 4836 0
6655 -6407 -4836 0
-6656 -6655 0
-6656 6654 0
6656 6655 -6654 0
-6657 6237 6272 0
-6657 -6237 -6272 0
6657 -6237 6272 0
6657 6237 -6272 0
-6658 6657 6370 0
-6658 -6657 -6370 0
6658 -6657 6370 0
6658 6657 -6370 0
-6659 -6195 0
-6659 3232 0
6659 6195 -3232 0
-6660 6195 0
-6660 4639 0
6660 -6195 -4639 0
-6661 6660 6659 0
-6661 -6660 -6659 0
6661 -6660 6659 0
6661 6660 -6659 0
-6662 6428 6505 0
-6662 -6428 -6505 0
6662 -6428 6505 0
6662 6428 -6505 0
-6663 6662 6568 0
-6663 -6662 -6568 0
6663 -6662 6568 0
6663 6662 -6568 0
-6664 4843 0
-6664 3338 0
6664 -4843 -3338 0
-6665 6414 0
-6665 3338 0
6665 -6414 -3338 0
-6666 -6665 0
-6666 -6664 0
6666 6665 6664 0
-6667 6414 0
-6667 4843 0
6667 -6414 -4843 0
-6668 -6667 0
-6668 6666 0
6668 6667 -6666 0
-6669 6244 6279 0
-6669 -6244 -6279 0
6669 -6244 6279 0
6669 6244 -6279 0
-6670 6669 6377 0
-6670 -6669 -6377 0
6670 -6669 6377 0
6670 6669 -6377 0
-6671 -6202 0
-6671 3234 0
6671 6202 -3234 0
-6672 6202 0
-6672 4641 0
6672 -6202 -4641 0
-6673 6672 6671 0
-6673 -6672 -6671 0
6673 -6672 6671 0
6673 6672 -6671 0
-6674 6435 6512 0
-6674 -6435 -6512 0
6674 -6435 6512 0
6674 6435 -6512 0
-6675 6674 6575 0
-6675 -6674 -6575 0
6675 -6674 6575 0
6675 6674 -6575 0
-6676 4850 0
-6676 3345 0
6676 -4850 -3345 0
-6677 6421 0
-6677 3345 0
6677 -6421 -3345 0
-6678 -6677 0
-6678 -6676 0
6678 6677 6676 0
-6679 6421 0
-6679 4850 0
6679 -6421 -4850 0
-6680 -6679 0
-6680 6678 0
6680 6679 -6678 0
-6681 6251 6286 0
-6681 -6251 -6286 0
6681 -6251 6286 0
6681 6251 -6286 0
-6682 6681 6384 0
-6682 -6681 -6384 0
6682 -6681 6384 0
6682 6681 -6384 0
-6683 -6209 0
-6683 3238 0
6683 6209 -3238 0
-6684 6209 0
-6684 4643 0
6684 -6209 -4643 0
-6685 6684 6683 0
-6685 -6684 -6683 0
6685 -6684 6683 0
6685 6684 -6683 0
-6686 6442 6519 0
-6686 -6442 -6519 0
6686 -6442 6519 0
6686 6442 -6519 0
-6687 6686 6582 0
-6687 -6686 -6582 0
6687 -6686 6582 0
6687 6686 -6582 0
-6688 4857 0
-6688 3352 0
6688 -4857 -3352 0
-6689 6428 0
-6689 3352 0
6689 -6428 -3352 0
-6690 -6689 0
-6690 -6688 0
6690 6689 6688 0
-6691 6428 0
-6691 4857 0
6691 -6428 -4857 0
-6692 -6691 0
-6692 6690 0
6692 6691 -6690 0
-6693 6258 6293 0
-6693 -6258 -6293 0
6693 -6258 6293 0
6693 6258 -6293 0
-6694 6693 6171 0
-6694 -6693 -6171 0
6694 -6693 6171 0
6694 6693 -6171 0
-6695 -6216 0
-6695 3242 0
6695 6216 -3242 0
-6696 6216 0
-6696 4647 0
6696 -6216 -4647 0
-6697 6696 6695 0
-6697 -6696 -6695 0
6697 -6696 6695 0
6697 6696 -6695 0
-6698 6449 6526 0
-6698 -6449 -6526 0
6698 -6449 6526 0
6698 6449 -6526 0
-6699 6698 6589 0
-6699 -6698 -6589 0
6699 -6698 6589 0
6699 6698 -6589 0
-6700 4864 0
-6700 3359 0
6700 -4864 -3359 0
-6701 6435 0
-6701 3359 0
6701 -6435 -3359 0
-6702 -6701 0
-6702 -6700 0
6702 6701 6700 0
-6703 6435 0
-6703 4864 0
6703 -6435 -4864 0
-6704 -6703 0
-6704 6702 0
6704 6703 -6702 0
-6705 6265 6300 0
-6705 -6265 -6300 0
6705 -6265 6300 0
6705 6265 -6300 0
-6706 6705 6174 0
-6706 -6705 -6174 0
6706 -6705 6174 0
6706 6705 -6174 0
-6707 -6223 0
-6707 3244 0
6707 6223 -3244 0
-6708 6223 0
-6708 4652 0
6708 -6223 -4652 0
-6709 6708 6707 0
-6709 -6708 -6707 0
6709 -6708 6707 0
6709 6708 -6707 0
-6710 6456 6533 0
-6710 -6456 -6533 0
6710 -6456 6533 0
6710 6456 -6533 0
-6711 6710 6596 0
-6711 -6710 -6596 0
6711 -6710 6596 0
6711 6710 -6596 0
-6712 4871 0
-6712 3366 0
6712 -4871 -3366 0
-6713 6442 0
-6713 3366 0
6713 -6442 -3366 0
-6714 -6713 0
-6714 -6712 0
6714 6713 6712 0
-6715 6442 0
-6715 4871 0
6715 -6442 -4871 0
-6716 -6715 0
-6716 6714 0
6716 6715 -6714 0
-6717 6272 6307 0
-6717 -6272 -6307 0
6717 -6272 6307 0
6717 6272 -6307 0
-6718 6717 6181 0
-6718 -6717 -6181 0
6718 -6717 6181 0
6718 6717 -6181 0
-6719 -6230 0
-6719 3246 0
6719 6230 -3246 0
-6720 6230 0
-6720 4659 0
6720 -6230 -4659 0
-6721 6720 6719 0
-6721 -6720 -6719 0
6721 -6720 6719 0
6721 6720 -6719 0
-6722 6463 6540 0
-6722 -6463 -6540 0
6722 -6463 6540 0
6722 6463 -6540 0
-6723 6722 6603 0
-6723 -6722 -6603 0
6723 -6722 6603 0
6723 6722 -6603 0
-6724 4878 0
-6724 3373 0
6724 -4878 -3373 0
-6725 6449 0
-6725 3373 0
6725 -6449 -3373 0
-6726 -6725 0
-6726 -6724 0
6726 6725 6724 0
-6727 6449 0
-6727 4878 0
6727 -6449 -4878 0
-6728 -6727 0
-6728 6726 0
6728 6727 -6726 0
-6729 6279 6314 0
-6729 -6279 -6314 0
6729 -6279 6314 0
6729 6279 -6314 0
-6730 6729 6188 0
-6730 -6729 -6188 0
6730 -6729 6188 0
6730 6729 -6188 0
-6731 -6237 0
-6731 3250 0
6731 6237 -3250 0
-6732 6237 0
-6732 4666 0
6732 -6237 -4666 0
-6733 6732 6731 0
-6733 -6732 -6731 0
6733 -6732 6731 0
6733 6732 -6731 0
-6734 6470 6547 0
-6734 -6470 -6547 0
6734 -6470 6547 0
6734 6470 -6547 0
-6735 6734 6390 0
-6735 -6734 -6390 0
6735 -6734 6390 0
6735 6734 -6390 0
-6736 4885 0
-6736 3380 0
6736 -4885 -3380 0
-6737 6456 0
-6737 3380 0
6737 -6456 -3380 0
-6738 -6737 0
-6738 -6736 0
6738 6737 6736 0
-6739 6456 0
-6739 4885 0
6739 -6456 -4885 0
-6740 -6739 0
-6740 6738 0
6740 6739 -6738 0
-6741 6286 6321 0
-6741 -6286 -6321 0
6741 -6286 6321 0
6741 6286 -6321 0
-6742 6741 6195 0
-6742 -6741 -6195 0
6742 -6741 6195 0
6742 6741 -6195 0
-6743 -6244 0
-6743 3254 0
6743 6244 -3254 0
-6744 6244 0
-6744 4673 0
6744 -6244 -4673 0
-6745 6744 6743 0
-6745 -6744 -6743 0
6745 -6744 6743 0
6745 6744 -6743 0
-6746 6477 6554 0
-6746 -6477 -6554 0
6746 -6477 6554 0
6746 6477 -6554 0
-6747 6746 6393 0
-6747 -6746 -6393 0
6747 -6746 6393 0
6747 6746 -6393 0
-6748 4892 0
-6748 3387 0
6748 -4892 -3387 0
-6749 6463 0
-6749 3387 0
6749 -6463 -3387 0
-6750 -6749 0
-6750 -6748 0
6750 6749 6748 0
-6751 6463 0
-6751 4892 0
6751 -6463 -4892 0
-6752 -6751 0
-6752 6750 0
6752 6751 -6750 0
-6753 6293 6328 0
-6753 -6293 -6328 0
6753 -6293 6328 0
6753 6293 -6328 0
-6754 6753 6202 0
-6754 -6753 -6202 0
6754 -6753 6202 0
6754 6753 -6202 0
-6755 -6251 0
-6755 3256 0
6755 6251 -3256 0
-6756 6251 0
-6756 4680 0
6756 -6251 -4680 0
-6757 6756 6755 0
-6757 -6756 -6755 0
6757 -6756 6755 0
6757 6756 -6755 0
-6758 6484 6561 0
-6758 -6484 -6561 0
6758 -6484 6561 0
6758 6484 -6561 0
-6759 6758 6400 0
-6759 -6758 -6400 0
6759 -6758 6400 0
6759 6758 -6400 0
-6760 4899 0
-6760 3394 0
6760 -4899 -3394 0
-6761 6470 0
-6761 3394 0
6761 -6470 -3394 0
-6762 -6761 0
-6762 -6760 0
6762 6761 6760 0
-6763 6470 0
-6763 4899 0
6763 -6470 -4899 0
-6764 -6763 0
-6764 6762 0
6764 6763 -6762 0
-6765 6300 6335 0
-6765 -6300 -6335 0
6765 -6300 6335 0
6765 6300 -6335 0
-6766 6765 6209 0
-6766 -6765 -6209 0
6766 -6765 6209 0
6766 6765 -6209 0
-6767 -6258 0
-6767 3258 0
6767 6258 -3258 0
-6768 6258 0
-6768 4687 0
6768 -6258 -4687 0
-6769 6768 6767 0
-6769 -6768 -6767 0
6769 -6768 6767 0
6769 6768 -6767 0
-6770 6491 6568 0
-6770 -6491 -6568 0
6770 -6491 6568 0
6770 6491 -6568 0
-6771 6770 6407 0
-6771 -6770 -6407 0
6771 -6770 6407 0
6771 6770 -6407 0
-6772 4906 0
-6772 3401 0
6772 -4906 -3401 0
-6773 6477 0
-6773 3401 0
6773 -6477 -3401 0
-6774 -6773 0
-6774 -6772 0
6774 6773 6772 0
-6775 6477 0
-6775 4906 0
6775 -6477 -4906 0
-6776 -6775 0
-6776 6774 0
6776 6775 -6774 0
-6777 6307 6342 0
-6777 -6307 -6342 0
6777 -6307 6342 0
6777 6307 -6342 0
-6778 6777 6216 0
-6778 -6777 -6216 0
6778 -6777 6216 0
6778 6777 -6216 0
-6779 -6265 0
-6779 3262 0
6779 6265 -3262 0
-6780 6265 0
-6780 4694 0
6780 -6265 -4694 0
-6781 6780 6779 0
-6781 -6780 -6779 0
6781 -6780 6779 0
6781 6780 -6779 0
-6782 6498 6575 0
-6782 -6498 -6575 0
6782 -6498 6575 0
6782 6498 -6575 0
-6783 6782 6414 0
-6783 -6782 -6414 0
6783 -6782 6414 0
6783 6782 -6414 0
-6784 4913 0
-6784 3408 0
6784 -4913 -3408 0
-6785 6484 0
-6785 3408 0
6785 -6484 -3408 0
-6786 -6785 0
-6786 -6784 0
6786 6785 6784 0
-6787 6484 0
-6787 4913 0
6787 -6484 -4913 0
-6788 -6787 0
-6788 6786 0
6788 6787 -6786 0
-6789 6314 6349 0
-6789 -6314 -6349 0
6789 -6314 6349 0
6789 6314 -6349 0
-6790 6789 6223 0
-6790 -6789 -6223 0
6790 -6789 6223 0
6790 6789 -6223 0
-6791 -6272 0
-6791 3266 0
6791 6272 -3266 0
-6792 6272 0
-6792 4701 0
6792 -6272 -4701 0
-6793 6792 6791 0
-6793 -6792 -6791 0
6793 -6792 6791 0
6793 6792 -6791 0
-6794 6505 6582 0
-6794 -6505 -6582 0
6794 -6505 6582 0
6794 6505 -6582 0
-6795 6794 6421 0
-6795 -6794 -6421 0
6795 -6794 6421 0
6795 6794 -6421 0
-6796 4920 0
-6796 3415 0
6796 -4920 -3415 0
-6797 6491 0
-6797 3415 0
6797 -6491 -3415 0
-6798 -6797 0
-6798 -6796 0
6798 6797 6796 0
-6799 6491 0
-6799 4920 0
6799 -6491 -4920 0
-6800 -6799 0
-6800 6798 0
6800 6799 -6798 0
-6801 6321 6356 0
-6801 -6321 -6356 0
6801 -6321 6356 0
6801 6321 -6356 0
-6802 6801 6230 0
-6802 -6801 -6230 0
6802 -6801 6230 0
6802 6801 -6230 0
-6803 -6279 0
-6803 3270 0
6803 6279 -3270 0
-6804 6279 0
-6804 4708 0
6804 -6279 -4708 0
-6805 6804 6803 0
-6805 -6804 -6803 0
6805 -6804 6803 0
6805 6804 -6803 0
-6806 6512 6589 0
-6806 -6512 -6589 0
6806 -6512 6589 0
6806 6512 -6589 0
-6807 6806 6428 0
-6807 -6806 -6428 0
6807 -6806 6428 0
6807 6806 -6428 0
-6808 4927 0
-6808 3422 0
6808 -4927 -3422 0
-6809 6498 0
-6809 3422 0
6809 -6498 -3422 0
-6810 -6809 0
-6810 -6808 0
6810 6809 6808 0
-6811 6498 0
-6811 4927 0
6811 -6498 -4927 0
-6812 -6811 0
-6812 6810 0
6812 6811 -6810 0
-6813 6328 6363 0
-6813 -6328 -6363 0
6813 -6328 6363 0
6813 6328 -6363 0
-6814 6813 6237 0
-6814 -6813 -6237 0
6814 -6813 6237 0
6814 6813 -6237 0
-6815 -6286 0
-6815 3274 0
6815 6286 -3274 0
-6816 6286 0
-6816 4715 0
6816 -6286 -4715 0
-6817 6816 6815 0
-6817 -6816 -6815 0
6817 -6816 6815 0
6817 6816 -6815 0
-6818 6519 6596 0
-6818 -6519 -6596 0
6818 -6519 6596 0
6818 6519 -6596 0
-6819 6818 6435 0
-6819 -6818 -6435 0
6819 -6818 6435 0
6819 6818 -6435 0
-6820 4934 0
-6820 3429 0
6820 -4934 -3429 0
-6821 6505 0
-6821 3429 0
6821 -6505 -3429 0
-6822 -6821 0
-6822 -6820 0
6822 6821 6820 0
-6823 6505 0
-6823 4934 0
6823 -6505 -4934 0
-6824 -6823 0
-6824 6822 0
6824 6823 -6822 0
-6825 6335 6370 0
-6825 -6335 -6370 0
6825 -6335 6370 0
6825 6335 -6370 0
-6826 6825 6244 0
-6826 -6825 -6244 0
6826 -6825 6244 0
6826 6825 -6244 0
-6827 -6293 0
-6827 3276 0
6827 6293 -3276 0
-6828 6293 0
-6828 4722 0
6828 -6293 -4722 0
-6829 6828 6827 0
-6829 -6828 -6827 0
6829 -6828 6827 0
6829 6828 -6827 0
-6830 6526 6603 0
-6830 -6526 -6603 0
6830 -6526 6603 0
6830 6526 -6603 0
-6831 6830 6442 0
-6831 -6830 -6442 0
6831 -6830 6442 0
6831 6830 -6442 0
-6832 4941 0
-6832 3436 0
6832 -4941 -3436 0
-6833 6512 0
-6833 3436 0
6833 -6512 -3436 0
-6834 -6833 0
-6834 -6832 0
6834 6833 6832 0
-6835 6512 0
-6835 4941 0
6835 -6512 -4941 0
-6836 -6835 0
-6836 6834 0
6836 6835 -6834 0
-6837 6342 6377 0
-6837 -6342 -6377 0
6837 -6342 6377 0
6837 6342 -6377 0
-6838 6837 6251 0
-6838 -6837 -6251 0
6838 -6837 6251 0
6838 6837 -6251 0
-6839 -6300 0
-6839 3278 0
6839 6300 -3278 0
-6840 6300 0
-6840 4729 0
6840 -6300 -4729 0
-6841 6840 6839 0
-6841 -6840 -6839 0
6841 -6840 6839 0
6841 6840 -6839 0
-6842 6533 6390 0
-6842 -6533 -6390 0
6842 -6533 6390 0
6842 6533 -6390 0
-6843 6842 6449 0
-6843 -6842 -6449 0
6843 -6842 6449 0
6843 6842 -6449 0
-6844 4948 0
-6844 3443 0
6844 -4948 -3443 0
-6845 6519 0
-6845 3443 0
6845 -6519 -3443 0
-6846 -6845 0
-6846 -6844 0
6846 6845 6844 0
-6847 6519 0
-6847 4948 0
6847 -6519 -4948 0
-6848 -6847 0
-6848 6846 0
6848 6847 -6846 0
-6849 6349 6384 0
-6849 -6349 -6384 0
6849 -6349 6384 0
6849 6349 -6384 0
-6850 6849 6258 0
-6850 -6849 -6258 0
6850 -6849 6258 0
6850 6849 -6258 0
-6851 -6307 0
-6851 3282 0
6851 6307 -3282 0
-6852 6307 0
-6852 4736 0
6852 -6307 -4736 0
-6853 6852 6851 0
-6853 -6852 -6851 0
6853 -6852 6851 0
6853 6852 -6851 0
-6854 6540 6393 0
-6854 -6540 -6393 0
6854 -6540 6393 0
6854 6540 -6393 0
-6855 6854 6456 0
-6855 -6854 -6456 0
6855 -6854 6456 0
6855 6854 -6456 0
-6856 4955 0
-6856 3450 0
6856 -4955 -3450 0
-6857 6526 0
-6857 3450 0
6857 -6526 -3450 0
-6858 -6857 0
-6858 -6856 0
6858 6857 6856 0
-6859 6526 0
-6859 4955 0
6859 -6526 -4955 0
-6860 -6859 0
-6860 6858 0
6860 6859 -6858 0
-6861 6356 6171 0
-6861 -6356 -6171 0
6861 -6356 6171 0
6861 6356 -6171 0
-6862 6861 6265 0
-6862 -6861 -6265 0
6862 -6861 6265 0
6862 6861 -6265 0
-6863 -6314 0
-6863 3284 0
6863 6314 -3284 0
-6864 6314 0
-6864 4743 0
6864 -6314 -4743 0
-6865 6864 6863 0
-6865 -6864 -6863 0
6865 -6864 6863 0
6865 6864 -6863 0
-6866 6547 6400 0
-6866 -6547 -6400 0
6866 -6547 6400 0
6866 6547 -6400 0
-6867 6866 6463 0
-6867 -6866 -6463 0
6867 -6866 6463 0
6867 6866 -6463 0
-6868 4962 0
-6868 3457 0
6868 -4962 -3457 0
-6869 6533 0
-6869 3457 0
6869 -6533 -3457 0
-6870 -6869 0
-6870 -6868 0
6870 6869 6868 0
-6871 6533 0
-6871 4962 0
6871 -6533 -4962 0
-6872 -6871 0
-6872 6870 0
6872 6871 -6870 0
-6873 6363 6174 0
-6873 -6363 -6174 0
6873 -6363 6174 0
6873 6363 -6174 0
-6874 6873 6272 0
-6874 -6873 -6272 0
6874 -6873 6272 0
6874 6873 -6272 0
-6875 -6321 0
-6875 3286 0
6875 6321 -3286 0
-6876 6321 0
-6876 4750 0
6876 -6321 -4750 0
-6877 6876 6875 0
-6877 -6876 -6875 0
6877 -6876 6875 0
6877 6876 -6875 0
-6878 6554 6407 0
-6878 -6554 -6407 0
6878 -6554 6407 0
6878 6554 -6407 0
-6879 6878 6470 0
-6879 -6878 -6470 0
6879 -6878 6470 0
6879 6878 -6470 0
-6880 4969 0
-6880 3464 0
6880 -4969 -3464 0
-6881 6540 0
-6881 3464 0
6881 -6540 -3464 0
-6882 -6881 0
-6882 -6880 0
6882 6881 6880 0
-6883 6540 0
-6883 4969 0
6883 -6540 -4969 0
-6884 -6883 0
-6884 6882 0
6884 6883 -6882 0
-6885 6370 6181 0
-6885 -6370 -6181 0
6885 -6370 6181 0
6885 6370 -6181 0
-6886 6885 6279 0
-6886 -6885 -6279 0
6886 -6885 6279 0
6886 6885 -6279 0
-6887 -6328 0
-6887 3288 0
6887 6328 -3288 0
-6888 6328 0
-6888 4757 0
6888 -6328 -4757 0
-6889 6888 6887 0
-6889 -6888 -6887 0
6889 -6888 6887 0
6889 6888 -6887 0
-6890 6561 6414 0
-6890 -6561 -6414 0
6890 -6561 6414 0
6890 6561 -6414 0
-6891 6890 6477 0
-6891 -6890 -6477 0
6891 -6890 6477 0
6891 6890 -6477 0
-6892 4976 0
-6892 3471 0
6892 -4976 -3471 0
-6893 6547 0
-6893 3471 0
6893 -6547 -3471 0
-6894 -6893 0
-6894 -6892 0
6894 6893 6892 0
-6895 6547 0
-6895 4976 0
6895 -6547 -4976 0
-6896 -6895 0
-6896 6894 0
6896 6895 -6894 0
-6897 6377 6188 0
-6897 -6377 -6188 0
6897 -6377 6188 0
6897 6377 -6188 0
-6898 6897 6286 0
-6898 -6897 -6286 0
6898 -6897 6286 0
6898 6897 -6286 0
-6899 -6335 0
-6899 3290 0
6899 6335 -3290 0
-6900 6335 0
-6900 4764 0
6900 -6335 -4764 0
-6901 6900 6899 0
-6901 -6900 -6899 0
6901 -6900 6899 0
6901 6900 -6899 0
-6902 6568 6421 0
-6902 -6568 -6421 0
6902 -6568 6421 0
6902 6568 -6421 0
-6903 6902 6484 0
-6903 -6902 -6484 0
6903 -6902 6484 0
6903 6902 -6484 0
-6904 4983 0
-6904 3478 0
6904 -4983 -3478 0
-6905 6554 0
-6905 3478 0
6905 -6554 -3478 0
-6906 -6905 0
-6906 -6904 0
6906 6905 6904 0
-6907 6554 0
-6907 4983 0
6907 -6554 -4983 0
-6908 -6907 0
-6908 6906 0
6908 6907 -6906 0
-6909 6384 6195 0
-6909 -6384 -6195 0
6909 -6384 6195 0
6909 6384 -6195 0
-6910 6909 6293 0
-6910 -6909 -6293 0
6910 -6909 6293 0
6910 6909 -6293 0
-6911 -6342 0
-6911 3292 0
6911 6342 -3292 0
-6912 6342 0
-6912 4771 0
6912 -6342 -4771 0
-6913 6912 6911 0
-6913 -6912 -6911 0
6913 -6912 6911 0
6913 6912 -6911 0
-6914 6575 6428 0
-6914 -6575 -6428 0
6914 -6575 6428 0
6914 6575 -6428 0
-6915 6914 6491 0
-6915 -6914 -6491 0
6915 -6914 6491 0
6915 6914 -6491 0
-6916 4990 0
-6916 3485 0
6916 -4990 -3485 0
-6917 6561 0
-6917 3485 0
6917 -6561 -3485 0
-6918 -6917 0
-6918 -6916 0
6918 6917 6916 0
-6919 6561 0
-6919 4990 0
6919 -6561 -4990 0
-6920 -6919 0
-6920 6918 0
6920 6919 -6918 0
-6921 6171 6202 0
-6921 -6171 -6202 0
6921 -6171 6202 0
6921 6171 -6202 0
-6922 6921 6300 0
-6922 -6921 -6300 0
6922 -6921 6300 0
6922 6921 -6300 0
-6923 -6349 0
-6923 3296 0
6923 6349 -3296 0
-6924 6349 0
-6924 4778 0
6924 -6349 -4778 0
-6925 6924 6923 0
-6925 -6924 -6923 0
6925 -6924 6923 0
6925 6924 -6923 0
-6926 6582 6435 0
-6926 -6582 -6435 0
6926 -6582 6435 0
6926 6582 -6435 0
-6927 6926 6498 0
-6927 -6926 -6498 0
6927 -6926 6498 0
6927 6926 -6498 0
-6928 4997 0
-6928 3492 0
6928 -4997 -3492 0
-6929 6568 0
-6929 3492 0
6929 -6568 -3492 0
-6930 -6929 0
-6930 -6928 0
6930 6929 6928 0
-6931 6568 0
-6931 4997 0
6931 -6568 -4997 0
-6932 -6931 0
-6932 6930 0
6932 6931 -6930 0
-6933 6174 6209 0
-6933 -6174 -6209 0
6933 -6174 6209 0
6933 6174 -6209 0
-6934 6933 6307 0
-6934 -6933 -6307 0
6934 -6933 6307 0
6934 6933 -6307 0
-6935 -6356 0
-6935 3298 0
6935 6356 -3298 0
-6936 6356 0
-6936 4785 0
6936 -6356 -4785 0
-6937 6936 6935 0
-6937 -6936 -6935 0
6937 -6936 6935 0
6937 6936 -6935 0
-6938 6589 6442 0
-6938 -6589 -6442 0
6938 -6589 6442 0
6938 6589 -6442 0
-6939 6938 6505 0
-6939 -6938 -6505 0
6939 -6938 6505 0
6939 6938 -6505 0
-6940 5004 0
-6940 3499 0
6940 -5004 -3499 0
-6941 6575 0
-6941 3499 0
6941 -6575 -3499 0
-6942 -6941 0
-6942 -6940 0
6942 6941 6940 0
-6943 6575 0
-6943 5004 0
6943 -6575 -5004 0
-6944 -6943 0
-6944 6942 0
6944 6943 -6942 0
-6945 6181 6216 0
-6945 -6181 -6216 0
6945 -6181 6216 0
6945 6181 -6216 0
-6946 6945 6314 0
-6946 -6945 -6314 0
6946 -6945 6314 0
6946 6945 -6314 0
-6947 -6363 0
-6947 3302 0
6947 6363 -3302 0
-6948 6363 0
-6948 4792 0
6948 -6363 -4792 0
-6949 6948 6947 0
-6949 -6948 -6947 0
6949 -6948 6947 0
6949 6948 -6947 0
-6950 6596 6449 0
-6950 -6596 -6449 0
6950 -6596 6449 0
6950 6596 -6449 0
-6951 6950 6512 0
-6951 -6950 -6512 0
6951 -6950 6512 0
6951 6950 -6512 0
-6952 5011 0
-6952 3506 0
6952 -5011 -3506 0
-6953 6582 0
-6953 3506 0
6953 -6582 -3506 0
-6954 -6953 0
-6954 -6952 0
6954 6953 6952 0
-6955 6582 0
-6955 5011 0
6955 -6582 -5011 0
-6956 -6955 0
-6956 6954 0
6956 6955 -6954 0
-6957 6188 6223 0
-6957 -6188 -6223 0
6957 -6188 6223 0
6957 6188 -6223 0
-6958 6957 6321 0
-6958 -6957 -6321 0
6958 -6957 6321 0
6958 6957 -6321 0
-6959 -6370 0
-6959 3304 0
6959 6370 -3304 0
-6960 6370 0
-6960 4799 0
6960 -6370 -4799 0
-6961 6960 6959 0
-6961 -6960 -6959 0
6961 -6960 6959 0
6961 6960 -6959 0
-6962 6603 6456 0
-6962 -6603 -6456 0
6962 -6603 6456 0
6962 6603 -6456 0
-6963 6962 6519 0
-6963 -6962 -6519 0
6963 -6962 6519 0
6963 6962 -6519 0
-6964 5018 0
-6964 3513 0
6964 -5018 -3513 0
-6965 6589 0
-6965 3513 0
6965 -6589 -3513 0
-6966 -6965 0
-6966 -6964 0
6966 6965 6964 0
-6967 6589 0
-6967 5018 0
6967 -6589 -5018 0
-6968 -6967 0
-6968 6966 0
6968 6967 -6966 0
-6969 6195 6230 0
-6969 -6195 -6230 0
6969 -6195 6230 0
6969 6195 -6230 0
-6970 6969 6328 0
-6970 -6969 -6328 0
6970 -6969 6328 0
6970 6969 -6328 0
-6971 -6377 0
-6971 3308 0
6971 6377 -3308 0
-6972 6377 0
-6972 4806 0
6972 -6377 -4806 0
-6973 6972 6971 0
-6973 -6972 -6971 0
6973 -6972 6971 0
6973 6972 -6971 0
-6974 6390 6463 0
-6974 -6390 -6463 0
6974 -6390 6463 0
6974 6390 -6463 0
-6975 6974 6526 0
-6975 -6974 -6526 0
6975 -6974 6526 0
6975 6974 -6526 0
-6976 5025 0
-6976 3520 0
6976 -5025 -3520 0
-6977 6596 0
-6977 3520 0
6977 -6596 -3520 0
-6978 -6977 0
-6978 -6976 0
6978 6977 6976 0
-6979 6596 0
-6979 5025 0
6979 -6596 -5025 0
-6980 -6979 0
-6980 6978 0
6980 6979 -6978 0
-6981 6202 6237 0
-6981 -6202 -6237 0
6981 -6202 6237 0
6981 6202 -6237 0
-6982 6981 6335 0
-6982 -6981 -6335 0
6982 -6981 6335 0
6982 6981 -6335 0
-6983 -6384 0
-6983 3312 0
6983 6384 -3312 0
-6984 6384 0
-6984 4813 0
6984 -6384 -4813 0
-6985 6984 6983 0
-6985 -6984 -6983 0
6985 -6984 6983 0
6985 6984 -6983 0
-6986 6393 6470 0
-6986 -6393 -6470 0
6986 -6393 6470 0
6986 6393 -6470 0
-6987 6986 6533 0
-6987 -6986 -6533 0
6987 -6986 6533 0
6987 6986 -6533 0
-6988 5032 0
-6988 3527 0
6988 -5032 -3527 0
-6989 6603 0
-6989 3527 0
6989 -6603 -3527 0
-6990 -6989 0
-6990 -6988 0
6990 6989 6988 0
-6991 6603 0
-6991 5032 0
6991 -6603 -5032 0
-6992 -6991 0
-6992 6990 0
6992 6991 -6990 0
-6993 6649 6637 0
-6993 -6649 -6637 0
6993 -6649 6637 0
6993 6649 -6637 0
-6994 6649 0
-6994 6637 0
6994 -6649 -6637 0
-6995 6661 6994 0
-6995 -6661 -6994 0
6995 -6661 6994 0
6995 6661 -6994 0
-6996 6661 0
-6996 6994 0
6996 -6661 -6994 0
-6997 -6673 6996 0
-6997 6673 -6996 0
6997 6673 6996 0
6997 -6673 -6996 0
-6998 6673 0
-6998 6996 0
6998 -6673 -6996 0
-6999 -6998 0
-6999 -6996 0
6999 6998 6996 0
-7000 -6673 0
-7000 6999 0
7000 6673 -6999 0
-7001 6685 -7000 0
-7001 -6685 7000 0
7001 -6685 -7000 0
7001 6685 7000 0
-7002 6685 0
-7002 -7000 0
7002 -6685 7000 0
-7003 -6697 7002 0
-7003 6697 -7002 0
7003 6697 7002 0
7003 -6697 -7002 0
-7004 6697 0
-7004 7002 0
7004 -6697 -7002 0
-7005 -7004 0
-7005 -7002 0
7005 7004 7002 0
-7006 -6697 0
-7006 7005 0
7006 6697 -7005 0
-7007 6709 -7006 0
-7007 -6709 7006 0
7007 -6709 -7006 0
7007 6709 7006 0
-7008 6709 0
-7008 -7006 0
7008 -6709 7006 0
-7009 -6721 7008 0
-7009 6721 -7008 0
7009 6721 7008 0
7009 -6721 -7008 0
-7010 6721 0
-7010 7008 0
7010 -6721 -7008 0
-7011 -7010 0
-7011 -7008 0
7011 7010 7008 0
-7012 -6721 0
-7012 7011 0
7012 6721 -7011 0
-7013 6733 -7012 0
-7013 -6733 7012 0
7013 -6733 -7012 0
7013 6733 7012 0
-7014 6733 0
-7014 -7012 0
7014 -6733 7012 0
-7015 6745 7014 0
-7015 -6745 -7014 0
7015 -6745 7014 0
7015 6745 -7014 0
-7016 6745 0
-7016 7014 0
7016 -6745 -7014 0
-7017 6757 7016 0
-7017 -6757 -7016 0
7017 -6757 7016 0
7017 6757 -7016 0
-7018 6757 0
-7018 7016 0
7018 -6757 -7016 0
-7019 6769 7018 0
-7019 -6769 -7018 0
7019 -6769 7018 0
7019 6769 -7018 0
-7020 6769 0
-7020 7018 0
7020 -6769 -7018 0
-7021 6781 7020 0
-7021 -6781 -7020 0
7021 -6781 7020 0
7021 6781 -7020 0
-7022 6781 0
-7022 7020 0
7022 -6781 -7020 0
-7023 -6793 7022 0
-7023 6793 -7022 0
7023 6793 7022 0
7023 -6793 -7022 0
-7024 6793 0
-7024 7022 0
7024 -6793 -7022 0
-7025 -7024 0
-7025 -7022 0
7025 7024 7022 0
-7026 -6793 0
-7026 7025 0
7026 6793 -7025 0
-7027 -6805 -7026 0
-7027 6805 7026 0
7027 6805 -7026 0
7027 -6805 7026 0
-7028 6805 0
-7028 -7026 0
7028 -6805 7026 0
-7029 -7028 0
-7029 7026 0
7029 7028 -7026 0
-7030 -6805 0
-7030 7029 0
7030 6805 -7029 0
-7031 -6817 -7030 0
-7031 6817 7030 0
7031 6817 -7030 0
7031 -6817 7030 0
-7032 6817 0
-7032 -7030 0
7032 -6817 7030 0
-7033 -7032 0
-7033 7030 0
7033 7032 -7030 0
-7034 -6817 0
-7034 7033 0
7034 6817 -7033 0
-7035 -6829 -7034 0
-7035 6829 7034 0
7035 6829 -7034 0
7035 -6829 7034 0
-7036 6829 0
-7036 -7034 0
7036 -6829 7034 0
-7037 -7036 0
-7037 7034 0
7037 7036 -7034 0
-7038 -6829 0
-7038 7037 0
7038 6829 -7037 0
-7039 -6841 -7038 0
-7039 6841 7038 0
7039 6841 -7038 0
7039 -6841 7038 0
-7040 6841 0
-7040 -7038 0
7040 -6841 7038 0
-7041 -7040 0
-7041 7038 0
7041 7040 -7038 0
-7042 -6841 0
-7042 7041 0
7042 6841 -7041 0
-7043 -6853 -7042 0
-7043 6853 7042 0
7043 6853 -7042 0
7043 -6853 7042 0
-7044 6853 0
-7044 -7042 0
7044 -6853 7042 0
-7045 -7044 0
-7045 7042 0
7045 7044 -7042 0
-7046 -6853 0
-7046 7045 0
7046 6853 -7045 0
-7047 -6865 -7046 0
-7047 6865 7046 0
7047 6865 -7046 0
7047 -6865 7046 0
-7048 6865 0
-7048 -7046 0
7048 -6865 7046 0
-7049 -7048 0
-7049 7046 0
7049 7048 -7046 0
-7050 -6865 0
-7050 7049 0
7050 6865 -7049 0
-7051 6877 -7050 0
-7051 -6877 7050 0
7051 -6877 -7050 0
7051 6877 7050 0
-7052 6877 0
-7052 -7050 0
7052 -6877 7050 0
-7053 6889 7052 0
-7053 -6889 -7052 0
7053 -6889 7052 0
7053 6889 -7052 0
-7054 6889 0
-7054 7052 0
7054 -6889 -7052 0
-7055 6901 7054 0
-7055 -6901 -7054 0
7055 -6901 7054 0
7055 6901 -7054 0
-7056 6901 0
-7056 7054 0
7056 -6901 -7054 0
-7057 -6913 7056 0
-7057 6913 -7056 0
7057 6913 7056 0
7057 -6913 -7056 0
-7058 6913 0
-7058 7056 0
7058 -6913 -7056 0
-7059 -7058 0
-7059 -7056 0
7059 7058 7056 0
-7060 -6913 0
-7060 7059 0
7060 6913 -7059 0
-7061 6925 -7060 0
-7061 -6925 7060 0
7061 -6925 -7060 0
7061 6925 7060 0
-7062 6925 0
-7062 -7060 0
7062 -6925 7060 0
-7063 6937 7062 0
-7063 -6937 -7062 0
7063 -6937 7062 0
7063 6937 -7062 0
-7064 6937 0
-7064 7062 0
7064 -6937 -7062 0
-7065 -6949 7064 0
-7065 6949 -7064 0
7065 6949 7064 0
7065 -6949 -7064 0
-7066 6949 0
-7066 7064 0
7066 -6949 -7064 0
-7067 -7066 0
-7067 -7064 0
7067 7066 7064 0
-7068 -6949 0
-7068 7067 0
7068 6949 -7067 0
-7069 6961 -7068 0
-7069 -6961 7068 0
7069 -6961 -7068 0
7069 6961 7068 0
-7070 6961 0
-7070 -7068 0
7070 -6961 7068 0
-7071 6973 7070 0
-7071 -6973 -7070 0
7071 -6973 7070 0
7071 6973 -7070 0
-7072 6973 0
-7072 7070 0
7072 -6973 -7070 0
-7073 -6985 7072 0
-7073 6985 -7072 0
7073 6985 7072 0
7073 -6985 -7072 0
-7074 6985 0
-7074 7072 0
7074 -6985 -7072 0
-7075 -7074 0
-7075 -7072 0
7075 7074 7072 0
-7076 -6985 0
-7076 7075 0
7076 6985 -7075 0
-7077 -1502 6610 0
-7077 1502 -6610 0
7077 1502 6610 0
7077 -1502 -6610 0
-7078 -1502 0
-7078 6610 0
7078 1502 -6610 0
-7079 1927 6622 0
-7079 -1927 -6622 0
7079 -1927 6622 0
7079 1927 -6622 0
-7080 7079 7078 0
-7080 -7079 -7078 0
7080 -7079 7078 0
7080 7079 -7078 0
-7081 6622 0
-7081 7078 0
7081 -6622 -7078 0
-7082 1927 0
-7082 7078 0
7082 -1927 -7078 0
-7083 -7082 0
-7083 -7081 0
7083 7082 7081 0
-7084 1927 0
-7084 6622 0
7084 -1927 -6622 0
-7085 -7084 0
-7085 7083 0
7085 7084 -7083 0
-7086 1929 6634 0
-7086 -1929 -6634 0
7086 -1929 6634 0
7086 1929 -6634 0
-7087 7086 -7085 0
-7087 -7086 7085 0
7087 -7086 -7085 0
7087 7086 7085 0
-7088 6634 0
-7088 -7085 0
7088 -6634 7085 0
-7089 1929 0
-7089 -7085 0
7089 -1929 7085 0
-7090 -7089 0
-7090 -7088 0
7090 7089 7088 0
-7091 1929 0
-7091 6634 0
7091 -1929 -6634 0
-7092 -7091 0
-7092 7090 0
7092 7091 -7090 0
-7093 1933 6646 0
-7093 -1933 -6646 0
7093 -1933 6646 0
7093 1933 -6646 0
-7094 7093 -7092 0
-7094 -7093 7092 0
7094 -7093 -7092 0
7094 7093 7092 0
-7095 6646 0
-7095 -7092 0
7095 -6646 7092 0
-7096 1933 0
-7096 -7092 0
7096 -1933 7092 0
-7097 -7096 0
-7097 -7095 0
7097 7096 7095 0
-7098 1933 0
-7098 6646 0
7098 -1933 -6646 0
-7099 -7098 0
-7099 7097 0
7099 7098 -7097 0
-7100 1935 6658 0
-7100 -1935 -6658 0
7100 -1935 6658 0
7100 1935 -6658 0
-7101 7100 -7099 0
-7101 -7100 7099 0
7101 -7100 -7099 0
7101 7100 7099 0
-7102 6658 0
-7102 -7099 0
7102 -6658 7099 0
-7103 1935 0
-7103 -7099 0
7103 -1935 7099 0
-7104 -7103 0
-7104 -7102 0
7104 7103 7102 0
-7105 1935 0
-7105 6658 0
7105 -1935 -6658 0
-7106 -7105 0
-7106 7104 0
7106 7105 -7104 0
-7107 1937 6670 0
-7107 -1937 -6670 0
7107 -1937 6670 0
7107 1937 -6670 0
-7108 7107 -7106 0
-7108 -7107 7106 0
7108 -7107 -7106 0
7108 7107 7106 0
-7109 6670 0
-7109 -7106 0
7109 -6670 7106 0
-7110 1937 0
-7110 -7106 0
7110 -1937 7106 0
-7111 -7110 0
-7111 -7109 0
7111 7110 7109 0
-7112 1937 0
-7112 6670 0
7112 -1937 -6670 0
-7113 -7112 0
-7113 7111 0
7113 7112 -7111 0
-7114 1939 6682 0
-7114 -1939 -6682 0
7114 -1939 6682 0
7114 1939 -6682 0
-7115 7114 -7113 0
-7115 -7114 7113 0
7115 -7114 -7113 0
7115 7114 7113 0
-7116 6682 0
-7116 -7113 0
7116 -6682 7113 0
-7117 1939 0
-7117 -7113 0
7117 -1939 7113 0
-7118 -7117 0
-7118 -7116 0
7118 7117 7116 0
-7119 1939 0
-7119 6682 0
7119 -1939 -6682 0
-7120 -7119 0
-7120 7118 0
7120 7119 -7118 0
-7121 1941 6694 0
-7121 -1941 -6694 0
7121 -1941 6694 0
7121 1941 -6694 0
-7122 7121 -7120 0
-7122 -7121 7120 0
7122 -7121 -7120 0
7122 7121 7120 0
-7123 6694 0
-7123 -7120 0
7123 -6694 7120 0
-7124 1941 0
-7124 -7120 0
7124 -1941 7120 0
-7125 -7124 0
-7125 -7123 0
7125 7124 7123 0
-7126 1941 0
-7126 6694 0
7126 -1941 -6694 0
-7127 -7126 0
-7127 7125 0
7127 7126 -7125 0
-7128 1945 6706 0
-7128 -1945 -6706 0
7128 -1945 6706 0
7128 1945 -6706 0
-7129 7128 -7127 0
-7129 -7128 7127 0
7129 -7128 -7127 0
7129 7128 7127 0
-7130 6706 0
-7130 -7127 0
7130 -6706 7127 0
-7131 1945 0
-7131 -7127 0
7131 -1945 7127 0
-7132 -7131 0
-7132 -7130 0
7132 7131 7130 0
-7133 1945 0
-7133 6706 0
7133 -1945 -6706 0
-7134 -7133 0
-7134 7132 0
7134 7133 -7132 0
-7135 1947 6718 0
-7135 -1947 -6718 0
7135 -1947 6718 0
7135 1947 -6718 0
-7136 7135 -7134 0
-7136 -7135 7134 0
7136 -7135 -7134 0
7136 7135 7134 0
-7137 6718 0
-7137 -7134 0
7137 -6718 7134 0
-7138 1947 0
-7138 -7134 0
7138 -1947 7134 0
-7139 -7138 0
-7139 -7137 0
7139 7138 7137 0
-7140 1947 0
-7140 6718 0
7140 -1947 -6718 0
-7141 -7140 0
-7141 7139 0
7141 7140 -7139 0
-7142 1951 6730 0
-7142 -1951 -6730 0
7142 -1951 6730 0
7142 1951 -6730 0
-7143 7142 -7141 0
-7143 -7142 7141 0
7143 -7142 -7141 0
7143 7142 7141 0
-7144 6730 0
-7144 -7141 0
7144 -6730 7141 0
-7145 1951 0
-7145 -7141 0
7145 -1951 7141 0
-7146 -7145 0
-7146 -7144 0
7146 7145 7144 0
-7147 1951 0
-7147 6730 0
7147 -1951 -6730 0
-7148 -7147 0
-7148 7146 0
7148 7147 -7146 0
-7149 1955 6742 0
-7149 -1955 -6742 0
7149 -1955 6742 0
7149 1955 -6742 0
-7150 7149 -7148 0
-7150 -7149 7148 0
7150 -7149 -7148 0
7150 7149 7148 0
-7151 6742 0
-7151 -7148 0
7151 -6742 7148 0
-7152 1955 0
-7152 -7148 0
7152 -1955 7148 0
-7153 -7152 0
-7153 -7151 0
7153 7152 7151 0
-7154 1955 0
-7154 6742 0
7154 -1955 -6742 0
-7155 -7154 0
-7155 7153 0
7155 7154 -7153 0
-7156 1959 6754 0
-7156 -1959 -6754 0
7156 -1959 6754 0
7156 1959 -6754 0
-7157 7156 -7155 0
-7157 -7156 7155 0
7157 -7156 -7155 0
7157 7156 7155 0
-7158 6754 0
-7158 -7155 0
7158 -6754 7155 0
-7159 1959 0
-7159 -7155 0
7159 -1959 7155 0
-7160 -7159 0
-7160 -7158 0
7160 7159 7158 0
-7161 1959 0
-7161 6754 0
7161 -1959 -6754 0
-7162 -7161 0
-7162 7160 0
7162 7161 -7160 0
-7163 1961 6766 0
-7163 -1961 -6766 0
7163 -1961 6766 0
7163 1961 -6766 0
-7164 7163 -7162 0
-7164 -7163 7162 0
7164 -7163 -7162 0
7164 7163 7162 0
-7165 6766 0
-7165 -7162 0
7165 -6766 7162 0
-7166 1961 0
-7166 -7162 0
7166 -1961 7162 0
-7167 -7166 0
-7167 -7165 0
7167 7166 7165 0
-7168 1961 0
-7168 6766 0
7168 -1961 -6766 0
-7169 -7168 0
-7169 7167 0
7169 7168 -7167 0
-7170 1965 6778 0
-7170 -1965 -6778 0
7170 -1965 6778 0
7170 1965 -6778 0
-7171 7170 -7169 0
-7171 -7170 7169 0
7171 -7170 -7169 0
7171 7170 7169 0
-7172 6778 0
-7172 -7169 0
7172 -6778 7169 0
-7173 1965 0
-7173 -7169 0
7173 -1965 7169 0
-7174 -7173 0
-7174 -7172 0
7174 7173 7172 0
-7175 1965 0
-7175 6778 0
7175 -1965 -6778 0
-7176 -7175 0
-7176 7174 0
7176 7175 -7174 0
-7177 1967 6790 0
-7177 -1967 -6790 0
7177 -1967 6790 0
7177 1967 -6790 0
-7178 7177 -7176 0
-7178 -7177 7176 0
7178 -7177 -7176 0
7178 7177 7176 0
-7179 6790 0
-7179 -7176 0
7179 -6790 7176 0
-7180 1967 0
-7180 -7176 0
7180 -1967 7176 0
-7181 -7180 0
-7181 -7179 0
7181 7180 7179 0
-7182 1967 0
-7182 6790 0
7182 -1967 -6790 0
-7183 -7182 0
-7183 7181 0
7183 7182 -7181 0
-7184 1971 6802 0
-7184 -1971 -6802 0
7184 -1971 6802 0
7184 1971 -6802 0
-7185 7184 -7183 0
-7185 -7184 7183 0
7185 -7184 -7183 0
7185 7184 7183 0
-7186 6802 0
-7186 -7183 0
7186 -6802 7183 0
-7187 1971 0
-7187 -7183 0
7187 -1971 7183 0
-7188 -7187 0
-7188 -7186 0
7188 7187 7186 0
-7189 1971 0
-7189 6802 0
7189 -1971 -6802 0
-7190 -7189 0
-7190 7188 0
7190 7189 -7188 0
-7191 1975 6814 0
-7191 -1975 -6814 0
7191 -1975 6814 0
7191 1975 -6814 0
-7192 7191 -7190 0
-7192 -7191 7190 0
7192 -7191 -7190 0
7192 7191 7190 0
-7193 6814 0
-7193 -7190 0
7193 -6814 7190 0
-7194 1975 0
-7194 -7190 0
7194 -1975 7190 0
-7195 -7194 0
-7195 -7193 0
7195 7194 7193 0
-7196 1975 0
-7196 6814 0
7196 -1975 -6814 0
-7197 -7196 0
-7197 7195 0
7197 7196 -7195 0
-7198 1979 6826 0
-7198 -1979 -6826 0
7198 -1979 6826 0
7198 1979 -6826 0
-7199 7198 -7197 0
-7199 -7198 7197 0
7199 -7198 -7197 0
7199 7198 7197 0
-7200 6826 0
-7200 -7197 0
7200 -6826 7197 0
-7201 1979 0
-7201 -7197 0
7201 -1979 7197 0
-7202 -7201 0
-7202 -7200 0
7202 7201 7200 0
-7203 1979 0
-7203 6826 0
7203 -1979 -6826 0
-7204 -7203 0
-7204 7202 0
7204 7203 -7202 0
-7205 1983 6838 0
-7205 -1983 -6838 0
7205 -1983 6838 0
7205 1983 -6838 0
-7206 7205 -7204 0
-7206 -7205 7204 0
7206 -7205 -7204 0
7206 7205 7204 0
-7207 6838 0
-7207 -7204 0
7207 -6838 7204 0
-7208 1983 0
-7208 -7204 0
7208 -1983 7204 0
-7209 -7208 0
-7209 -7207 0
7209 7208 7207 0
-7210 1983 0
-7210 6838 0
7210 -1983 -6838 0
-7211 -7210 0
-7211 7209 0
7211 7210 -7209 0
-7212 1985 6850 0
-7212 -1985 -6850 0
7212 -1985 6850 0
7212 1985 -6850 0
-7213 7212 -7211 0
-7213 -7212 7211 0
7213 -7212 -7211 0
7213 7212 7211 0
-7214 6850 0
-7214 -7211 0
7214 -6850 7211 0
-7215 1985 0
-7215 -7211 0
7215 -1985 7211 0
-7216 -7215 0
-7216 -7214 0
7216 7215 7214 0
-7217 1985 0
-7217 6850 0
7217 -1985 -6850 0
-7218 -7217 0
-7218 7216 0
7218 7217 -7216 0
-7219 1987 6862 0
-7219 -1987 -6862 0
7219 -1987 6862 0
7219 1987 -6862 0
-7220 7219 -7218 0
-7220 -7219 7218 0
7220 -7219 -7218 0
7220 7219 7218 0
-7221 6862 0
-7221 -7218 0
7221 -6862 7218 0
-7222 1987 0
-7222 -7218 0
7222 -1987 7218 0
-7223 -7222 0
-7223 -7221 0
7223 7222 7221 0
-7224 1987 0
-7224 6862 0
7224 -1987 -6862 0
-7225 -7224 0
-7225 7223 0
7225 7224 -7223 0
-7226 1991 6874 0
-7226 -1991 -6874 0
7226 -1991 6874 0
7226 1991 -6874 0
-7227 7226 -7225 0
-7227 -7226 7225 0
7227 -7226 -7225 0
7227 7226 7225 0
-7228 6874 0
-7228 -7225 0
7228 -6874 7225 0
-7229 1991 0
-7229 -7225 0
7229 -1991 7225 0
-7230 -7229 0
-7230 -7228 0
7230 7229 7228 0
-7231 1991 0
-7231 6874 0
7231 -1991 -6874 0
-7232 -7231 0
-7232 7230 0
7232 7231 -7230 0
-7233 1995 6886 0
-7233 -1995 -6886 0
7233 -1995 6886 0
7233 1995 -6886 0
-7234 7233 -7232 0
-7234 -7233 7232 0
7234 -7233 -7232 0
7234 7233 7232 0
-7235 6886 0
-7235 -7232 0
7235 -6886 7232 0
-7236 1995 0
-7236 -7232 0
7236 -1995 7232 0
-7237 -7236 0
-7237 -7235 0
7237 7236 7235 0
-7238 1995 0
-7238 6886 0
7238 -1995 -6886 0
-7239 -7238 0
-7239 7237 0
7239 7238 -7237 0
-7240 1997 6898 0
-7240 -1997 -6898 0
7240 -1997 6898 0
7240 1997 -6898 0
-7241 7240 -7239 0
-7241 -7240 7239 0
7241 -7240 -7239 0
7241 7240 7239 0
-7242 6898 0
-7242 -7239 0
7242 -6898 7239 0
-7243 1997 0
-7243 -7239 0
7243 -1997 7239 0
-7244 -7243 0
-7244 -7242 0
7244 7243 7242 0
-7245 1997 0
-7245 6898 0
7245 -1997 -6898 0
-7246 -7245 0
-7246 7244 0
7246 7245 -7244 0
-7247 2001 6910 0
-7247 -2001 -6910 0
7247 -2001 6910 0
7247 2001 -6910 0
-7248 7247 -7246 0
-7248 -7247 7246 0
7248 -7247 -7246 0
7248 7247 7246 0
-7249 6910 0
-7249 -7246 0
7249 -6910 7246 0
-7250 2001 0
-7250 -7246 0
7250 -2001 7246 0
-7251 -7250 0
-7251 -7249 0
7251 7250 7249 0
-7252 2001 0
-7252 6910 0
7252 -2001 -6910 0
-7253 -7252 0
-7253 7251 0
7253 7252 -7251 0
-7254 2005 6922 0
-7254 -2005 -6922 0
7254 -2005 6922 0
7254 2005 -6922 0
-7255 7254 -7253 0
-7255 -7254 7253 0
7255 -7254 -7253 0
7255 7254 7253 0
-7256 6922 0
-7256 -7253 0
7256 -6922 7253 0
-7257 2005 0
-7257 -7253 0
7257 -2005 7253 0
-7258 -7257 0
-7258 -7256 0
7258 7257 7256 0
-7259 2005 0
-7259 6922 0
7259 -2005 -6922 0
-7260 -7259 0
-7260 7258 0
7260 7259 -7258 0
-7261 2007 6934 0
-7261 -2007 -6934 0
7261 -2007 6934 0
7261 2007 -6934 0
-7262 7261 -7260 0
-7262 -7261 7260 0
7262 -7261 -7260 0
7262 7261 7260 0
-7263 6934 0
-7263 -7260 0
7263 -6934 7260 0
-7264 2007 0
-7264 -7260 0
7264 -2007 7260 0
-7265 -7264 0
-7265 -7263 0
7265 7264 7263 0
-7266 2007 0
-7266 6934 0
7266 -2007 -6934 0
-7267 -7266 0
-7267 7265 0
7267 7266 -7265 0
-7268 2011 6946 0
-7268 -2011 -6946 0
7268 -2011 6946 0
7268 2011 -6946 0
-7269 7268 -7267 0
-7269 -7268 7267 0
7269 -7268 -7267 0
7269 7268 7267 0
-7270 6946 0
-7270 -7267 0
7270 -6946 7267 0
-7271 2011 0
-7271 -7267 0
7271 -2011 7267 0
-7272 -7271 0
-7272 -7270 0
7272 7271 7270 0
-7273 2011 0
-7273 6946 0
7273 -2011 -6946 0
-7274 -7273 0
-7274 7272 0
7274 7273 -7272 0
-7275 2015 6958 0
-7275 -2015 -6958 0
7275 -2015 6958 0
7275 2015 -6958 0
-7276 7275 -7274 0
-7276 -7275 7274 0
7276 -7275 -7274 0
7276 7275 7274 0
-7277 6958 0
-7277 -7274 0
7277 -6958 7274 0
-7278 2015 0
-7278 -7274 0
7278 -2015 7274 0
-7279 -7278 0
-7279 -7277 0
7279 7278 7277 0
-7280 2015 0
-7280 6958 0
7280 -2015 -6958 0
-7281 -7280 0
-7281 7279 0
7281 7280 -7279 0
-7282 2019 6970 0
-7282 -2019 -6970 0
7282 -2019 6970 0
7282 2019 -6970 0
-7283 7282 -7281 0
-7283 -7282 7281 0
7283 -7282 -7281 0
7283 7282 7281 0
-7284 6970 0
-7284 -7281 0
7284 -6970 7281 0
-7285 2019 0
-7285 -7281 0
7285 -2019 7281 0
-7286 -7285 0
-7286 -7284 0
7286 7285 7284 0
-7287 2019 0
-7287 6970 0
7287 -2019 -6970 0
-7288 -7287 0
-7288 7286 0
7288 7287 -7286 0
-7289 2021 6982 0
-7289 -2021 -6982 0
7289 -2021 6982 0
7289 2021 -6982 0
-7290 7289 -7288 0
-7290 -7289 7288 0
7290 -7289 -7288 0
7290 7289 7288 0
-7291 6982 0
-7291 -7288 0
7291 -6982 7288 0
-7292 2021 0
-7292 -7288 0
7292 -2021 7288 0
-7293 -7292 0
-7293 -7291 0
7293 7292 7291 0
-7294 2021 0
-7294 6982 0
7294 -2021 -6982 0
-7295 -7294 0
-7295 7293 0
7295 7294 -7293 0
-7296 7077 6613 0
-7296 -7077 -6613 0
7296 -7077 6613 0
7296 7077 -6613 0
-7297 7077 0
-7297 6613 0
7297 -7077 -6613 0
-7298 7080 6625 0
-7298 -7080 -6625 0
7298 -7080 6625 0
7298 7080 -6625 0
-7299 7298 7297 0
-7299 -7298 -7297 0
7299 -7298 7297 0
7299 7298 -7297 0
-7300 6625 0
-7300 7297 0
7300 -6625 -7297 0
-7301 7080 0
-7301 7297 0
7301 -7080 -7297 0
-7302 -7301 0
-7302 -7300 0
7302 7301 7300 0
-7303 7080 0
-7303 6625 0
7303 -7080 -6625 0
-7304 -7303 0
-7304 7302 0
7304 7303 -7302 0
-7305 7087 -6637 0
-7305 -7087 6637 0
7305 -7087 -6637 0
7305 7087 6637 0
-7306 7305 -7304 0
-7306 -7305 7304 0
7306 -7305 -7304 0
7306 7305 7304 0
-7307 -6637 0
-7307 -7304 0
7307 6637 7304 0
-7308 7087 0
-7308 -7304 0
7308 -7087 7304 0
-7309 -7308 0
-7309 -7307 0
7309 7308 7307 0
-7310 7087 0
-7310 -6637 0
7310 -7087 6637 0
-7311 -7310 0
-7311 7309 0
7311 7310 -7309 0
-7312 7094 6993 0
-7312 -7094 -6993 0
7312 -7094 6993 0
7312 7094 -6993 0
-7313 7312 -7311 0
-7313 -7312 7311 0
7313 -7312 -7311 0
7313 7312 7311 0
-7314 6993 0
-7314 -7311 0
7314 -6993 7311 0
-7315 7094 0
-7315 -7311 0
7315 -7094 7311 0
-7316 -7315 0
-7316 -7314 0
7316 7315 7314 0
-7317 7094 0
-7317 6993 0
7317 -7094 -6993 0
-7318 -7317 0
-7318 7316 0
7318 7317 -7316 0
-7319 7101 6995 0
-7319 -7101 -6995 0
7319 -7101 6995 0
7319 7101 -6995 0
-7320 7319 -7318 0
-7320 -7319 7318 0
7320 -7319 -7318 0
7320 7319 7318 0
-7321 6995 0
-7321 -7318 0
7321 -6995 7318 0
-7322 7101 0
-7322 -7318 0
7322 -7101 7318 0
-7323 -7322 0
-7323 -7321 0
7323 7322 7321 0
-7324 7101 0
-7324 6995 0
7324 -7101 -6995 0
-7325 -7324 0
-7325 7323 0
7325 7324 -7323 0
-7326 7108 6997 0
-7326 -7108 -6997 0
7326 -7108 6997 0
7326 7108 -6997 0
-7327 7326 -7325 0
-7327 -7326 7325 0
7327 -7326 -7325 0
7327 7326 7325 0
-7328 6997 0
-7328 -7325 0
7328 -6997 7325 0
-7329 7108 0
-7329 -7325 0
7329 -7108 7325 0
-7330 -7329 0
-7330 -7328 0
7330 7329 7328 0
-7331 7108 0
-7331 6997 0
7331 -7108 -6997 0
-7332 -7331 0
-7332 7330 0
7332 7331 -7330 0
-7333 7115 7001 0
-7333 -7115 -7001 0
7333 -7115 7001 0
7333 7115 -7001 0
-7334 7333 -7332 0
-7334 -7333 7332 0
7334 -7333 -7332 0
7334 7333 7332 0
-7335 7001 0
-7335 -7332 0
7335 -7001 7332 0
-7336 7115 0
-7336 -7332 0
7336 -7115 7332 0
-7337 -7336 0
-7337 -7335 0
7337 7336 7335 0
-7338 7115 0
-7338 7001 0
7338 -7115 -7001 0
-7339 -7338 0
-7339 7337 0
7339 7338 -7337 0
-7340 7122 7003 0
-7340 -7122 -7003 0
7340 -7122 7003 0
7340 7122 -7003 0
-7341 7340 -7339 0
-7341 -7340 7339 0
7341 -7340 -7339 0
7341 7340 7339 0
-7342 7003 0
-7342 -7339 0
7342 -7003 7339 0
-7343 7122 0
-7343 -7339 0
7343 -7122 7339 0
-7344 -7343 0
-7344 -7342 0
7344 7343 7342 0
-7345 7122 0
-7345 7003 0
7345 -7122 -7003 0
-7346 -7345 0
-7346 7344 0
7346 7345 -7344 0
-7347 7129 7007 0
-7347 -7129 -7007 0
7347 -7129 7007 0
7347 7129 -7007 0
-7348 7347 -7346 0
-7348 -7347 7346 0
7348 -7347 -7346 0
7348 7347 7346 0
-7349 7007 0
-7349 -7346 0
7349 -7007 7346 0
-7350 7129 0
-7350 -7346 0
7350 -7129 7346 0
-7351 -7350 0
-7351 -7349 0
7351 7350 7349 0
-7352 7129 0
-7352 7007 0
7352 -7129 -7007 0
-7353 -7352 0
-7353 7351 0
7353 7352 -7351 0
-7354 7136 7009 0
-7354 -7136 -7009 0
7354 -7136 7009 0
7354 7136 -7009 0
-7355 7354 -7353 0
-7355 -7354 7353 0
7355 -7354 -7353 0
7355 7354 7353 0
-7356 7009 0
-7356 -7353 0
7356 -7009 7353 0
-7357 7136 0
-7357 -7353 0
7357 -7136 7353 0
-7358 -7357 0
-7358 -7356 0
7358 7357 7356 0
-7359 7136 0
-7359 7009 0
7359 -7136 -7009 0
-7360 -7359 0
-7360 7358 0
7360 7359 -7358 0
-7361 7143 7013 0
-7361 -7143 -7013 0
7361 -7143 7013 0
7361 7143 -7013 0
-7362 7361 -7360 0
-7362 -7361 7360 0
7362 -7361 -7360 0
7362 7361 7360 0
-7363 7013 0
-7363 -7360 0
7363 -7013 7360 0
-7364 7143 0
-7364 -7360 0
7364 -7143 7360 0
-7365 -7364 0
-7365 -7363 0
7365 7364 7363 0
-7366 7143 0
-7366 7013 0
7366 -7143 -7013 0
-7367 -7366 0
-7367 7365 0
7367 7366 -7365 0
-7368 7150 7015 0
-7368 -7150 -7015 0
7368 -7150 7015 0
7368 7150 -7015 0
-7369 7368 -7367 0
-7369 -7368 7367 0
7369 -7368 -7367 0
7369 7368 7367 0
-7370 7015 0
-7370 -7367 0
7370 -7015 7367 0
-7371 7150 0
-7371 -7367 0
7371 -7150 7367 0
-7372 -7371 0
-7372 -7370 0
7372 7371 7370 0
-7373 7150 0
-7373 7015 0
7373 -7150 -7015 0
-7374 -7373 0
-7374 7372 0
7374 7373 -7372 0
-7375 7157 7017 0
-7375 -7157 -7017 0
7375 -7157 7017 0
7375 7157 -7017 0
-7376 7375 -7374 0
-7376 -7375 7374 0
7376 -7375 -7374 0
7376 7375 7374 0
-7377 7017 0
-7377 -7374 0
7377 -7017 7374 0
-7378 7157 0
-7378 -7374 0
7378 -7157 7374 0
-7379 -7378 0
-7379 -7377 0
7379 7378 7377 0
-7380 7157 0
-7380 7017 0
7380 -7157 -7017 0
-7381 -7380 0
-7381 7379 0
7381 7380 -7379 0
-7382 7164 7019 0
-7382 -7164 -7019 0
7382 -7164 7019 0
7382 7164 -7019 0
-7383 7382 -7381 0
-7383 -7382 7381 0
7383 -7382 -7381 0
7383 7382 7381 0
-7384 7019 0
-7384 -7381 0
7384 -7019 7381 0
-7385 7164 0
-7385 -7381 0
7385 -7164 7381 0
-7386 -7385 0
-7386 -7384 0
7386 7385 7384 0
-7387 7164 0
-7387 7019 0
7387 -7164 -7019 0
-7388 -7387 0
-7388 7386 0
7388 7387 -7386 0
-7389 7171 7021 0
-7389 -7171 -7021 0
7389 -7171 7021 0
7389 7171 -7021 0
-7390 7389 -7388 0
-7390 -7389 7388 0
7390 -7389 -7388 0
7390 7389 7388 0
-7391 7021 0
-7391 -7388 0
7391 -7021 7388 0
-7392 7171 0
-7392 -7388 0
7392 -7171 7388 0
-7393 -7392 0
-7393 -7391 0
7393 7392 7391 0
-7394 7171 0
-7394 7021 0
7394 -7171 -7021 0
-7395 -7394 0
-7395 7393 0
7395 7394 -7393 0
-7396 7178 7023 0
-7396 -7178 -7023 0
7396 -7178 7023 0
7396 7178 -7023 0
-7397 7396 -7395 0
-7397 -7396 7395 0
7397 -7396 -7395 0
7397 7396 7395 0
-7398 7023 0
-7398 -7395 0
7398 -7023 7395 0
-7399 7178 0
-7399 -7395 0
7399 -7178 7395 0
-7400 -7399 0
-7400 -7398 0
7400 7399 7398 0
-7401 7178 0
-7401 7023 0
7401 -7178 -7023 0
-7402 -7401 0
-7402 7400 0
7402 7401 -7400 0
-7403 7185 7027 0
-7403 -7185 -7027 0
7403 -7185 7027 0
7403 7185 -7027 0
-7404 7403 -7402 0
-7404 -7403 7402 0
7404 -7403 -7402 0
7404 7403 7402 0
-7405 7027 0
-7405 -7402 0
7405 -7027 7402 0
-7406 7185 0
-7406 -7402 0
7406 -7185 7402 0
-7407 -7406 0
-7407 -7405 0
7407 7406 7405 0
-7408 7185 0
-7408 7027 0
7408 -7185 -7027 0
-7409 -7408 0
-7409 7407 0
7409 7408 -7407 0
-7410 7192 7031 0
-7410 -7192 -7031 0
7410 -7192 7031 0
7410 7192 -7031 0
-7411 7410 -7409 0
-7411 -7410 7409 0
7411 -7410 -7409 0
7411 7410 7409 0
-7412 7031 0
-7412 -7409 0
7412 -7031 7409 0
-7413 7192 0
-7413 -7409 0
7413 -7192 7409 0
-7414 -7413 0
-7414 -7412 0
7414 7413 7412 0
-7415 7192 0
-7415 7031 0
7415 -7192 -7031 0
-7416 -7415 0
-7416 7414 0
7416 7415 -7414 0
-7417 7199 7035 0
-7417 -7199 -7035 0
7417 -7199 7035 0
7417 7199 -7035 0
-7418 7417 -7416 0
-7418 -7417 7416 0
7418 -7417 -7416 0
7418 7417 7416 0
-7419 7035 0
-7419 -7416 0
7419 -7035 7416 0
-7420 7199 0
-7420 -7416 0
7420 -7199 7416 0
-7421 -7420 0
-7421 -7419 0
7421 7420 7419 0
-7422 7199 0
-7422 7035 0
7422 -7199 -7035 0
-7423 -7422 0
-7423 7421 0
7423 7422 -7421 0
-7424 7206 7039 0
-7424 -7206 -7039 0
7424 -7206 7039 0
7424 7206 -7039 0
-7425 7424 -7423 0
-7425 -7424 7423 0
7425 -7424 -7423 0
7425 7424 7423 0
-7426 7039 0
-7426 -7423 0
7426 -7039 7423 0
-7427 7206 0
-7427 -7423 0
7427 -7206 7423 0
-7428 -7427 0
-7428 -7426 0
7428 7427 7426 0
-7429 7206 0
-7429 7039 0
7429 -7206 -7039 0
-7430 -7429 0
-7430 7428 0
7430 7429 -7428 0
-7431 7213 7043 0
-7431 -7213 -7043 0
7431 -7213 7043 0
7431 7213 -7043 0
-7432 7431 -7430 0
-7432 -7431 7430 0
7432 -7431 -7430 0
7432 7431 7430 0
-7433 7043 0
-7433 -7430 0
7433 -7043 7430 0
-7434 7213 0
-7434 -7430 0
7434 -7213 7430 0
-7435 -7434 0
-7435 -7433 0
7435 7434 7433 0
-7436 7213 0
-7436 7043 0
7436 -7213 -7043 0
-7437 -7436 0
-7437 7435 0
7437 7436 -7435 0
-7438 7220 7047 0
-7438 -7220 -7047 0
7438 -7220 7047 0
7438 7220 -7047 0
-7439 7438 -7437 0
-7439 -7438 7437 0
7439 -7438 -7437 0
7439 7438 7437 0
-7440 7047 0
-7440 -7437 0
7440 -7047 7437 0
-7441 7220 0
-7441 -7437 0
7441 -7220 7437 0
-7442 -7441 0
-7442 -7440 0
7442 7441 7440 0
-7443 7220 0
-7443 7047 0
7443 -7220 -7047 0
-7444 -7443 0
-7444 7442 0
7444 7443 -7442 0
-7445 7227 7051 0
-7445 -7227 -7051 0
7445 -7227 7051 0
7445 7227 -7051 0
-7446 7445 -7444 0
-7446 -7445 7444 0
7446 -7445 -7444 0
7446 7445 7444 0
-7447 7051 0
-7447 -7444 0
7447 -7051 7444 0
-7448 7227 0
-7448 -7444 0
7448 -7227 7444 0
-7449 -7448 0
-7449 -7447 0
7449 7448 7447 0
-7450 7227 0
-7450 7051 0
7450 -7227 -7051 0
-7451 -7450 0
-7451 7449 0
7451 7450 -7449 0
-7452 7234 7053 0
-7452 -7234 -7053 0
7452 -7234 7053 0
7452 7234 -7053 0
-7453 7452 -7451 0
-7453 -7452 7451 0
7453 -7452 -7451 0
7453 7452 7451 0
-7454 7053 0
-7454 -7451 0
7454 -7053 7451 0
-7455 7234 0
-7455 -7451 0
7455 -7234 7451 0
-7456 -7455 0
-7456 -7454 0
7456 7455 7454 0
-7457 7234 0
-7457 7053 0
7457 -7234 -7053 0
-7458 -7457 0
-7458 7456 0
7458 7457 -7456 0
-7459 7241 7055 0
-7459 -7241 -7055 0
7459 -7241 7055 0
7459 7241 -7055 0
-7460 7459 -7458 0
-7460 -7459 7458 0
7460 -7459 -7458 0
7460 7459 7458 0
-7461 7055 0
-7461 -7458 0
7461 -7055 7458 0
-7462 7241 0
-7462 -7458 0
7462 -7241 7458 0
-7463 -7462 0
-7463 -7461 0
7463 7462 7461 0
-7464 7241 0
-7464 7055 0
7464 -7241 -7055 0
-7465 -7464 0
-7465 7463 0
7465 7464 -7463 0
-7466 7248 7057 0
-7466 -7248 -7057 0
7466 -7248 7057 0
7466 7248 -7057 0
-7467 7466 -7465 0
-7467 -7466 7465 0
7467 -7466 -7465 0
7467 7466 7465 0
-7468 7057 0
-7468 -7465 0
7468 -7057 7465 0
-7469 7248 0
-7469 -7465 0
7469 -7248 7465 0
-7470 -7469 0
-7470 -7468 0
7470 7469 7468 0
-7471 7248 0
-7471 7057 0
7471 -7248 -7057 0
-7472 -7471 0
-7472 7470 0
7472 7471 -7470 0
-7473 7255 7061 0
-7473 -7255 -7061 0
7473 -7255 7061 0
7473 7255 -7061 0
-7474 7473 -7472 0
-7474 -7473 7472 0
7474 -7473 -7472 0
7474 7473 7472 0
-7475 7061 0
-7475 -7472 0
7475 -7061 7472 0
-7476 7255 0
-7476 -7472 0
7476 -7255 7472 0
-7477 -7476 0
-7477 -7475 0
7477 7476 7475 0
-7478 7255 0
-7478 7061 0
7478 -7255 -7061 0
-7479 -7478 0
-7479 7477 0
7479 7478 -7477 0
-7480 7262 7063 0
-7480 -7262 -7063 0
7480 -7262 7063 0
7480 7262 -7063 0
-7481 7480 -7479 0
-7481 -7480 7479 0
7481 -7480 -7479 0
7481 7480 7479 0
-7482 7063 0
-7482 -7479 0
7482 -7063 7479 0
-7483 7262 0
-7483 -7479 0
7483 -7262 7479 0
-7484 -7483 0
-7484 -7482 0
7484 7483 7482 0
-7485 7262 0
-7485 7063 0
7485 -7262 -7063 0
-7486 -7485 0
-7486 7484 0
7486 7485 -7484 0
-7487 7269 7065 0
-7487 -7269 -7065 0
7487 -7269 7065 0
7487 7269 -7065 0
-7488 7487 -7486 0
-7488 -7487 7486 0
7488 -7487 -7486 0
7488 7487 7486 0
-7489 7065 0
-7489 -7486 0
7489 -7065 7486 0
-7490 7269 0
-7490 -7486 0
7490 -7269 7486 0
-7491 -7490 0
-7491 -7489 0
7491 7490 7489 0
-7492 7269 0
-7492 7065 0
7492 -7269 -7065 0
-7493 -7492 0
-7493 7491 0
7493 7492 -7491 0
-7494 7276 7069 0
-7494 -7276 -7069 0
7494 -7276 7069 0
7494 7276 -7069 0
-7495 7494 -7493 0
-7495 -7494 7493 0
7495 -7494 -7493 0
7495 7494 7493 0
-7496 7069 0
-7496 -7493 0
7496 -7069 7493 0
-7497 7276 0
-7497 -7493 0
7497 -7276 7493 0
-7498 -7497 0
-7498 -7496 0
7498 7497 7496 0
-7499 7276 0
-7499 7069 0
7499 -7276 -7069 0
-7500 -7499 0
-7500 7498 0
7500 7499 -7498 0
-7501 7283 7071 0
-7501 -7283 -7071 0
7501 -7283 7071 0
7501 7283 -7071 0
-7502 7501 -7500 0
-7502 -7501 7500 0
7502 -7501 -7500 0
7502 7501 7500 0
-7503 7071 0
-7503 -7500 0
7503 -7071 7500 0
-7504 7283 0
-7504 -7500 0
7504 -7283 7500 0
-7505 -7504 0
-7505 -7503 0
7505 7504 7503 0
-7506 7283 0
-7506 7071 0
7506 -7283 -7071 0
-7507 -7506 0
-7507 7505 0
7507 7506 -7505 0
-7508 7290 7073 0
-7508 -7290 -7073 0
7508 -7290 7073 0
7508 7290 -7073 0
-7509 7508 -7507 0
-7509 -7508 7507 0
7509 -7508 -7507 0
7509 7508 7507 0
-7510 7073 0
-7510 -7507 0
7510 -7073 7507 0
-7511 7290 0
-7511 -7507 0
7511 -7290 7507 0
-7512 -7511 0
-7512 -7510 0
7512 7511 7510 0
-7513 7290 0
-7513 7073 0
7513 -7290 -7073 0
-7514 -7513 0
-7514 7512 0
7514 7513 -7512 0
-7515 6615 -6620 0
-7515 -6615 6620 0
7515 -6615 -6620 0
7515 6615 6620 0
-7516 6615 0
-7516 -6620 0
7516 -6615 6620 0
-7517 6627 -6632 0
-7517 -6627 6632 0
7517 -6627 -6632 0
7517 6627 6632 0
-7518 7517 7516 0
-7518 -7517 -7516 0
7518 -7517 7516 0
7518 7517 -7516 0
-7519 -6632 0
-7519 7516 0
7519 6632 -7516 0
-7520 6627 0
-7520 7516 0
7520 -6627 -7516 0
-7521 -7520 0
-7521 -7519 0
7521 7520 7519 0
-7522 6627 0
-7522 -6632 0
7522 -6627 6632 0
-7523 -7522 0
-7523 7521 0
7523 7522 -7521 0
-7524 6639 -6644 0
-7524 -6639 6644 0
7524 -6639 -6644 0
7524 6639 6644 0
-7525 7524 -7523 0
-7525 -7524 7523 0
7525 -7524 -7523 0
7525 7524 7523 0
-7526 -6644 0
-7526 -7523 0
7526 6644 7523 0
-7527 6639 0
-7527 -7523 0
7527 -6639 7523 0
-7528 -7527 0
-7528 -7526 0
7528 7527 7526 0
-7529 6639 0
-7529 -6644 0
7529 -6639 6644 0
-7530 -7529 0
-7530 7528 0
7530 7529 -7528 0
-7531 6651 -6656 0
-7531 -6651 6656 0
7531 -6651 -6656 0
7531 6651 6656 0
-7532 7531 -7530 0
-7532 -7531 7530 0
7532 -7531 -7530 0
7532 7531 7530 0
-7533 -6656 0
-7533 -7530 0
7533 6656 7530 0
-7534 6651 0
-7534 -7530 0
7534 -6651 7530 0
-7535 -7534 0
-7535 -7533 0
7535 7534 7533 0
-7536 6651 0
-7536 -6656 0
7536 -6651 6656 0
-7537 -7536 0
-7537 7535 0
7537 7536 -7535 0
-7538 6663 -6668 0
-7538 -6663 6668 0
7538 -6663 -6668 0
7538 6663 6668 0
-7539 7538 -7537 0
-7539 -7538 7537 0
7539 -7538 -7537 0
7539 7538 7537 0
-7540 -6668 0
-7540 -7537 0
7540 6668 7537 0
-7541 6663 0
-7541 -7537 0
7541 -6663 7537 0
-7542 -7541 0
-7542 -7540 0
7542 7541 7540 0
-7543 6663 0
-7543 -6668 0
7543 -6663 6668 0
-7544 -7543 0
-7544 7542 0
7544 7543 -7542 0
-7545 6675 -6680 0
-7545 -6675 6680 0
7545 -6675 -6680 0
7545 6675 6680 0
-7546 7545 -7544 0
-7546 -7545 7544 0
7546 -7545 -7544 0
7546 7545 7544 0
-7547 -6680 0
-7547 -7544 0
7547 6680 7544 0
-7548 6675 0
-7548 -7544 0
7548 -6675 7544 0
-7549 -7548 0
-7549 -7547 0
7549 7548 7547 0
-7550 6675 0
-7550 -6680 0
7550 -6675 6680 0
-7551 -7550 0
-7551 7549 0
7551 7550 -7549 0
-7552 6687 -6692 0
-7552 -6687 6692 0
7552 -6687 -6692 0
7552 6687 6692 0
-7553 7552 -7551 0
-7553 -7552 7551 0
7553 -7552 -7551 0
7553 7552 7551 0
-7554 -6692 0
-7554 -7551 0
7554 6692 7551 0
-7555 6687 0
-7555 -7551 0
7555 -6687 7551 0
-7556 -7555 0
-7556 -7554 0
7556 7555 7554 0
-7557 6687 0
-7557 -6692 0
7557 -6687 6692 0
-7558 -7557 0
-7558 7556 0
7558 7557 -7556 0
-7559 6699 -6704 0
-7559 -6699 6704 0
7559 -6699 -6704 0
7559 6699 6704 0
-7560 7559 -7558 0
-7560 -7559 7558 0
7560 -7559 -7558 0
7560 7559 7558 0
-7561 -6704 0
-7561 -7558 0
7561 6704 7558 0
-7562 6699 0
-7562 -7558 0
7562 -6699 7558 0
-7563 -7562 0
-7563 -7561 0
7563 7562 7561 0
-7564 6699 0
-7564 -6704 0
7564 -6699 6704 0
-7565 -7564 0
-7565 7563 0
7565 7564 -7563 0
-7566 6711 -6716 0
-7566 -6711 6716 0
7566 -6711 -6716 0
7566 6711 6716 0
-7567 7566 -7565 0
-7567 -7566 7565 0
7567 -7566 -7565 0
7567 7566 7565 0
-7568 -6716 0
-7568 -7565 0
7568 6716 7565 0
-7569 6711 0
-7569 -7565 0
7569 -6711 7565 0
-7570 -7569 0
-7570 -7568 0
7570 7569 7568 0
-7571 6711 0
-7571 -6716 0
7571 -6711 6716 0
-7572 -7571 0
-7572 7570 0
7572 7571 -7570 0
-7573 6723 -6728 0
-7573 -6723 6728 0
7573 -6723 -6728 0
7573 6723 6728 0
-7574 7573 -7572 0
-7574 -7573 7572 0
7574 -7573 -7572 0
7574 7573 7572 0
-7575 -6728 0
-7575 -7572 0
7575 6728 7572 0
-7576 6723 0
-7576 -7572 0
7576 -6723 7572 0
-7577 -7576 0
-7577 -7575 0
7577 7576 7575 0
-7578 6723 0
-7578 -6728 0
7578 -6723 6728 0
-7579 -7578 0
-7579 7577 0
7579 7578 -7577 0
-7580 6735 -6740 0
-7580 -6735 6740 0
7580 -6735 -6740 0
7580 6735 6740 0
-7581 7580 -7579 0
-7581 -7580 7579 0
7581 -7580 -7579 0
7581 7580 7579 0
-7582 -6740 0
-7582 -7579 0
7582 6740 7579 0
-7583 6735 0
-7583 -7579 0
7583 -6735 7579 0
-7584 -7583 0
-7584 -7582 0
7584 7583 7582 0
-7585 6735 0
-7585 -6740 0
7585 -6735 6740 0
-7586 -7585 0
-7586 7584 0
7586 7585 -7584 0
-7587 6747 -6752 0
-7587 -6747 6752 0
7587 -6747 -6752 0
7587 6747 6752 0
-7588 7587 -7586 0
-7588 -7587 7586 0
7588 -7587 -7586 0
7588 7587 7586 0
-7589 -6752 0
-7589 -7586 0
7589 6752 7586 0
-7590 6747 0
-7590 -7586 0
7590 -6747 7586 0
-7591 -7590 0
-7591 -7589 0
7591 7590 7589 0
-7592 6747 0
-7592 -6752 0
7592 -6747 6752 0
-7593 -7592 0
-7593 7591 0
7593 7592 -7591 0
-7594 6759 -6764 0
-7594 -6759 6764 0
7594 -6759 -6764 0
7594 6759 6764 0
-7595 7594 -7593 0
-7595 -7594 7593 0
7595 -7594 -7593 0
7595 7594 7593 0
-7596 -6764 0
-7596 -7593 0
7596 6764 7593 0
-7597 6759 0
-7597 -7593 0
7597 -6759 7593 0
-7598 -7597 0
-7598 -7596 0
7598 7597 7596 0
-7599 6759 0
-7599 -6764 0
7599 -6759 6764 0
-7600 -7599 0
-7600 7598 0
7600 7599 -7598 0
-7601 6771 -6776 0
-7601 -6771 6776 0
7601 -6771 -6776 0
7601 6771 6776 0
-7602 7601 -7600 0
-7602 -7601 7600 0
7602 -7601 -7600 0
7602 7601 7600 0
-7603 -6776 0
-7603 -7600 0
7603 6776 7600 0
-7604 6771 0
-7604 -7600 0
7604 -6771 7600 0
-7605 -7604 0
-7605 -7603 0
7605 7604 7603 0
-7606 6771 0
-7606 -6776 0
7606 -6771 6776 0
-7607 -7606 0
-7607 7605 0
7607 7606 -7605 0
-7608 6783 -6788 0
-7608 -6783 6788 0
7608 -6783 -6788 0
7608 6783 6788 0
-7609 7608 -7607 0
-7609 -7608 7607 0
7609 -7608 -7607 0
7609 7608 7607 0
-7610 -6788 0
-7610 -7607 0
7610 6788 7607 0
-7611 6783 0
-7611 -7607 0
7611 -6783 7607 0
-7612 -7611 0
-7612 -7610 0
7612 7611 7610 0
-7613 6783 0
-7613 -6788 0
7613 -6783 6788 0
-7614 -7613 0
-7614 7612 0
7614 7613 -7612 0
-7615 6795 -6800 0
-7615 -6795 6800 0
7615 -6795 -6800 0
7615 6795 6800 0
-7616 7615 -7614 0
-7616 -7615 7614 0
7616 -7615 -7614 0
7616 7615 7614 0
-7617 -6800 0
-7617 -7614 0
7617 6800 7614 0
-7618 6795 0
-7618 -7614 0
7618 -6795 7614 0
-7619 -7618 0
-7619 -7617 0
7619 7618 7617 0
-7620 6795 0
-7620 -6800 0
7620 -6795 6800 0
-7621 -7620 0
-7621 7619 0
7621 7620 -7619 0
-7622 6807 -6812 0
-7622 -6807 6812 0
7622 -6807 -6812 0
7622 6807 6812 0
-7623 7622 -7621 0
-7623 -7622 7621 0
7623 -7622 -7621 0
7623 7622 7621 0
-7624 -6812 0
-7624 -7621 0
7624 6812 7621 0
-7625 6807 0
-7625 -7621 0
7625 -6807 7621 0
-7626 -7625 0
-7626 -7624 0
7626 7625 7624 0
-7627 6807 0
-7627 -6812 0
7627 -6807 6812 0
-7628 -7627 0
-7628 7626 0
7628 7627 -7626 0
-7629 6819 -6824 0
-7629 -6819 6824 0
7629 -6819 -6824 0
7629 6819 6824 0
-7630 7629 -7628 0
-7630 -7629 7628 0
7630 -7629 -7628 0
7630 7629 7628 0
-7631 -6824 0
-7631 -7628 0
7631 6824 7628 0
-7632 6819 0
-7632 -7628 0
7632 -6819 7628 0
-7633 -7632 0
-7633 -7631 0
7633 7632 7631 0
-7634 6819 0
-7634 -6824 0
7634 -6819 6824 0
-7635 -7634 0
-7635 7633 0
7635 7634 -7633 0
-7636 6831 -6836 0
-7636 -6831 6836 0
7636 -6831 -6836 0
7636 6831 6836 0
-7637 7636 -7635 0
-7637 -7636 7635 0
7637 -7636 -7635 0
7637 7636 7635 0
-7638 -6836 0
-7638 -7635 0
7638 6836 7635 0
-7639 6831 0
-7639 -7635 0
7639 -6831 7635 0
-7640 -7639 0
-7640 -7638 0
7640 7639 7638 0
-7641 6831 0
-7641 -6836 0
7641 -6831 6836 0
-7642 -7641 0
-7642 7640 0
7642 7641 -7640 0
-7643 6843 -6848 0
-7643 -6843 6848 0
7643 -6843 -6848 0
7643 6843 6848 0
-7644 7643 -7642 0
-7644 -7643 7642 0
7644 -7643 -7642 0
7644 7643 7642 0
-7645 -6848 0
-7645 -7642 0
7645 6848 7642 0
-7646 6843 0
-7646 -7642 0
7646 -6843 7642 0
-7647 -7646 0
-7647 -7645 0
7647 7646 7645 0
-7648 6843 0
-7648 -6848 0
7648 -6843 6848 0
-7649 -7648 0
-7649 7647 0
7649 7648 -7647 0
-7650 6855 -6860 0
-7650 -6855 6860 0
7650 -6855 -6860 0
7650 6855 6860 0
-7651 7650 -7649 0
-7651 -7650 7649 0
7651 -7650 -7649 0
7651 7650 7649 0
-7652 -6860 0
-7652 -7649 0
7652 6860 7649 0
-7653 6855 0
-7653 -7649 0
7653 -6855 7649 0
-7654 -7653 0
-7654 -7652 0
7654 7653 7652 0
-7655 6855 0
-7655 -6860 0
7655 -6855 6860 0
-7656 -7655 0
-7656 7654 0
7656 7655 -7654 0
-7657 6867 -6872 0
-7657 -6867 6872 0
7657 -6867 -6872 0
7657 6867 6872 0
-7658 7657 -7656 0
-7658 -7657 7656 0
7658 -7657 -7656 0
7658 7657 7656 0
-7659 -6872 0
-7659 -7656 0
7659 6872 7656 0
-7660 6867 0
-7660 -7656 0
7660 -6867 7656 0
-7661 -7660 0
-7661 -7659 0
7661 7660 7659 0
-7662 6867 0
-7662 -6872 0
7662 -6867 6872 0
-7663 -7662 0
-7663 7661 0
7663 7662 -7661 0
-7664 6879 -6884 0
-7664 -6879 6884 0
7664 -6879 -6884 0
7664 6879 6884 0
-7665 7664 -7663 0
-7665 -7664 7663 0
7665 -7664 -7663 0
7665 7664 7663 0
-7666 -6884 0
-7666 -7663 0
7666 6884 7663 0
-7667 6879 0
-7667 -7663 0
7667 -6879 7663 0
-7668 -7667 0
-7668 -7666 0
7668 7667 7666 0
-7669 6879 0
-7669 -6884 0
7669 -6879 6884 0
-7670 -7669 0
-7670 7668 0
7670 7669 -7668 0
-7671 6891 -6896 0
-7671 -6891 6896 0
7671 -6891 -6896 0
7671 6891 6896 0
-7672 7671 -7670 0
-7672 -7671 7670 0
7672 -7671 -7670 0
7672 7671 7670 0
-7673 -6896 0
-7673 -7670 0
7673 6896 7670 0
-7674 6891 0
-7674 -7670 0
7674 -6891 7670 0
-7675 -7674 0
-7675 -7673 0
7675 7674 7673 0
-7676 6891 0
-7676 -6896 0
7676 -6891 6896 0
-7677 -7676 0
-7677 7675 0
7677 7676 -7675 0
-7678 6903 -6908 0
-7678 -6903 6908 0
7678 -6903 -6908 0
7678 6903 6908 0
-7679 7678 -7677 0
-7679 -7678 7677 0
7679 -7678 -7677 0
7679 7678 7677 0
-7680 -6908 0
-7680 -7677 0
7680 6908 7677 0
-7681 6903 0
-7681 -7677 0
7681 -6903 7677 0
-7682 -7681 0
-7682 -7680 0
7682 7681 7680 0
-7683 6903 0
-7683 -6908 0
7683 -6903 6908 0
-7684 -7683 0
-7684 7682 0
7684 7683 -7682 0
-7685 6915 -6920 0
-7685 -6915 6920 0
7685 -6915 -6920 0
7685 6915 6920 0
-7686 7685 -7684 0
-7686 -7685 7684 0
7686 -7685 -7684 0
7686 7685 7684 0
-7687 -6920 0
-7687 -7684 0
7687 6920 7684 0
-7688 6915 0
-7688 -7684 0
7688 -6915 7684 0
-7689 -7688 0
-7689 -7687 0
7689 7688 7687 0
-7690 6915 0
-7690 -6920 0
7690 -6915 6920 0
-7691 -7690 0
-7691 7689 0
7691 7690 -7689 0
-7692 6927 -6932 0
-7692 -6927 6932 0
7692 -6927 -6932 0
7692 6927 6932 0
-7693 7692 -7691 0
-7693 -7692 7691 0
7693 -7692 -7691 0
7693 7692 7691 0
-7694 -6932 0
-7694 -7691 0
7694 6932 7691 0
-7695 6927 0
-7695 -7691 0
7695 -6927 7691 0
-7696 -7695 0
-7696 -7694 0
7696 7695 7694 0
-7697 6927 0
-7697 -6932 0
7697 -6927 6932 0
-7698 -7697 0
-7698 7696 0
7698 7697 -7696 0
-7699 6939 -6944 0
-7699 -6939 6944 0
7699 -6939 -6944 0
7699 6939 6944 0
-7700 7699 -7698 0
-7700 -7699 7698 0
7700 -7699 -7698 0
7700 7699 7698 0
-7701 -6944 0
-7701 -7698 0
7701 6944 7698 0
-7702 6939 0
-7702 -7698 0
7702 -6939 7698 0
-7703 -7702 0
-7703 -7701 0
7703 7702 7701 0
-7704 6939 0
-7704 -6944 0
7704 -6939 6944 0
-7705 -7704 0
-7705 7703 0
7705 7704 -7703 0
-7706 6951 -6956 0
-7706 -6951 6956 0
7706 -6951 -6956 0
7706 6951 6956 0
-7707 7706 -7705 0
-7707 -7706 7705 0
7707 -7706 -7705 0
7707 7706 7705 0
-7708 -6956 0
-7708 -7705 0
7708 6956 7705 0
-7709 6951 0
-7709 -7705 0
7709 -6951 7705 0
-7710 -7709 0
-7710 -7708 0
7710 7709 7708 0
-7711 6951 0
-7711 -6956 0
7711 -6951 6956 0
-7712 -7711 0
-7712 7710 0
7712 7711 -7710 0
-7713 6963 -6968 0
-7713 -6963 6968 0
7713 -6963 -6968 0
7713 6963 6968 0
-7714 7713 -7712 0
-7714 -7713 7712 0
7714 -7713 -7712 0
7714 7713 7712 0
-7715 -6968 0
-7715 -7712 0
7715 6968 7712 0
-7716 6963 0
-7716 -7712 0
7716 -6963 7712 0
-7717 -7716 0
-7717 -7715 0
7717 7716 7715 0
-7718 6963 0
-7718 -6968 0
7718 -6963 6968 0
-7719 -7718 0
-7719 7717 0
7719 7718 -7717 0
-7720 6975 -6980 0
-7720 -6975 6980 0
7720 -6975 -6980 0
7720 6975 6980 0
-7721 7720 -7719 0
-7721 -7720 7719 0
7721 -7720 -7719 0
7721 7720 7719 0
-7722 -6980 0
-7722 -7719 0
7722 6980 7719 0
-7723 6975 0
-7723 -7719 0
7723 -6975 7719 0
-7724 -7723 0
-7724 -7722 0
7724 7723 7722 0
-7725 6975 0
-7725 -6980 0
7725 -6975 6980 0
-7726 -7725 0
-7726 7724 0
7726 7725 -7724 0
-7727 6987 -6992 0
-7727 -6987 6992 0
7727 -6987 -6992 0
7727 6987 6992 0
-7728 7727 -7726 0
-7728 -7727 7726 0
7728 -7727 -7726 0
7728 7727 7726 0
-7729 -6992 0
-7729 -7726 0
7729 6992 7726 0
-7730 6987 0
-7730 -7726 0
7730 -6987 7726 0
-7731 -7730 0
-7731 -7729 0
7731 7730 7729 0
-7732 6987 0
-7732 -6992 0
7732 -6987 6992 0
-7733 -7732 0
-7733 7731 0
7733 7732 -7731 0
-7734 2025 7296 0
-7734 -2025 -7296 0
7734 -2025 7296 0
7734 2025 -7296 0
-7735 2025 0
-7735 7296 0
7735 -2025 -7296 0
-7736 2028 7299 0
-7736 -2028 -7299 0
7736 -2028 7299 0
7736 2028 -7299 0
-7737 7736 7735 0
-7737 -7736 -7735 0
7737 -7736 7735 0
7737 7736 -7735 0
-7738 7299 0
-7738 7735 0
7738 -7299 -7735 0
-7739 2028 0
-7739 7735 0
7739 -2028 -7735 0
-7740 -7739 0
-7740 -7738 0
7740 7739 7738 0
-7741 2028 0
-7741 7299 0
7741 -2028 -7299 0
-7742 -7741 0
-7742 7740 0
7742 7741 -7740 0
-7743 2035 7306 0
-7743 -2035 -7306 0
7743 -2035 7306 0
7743 2035 -7306 0
-7744 7743 -7742 0
-7744 -7743 7742 0
7744 -7743 -7742 0
7744 7743 7742 0
-7745 7306 0
-7745 -7742 0
7745 -7306 7742 0
-7746 2035 0
-7746 -7742 0
7746 -2035 7742 0
-7747 -7746 0
-7747 -7745 0
7747 7746 7745 0
-7748 2035 0
-7748 7306 0
7748 -2035 -7306 0
-7749 -7748 0
-7749 7747 0
7749 7748 -7747 0
-7750 2042 7313 0
-7750 -2042 -7313 0
7750 -2042 7313 0
7750 2042 -7313 0
-7751 7750 -7749 0
-7751 -7750 7749 0
7751 -7750 -7749 0
7751 7750 7749 0
-7752 7313 0
-7752 -7749 0
7752 -7313 7749 0
-7753 2042 0
-7753 -7749 0
7753 -2042 7749 0
-7754 -7753 0
-7754 -7752 0
7754 7753 7752 0
-7755 2042 0
-7755 7313 0
7755 -2042 -7313 0
-7756 -7755 0
-7756 7754 0
7756 7755 -7754 0
-7757 2049 7320 0
-7757 -2049 -7320 0
7757 -2049 7320 0
7757 2049 -7320 0
-7758 7757 -7756 0
-7758 -7757 7756 0
7758 -7757 -7756 0
7758 7757 7756 0
-7759 7320 0
-7759 -7756 0
7759 -7320 7756 0
-7760 2049 0
-7760 -7756 0
7760 -2049 7756 0
-7761 -7760 0
-7761 -7759 0
7761 7760 7759 0
-7762 2049 0
-7762 7320 0
7762 -2049 -7320 0
-7763 -7762 0
-7763 7761 0
7763 7762 -7761 0
-7764 2056 7327 0
-7764 -2056 -7327 0
7764 -2056 7327 0
7764 2056 -7327 0
-7765 7764 -7763 0
-7765 -7764 7763 0
7765 -7764 -7763 0
7765 7764 7763 0
-7766 7327 0
-7766 -7763 0
7766 -7327 7763 0
-7767 2056 0
-7767 -7763 0
7767 -2056 7763 0
-7768 -7767 0
-7768 -7766 0
7768 7767 7766 0
-7769 2056 0
-7769 7327 0
7769 -2056 -7327 0
-7770 -7769 0
-7770 7768 0
7770 7769 -7768 0
-7771 2063 7334 0
-7771 -2063 -7334 0
7771 -2063 7334 0
7771 2063 -7334 0
-7772 7771 -7770 0
-7772 -7771 7770 0
7772 -7771 -7770 0
7772 7771 7770 0
-7773 7334 0
-7773 -7770 0
7773 -7334 7770 0
-7774 2063 0
-7774 -7770 0
7774 -2063 7770 0
-7775 -7774 0
-7775 -7773 0
7775 7774 7773 0
-7776 2063 0
-7776 7334 0
7776 -2063 -7334 0
-7777 -7776 0
-7777 7775 0
7777 7776 -7775 0
-7778 2070 7341 0
-7778 -2070 -7341 0
7778 -2070 7341 0
7778 2070 -7341 0
-7779 7778 -7777 0
-7779 -7778 7777 0
7779 -7778 -7777 0
7779 7778 7777 0
-7780 7341 0
-7780 -7777 0
7780 -7341 7777 0
-7781 2070 0
-7781 -7777 0
7781 -2070 7777 0
-7782 -7781 0
-7782 -7780 0
7782 7781 7780 0
-7783 2070 0
-7783 7341 0
7783 -2070 -7341 0
-7784 -7783 0
-7784 7782 0
7784 7783 -7782 0
-7785 2077 7348 0
-7785 -2077 -7348 0
7785 -2077 7348 0
7785 2077 -7348 0
-7786 7785 -7784 0
-7786 -7785 7784 0
7786 -7785 -7784 0
7786 7785 7784 0
-7787 7348 0
-7787 -7784 0
7787 -7348 7784 0
-7788 2077 0
-7788 -7784 0
7788 -2077 7784 0
-7789 -7788 0
-7789 -7787 0
7789 7788 7787 0
-7790 2077 0
-7790 7348 0
7790 -2077 -7348 0
-7791 -7790 0
-7791 7789 0
7791 7790 -7789 0
-7792 2084 7355 0
-7792 -2084 -7355 0
7792 -2084 7355 0
7792 2084 -7355 0
-7793 7792 -7791 0
-7793 -7792 7791 0
7793 -7792 -7791 0
7793 7792 7791 0
-7794 7355 0
-7794 -7791 0
7794 -7355 7791 0
-7795 2084 0
-7795 -7791 0
7795 -2084 7791 0
-7796 -7795 0
-7796 -7794 0
7796 7795 7794 0
-7797 2084 0
-7797 7355 0
7797 -2084 -7355 0
-7798 -7797 0
-7798 7796 0
7798 7797 -7796 0
-7799 2091 7362 0
-7799 -2091 -7362 0
7799 -2091 7362 0
7799 2091 -7362 0
-7800 7799 -7798 0
-7800 -7799 7798 0
7800 -7799 -7798 0
7800 7799 7798 0
-7801 7362 0
-7801 -7798 0
7801 -7362 7798 0
-7802 2091 0
-7802 -7798 0
7802 -2091 7798 0
-7803 -7802 0
-7803 -7801 0
7803 7802 7801 0
-7804 2091 0
-7804 7362 0
7804 -2091 -7362 0
-7805 -7804 0
-7805 7803 0
7805 7804 -7803 0
-7806 2098 7369 0
-7806 -2098 -7369 0
7806 -2098 7369 0
7806 2098 -7369 0
-7807 7806 -7805 0
-7807 -7806 7805 0
7807 -7806 -7805 0
7807 7806 7805 0
-7808 7369 0
-7808 -7805 0
7808 -7369 7805 0
-7809 2098 0
-7809 -7805 0
7809 -2098 7805 0
-7810 -7809 0
-7810 -7808 0
7810 7809 7808 0
-7811 2098 0
-7811 7369 0
7811 -2098 -7369 0
-7812 -7811 0
-7812 7810 0
7812 7811 -7810 0
-7813 2105 7376 0
-7813 -2105 -7376 0
7813 -2105 7376 0
7813 2105 -7376 0
-7814 7813 -7812 0
-7814 -7813 7812 0
7814 -7813 -7812 0
7814 7813 7812 0
-7815 7376 0
-7815 -7812 0
7815 -7376 7812 0
-7816 2105 0
-7816 -7812 0
7816 -2105 7812 0
-7817 -7816 0
-7817 -7815 0
7817 7816 7815 0
-7818 2105 0
-7818 7376 0
7818 -2105 -7376 0
-7819 -7818 0
-7819 7817 0
7819 7818 -7817 0
-7820 2112 7383 0
-7820 -2112 -7383 0
7820 -2112 7383 0
7820 2112 -7383 0
-7821 7820 -7819 0
-7821 -7820 7819 0
7821 -7820 -7819 0
7821 7820 7819 0
-7822 7383 0
-7822 -7819 0
7822 -7383 7819 0
-7823 2112 0
-7823 -7819 0
7823 -2112 7819 0
-7824 -7823 0
-7824 -7822 0
7824 7823 7822 0
-7825 2112 0
-7825 7383 0
7825 -2112 -7383 0
-7826 -7825 0
-7826 7824 0
7826 7825 -7824 0
-7827 2119 7390 0
-7827 -2119 -7390 0
7827 -2119 7390 0
7827 2119 -7390 0
-7828 7827 -7826 0
-7828 -7827 7826 0
7828 -7827 -7826 0
7828 7827 7826 0
-7829 7390 0
-7829 -7826 0
7829 -7390 7826 0
-7830 2119 0
-7830 -7826 0
7830 -2119 7826 0
-7831 -7830 0
-7831 -7829 0
7831 7830 7829 0
-7832 2119 0
-7832 7390 0
7832 -2119 -7390 0
-7833 -7832 0
-7833 7831 0
7833 7832 -7831 0
-7834 2126 7397 0
-7834 -2126 -7397 0
7834 -2126 7397 0
7834 2126 -7397 0
-7835 7834 -7833 0
-7835 -7834 7833 0
7835 -7834 -7833 0
7835 7834 7833 0
-7836 7397 0
-7836 -7833 0
7836 -7397 7833 0
-7837 2126 0
-7837 -7833 0
7837 -2126 7833 0
-7838 -7837 0
-7838 -7836 0
7838 7837 7836 0
-7839 2126 0
-7839 7397 0
7839 -2126 -7397 0
-7840 -7839 0
-7840 7838 0
7840 7839 -7838 0
-7841 2133 7404 0
-7841 -2133 -7404 0
7841 -2133 7404 0
7841 2133 -7404 0
-7842 7841 -7840 0
-7842 -7841 7840 0
7842 -7841 -7840 0
7842 7841 7840 0
-7843 7404 0
-7843 -7840 0
7843 -7404 7840 0
-7844 2133 0
-7844 -7840 0
7844 -2133 7840 0
-7845 -7844 0
-7845 -7843 0
7845 7844 7843 0
-7846 2133 0
-7846 7404 0
7846 -2133 -7404 0
-7847 -7846 0
-7847 7845 0
7847 7846 -7845 0
-7848 2140 7411 0
-7848 -2140 -7411 0
7848 -2140 7411 0
7848 2140 -7411 0
-7849 7848 -7847 0
-7849 -7848 7847 0
7849 -7848 -7847 0
7849 7848 7847 0
-7850 7411 0
-7850 -7847 0
7850 -7411 7847 0
-7851 2140 0
-7851 -7847 0
7851 -2140 7847 0
-7852 -7851 0
-7852 -7850 0
7852 7851 7850 0
-7853 2140 0
-7853 7411 0
7853 -2140 -7411 0
-7854 -7853 0
-7854 7852 0
7854 7853 -7852 0
-7855 2147 7418 0
-7855 -2147 -7418 0
7855 -2147 7418 0
7855 2147 -7418 0
-7856 7855 -7854 0
-7856 -7855 7854 0
7856 -7855 -7854 0
7856 7855 7854 0
-7857 7418 0
-7857 -7854 0
7857 -7418 7854 0
-7858 2147 0
-7858 -7854 0
7858 -2147 7854 0
-7859 -7858 0
-7859 -7857 0
7859 7858 7857 0
-7860 2147 0
-7860 7418 0
7860 -2147 -7418 0
-7861 -7860 0
-7861 7859 0
7861 7860 -7859 0
-7862 2154 7425 0
-7862 -2154 -7425 0
7862 -2154 7425 0
7862 2154 -7425 0
-7863 7862 -7861 0
-7863 -7862 7861 0
7863 -7862 -7861 0
7863 7862 7861 0
-7864 7425 0
-7864 -7861 0
7864 -7425 7861 0
-7865 2154 0
-7865 -7861 0
7865 -2154 7861 0
-7866 -7865 0
-7866 -7864 0
7866 7865 7864 0
-7867 2154 0
-7867 7425 0
7867 -2154 -7425 0
-7868 -7867 0
-7868 7866 0
7868 7867 -7866 0
-7869 2161 7432 0
-7869 -2161 -7432 0
7869 -2161 7432 0
7869 2161 -7432 0
-7870 7869 -7868 0
-7870 -7869 7868 0
7870 -7869 -7868 0
7870 7869 7868 0
-7871 7432 0
-7871 -7868 0
7871 -7432 7868 0
-7872 2161 0
-7872 -7868 0
7872 -2161 7868 0
-7873 -7872 0
-7873 -7871 0
7873 7872 7871 0
-7874 2161 0
-7874 7432 0
7874 -2161 -7432 0
-7875 -7874 0
-7875 7873 0
7875 7874 -7873 0
-7876 2168 7439 0
-7876 -2168 -7439 0
7876 -2168 7439 0
7876 2168 -7439 0
-7877 7876 -7875 0
-7877 -7876 7875 0
7877 -7876 -7875 0
7877 7876 7875 0
-7878 7439 0
-7878 -7875 0
7878 -7439 7875 0
-7879 2168 0
-7879 -7875 0
7879 -2168 7875 0
-7880 -7879 0
-7880 -7878 0
7880 7879 7878 0
-7881 2168 0
-7881 7439 0
7881 -2168 -7439 0
-7882 -7881 0
-7882 7880 0
7882 7881 -7880 0
-7883 2175 7446 0
-7883 -2175 -7446 0
7883 -2175 7446 0
7883 2175 -7446 0
-7884 7883 -7882 0
-7884 -7883 7882 0
7884 -7883 -7882 0
7884 7883 7882 0
-7885 7446 0
-7885 -7882 0
7885 -7446 7882 0
-7886 2175 0
-7886 -7882 0
7886 -2175 7882 0
-7887 -7886 0
-7887 -7885 0
7887 7886 7885 0
-7888 2175 0
-7888 7446 0
7888 -2175 -7446 0
-7889 -7888 0
-7889 7887 0
7889 7888 -7887 0
-7890 2182 7453 0
-7890 -2182 -7453 0
7890 -2182 7453 0
7890 2182 -7453 0
-7891 7890 -7889 0
-7891 -7890 7889 0
7891 -7890 -7889 0
7891 7890 7889 0
-7892 7453 0
-7892 -7889 0
7892 -7453 7889 0
-7893 2182 0
-7893 -7889 0
7893 -2182 7889 0
-7894 -7893 0
-7894 -7892 0
7894 7893 7892 0
-7895 2182 0
-7895 7453 0
7895 -2182 -7453 0
-7896 -7895 0
-7896 7894 0
7896 7895 -7894 0
-7897 2189 7460 0
-7897 -2189 -7460 0
7897 -2189 7460 0
7897 2189 -7460 0
-7898 7897 -7896 0
-7898 -7897 7896 0
7898 -7897 -7896 0
7898 7897 7896 0
-7899 7460 0
-7899 -7896 0
7899 -7460 7896 0
-7900 2189 0
-7900 -7896 0
7900 -2189 7896 0
-7901 -7900 0
-7901 -7899 0
7901 7900 7899 0
-7902 2189 0
-7902 7460 0
7902 -2189 -7460 0
-7903 -7902 0
-7903 7901 0
7903 7902 -7901 0
-7904 2196 7467 0
-7904 -2196 -7467 0
7904 -2196 7467 0
7904 2196 -7467 0
-7905 7904 -7903 0
-7905 -7904 7903 0
7905 -7904 -7903 0
7905 7904 7903 0
-7906 7467 0
-7906 -7903 0
7906 -7467 7903 0
-7907 2196 0
-7907 -7903 0
7907 -2196 7903 0
-7908 -7907 0
-7908 -7906 0
7908 7907 7906 0
-7909 2196 0
-7909 7467 0
7909 -2196 -7467 0
-7910 -7909 0
-7910 7908 0
7910 7909 -7908 0
-7911 2203 7474 0
-7911 -2203 -7474 0
7911 -2203 7474 0
7911 2203 -7474 0
-7912 7911 -7910 0
-7912 -7911 7910 0
7912 -7911 -7910 0
7912 7911 7910 0
-7913 7474 0
-7913 -7910 0
7913 -7474 7910 0
-7914 2203 0
-7914 -7910 0
7914 -2203 7910 0
-7915 -7914 0
-7915 -7913 0
7915 7914 7913 0
-7916 2203 0
-7916 7474 0
7916 -2203 -7474 0
-7917 -7916 0
-7917 7915 0
7917 7916 -7915 0
-7918 2210 7481 0
-7918 -2210 -7481 0
7918 -2210 7481 0
7918 2210 -7481 0
-7919 7918 -7917 0
-7919 -7918 7917 0
7919 -7918 -7917 0
7919 7918 7917 0
-7920 7481 0
-7920 -7917 0
7920 -7481 7917 0
-7921 2210 0
-7921 -7917 0
7921 -2210 7917 0
-7922 -7921 0
-7922 -7920 0
7922 7921 7920 0
-7923 2210 0
-7923 7481 0
7923 -2210 -7481 0
-7924 -7923 0
-7924 7922 0
7924 7923 -7922 0
-7925 2217 7488 0
-7925 -2217 -7488 0
7925 -2217 7488 0
7925 2217 -7488 0
-7926 7925 -7924 0
-7926 -7925 7924 0
7926 -7925 -7924 0
7926 7925 7924 0
-7927 7488 0
-7927 -7924 0
7927 -7488 7924 0
-7928 2217 0
-7928 -7924 0
7928 -2217 7924 0
-7929 -7928 0
-7929 -7927 0
7929 7928 7927 0
-7930 2217 0
-7930 7488 0
7930 -2217 -7488 0
-7931 -7930 0
-7931 7929 0
7931 7930 -7929 0
-7932 2224 7495 0
-7932 -2224 -7495 0
7932 -2224 7495 0
7932 2224 -7495 0
-7933 7932 -7931 0
-7933 -7932 7931 0
7933 -7932 -7931 0
7933 7932 7931 0
-7934 7495 0
-7934 -7931 0
7934 -7495 7931 0
-7935 2224 0
-7935 -7931 0
7935 -2224 7931 0
-7936 -7935 0
-7936 -7934 0
7936 7935 7934 0
-7937 2224 0
-7937 7495 0
7937 -2224 -7495 0
-7938 -7937 0
-7938 7936 0
7938 7937 -7936 0
-7939 2231 7502 0
-7939 -2231 -7502 0
7939 -2231 7502 0
7939 2231 -7502 0
-7940 7939 -7938 0
-7940 -7939 7938 0
7940 -7939 -7938 0
7940 7939 7938 0
-7941 7502 0
-7941 -7938 0
7941 -7502 7938 0
-7942 2231 0
-7942 -7938 0
7942 -2231 7938 0
-7943 -7942 0
-7943 -7941 0
7943 7942 7941 0
-7944 2231 0
-7944 7502 0
7944 -2231 -7502 0
-7945 -7944 0
-7945 7943 0
7945 7944 -7943 0
-7946 2238 7509 0
-7946 -2238 -7509 0
7946 -2238 7509 0
7946 2238 -7509 0
-7947 7946 -7945 0
-7947 -7946 7945 0
7947 -7946 -7945 0
7947 7946 7945 0
-7948 7509 0
-7948 -7945 0
7948 -7509 7945 0
-7949 2238 0
-7949 -7945 0
7949 -2238 7945 0
-7950 -7949 0
-7950 -7948 0
7950 7949 7948 0
-7951 2238 0
-7951 7509 0
7951 -2238 -7509 0
-7952 -7951 0
-7952 7950 0
7952 7951 -7950 0
-7953 7296 7515 0
-7953 -7296 -7515 0
7953 -7296 7515 0
7953 7296 -7515 0
-7954 7296 0
-7954 7515 0
7954 -7296 -7515 0
-7955 7299 7518 0
-7955 -7299 -7518 0
7955 -7299 7518 0
7955 7299 -7518 0
-7956 7955 7954 0
-7956 -7955 -7954 0
7956 -7955 7954 0
7956 7955 -7954 0
-7957 7518 0
-7957 7954 0
7957 -7518 -7954 0
-7958 7299 0
-7958 7954 0
7958 -7299 -7954 0
-7959 -7958 0
-7959 -7957 0
7959 7958 7957 0
-7960 7299 0
-7960 7518 0
7960 -7299 -7518 0
-7961 -7960 0
-7961 7959 0
7961 7960 -7959 0
-7962 7306 7525 0
-7962 -7306 -7525 0
7962 -7306 7525 0
7962 7306 -7525 0
-7963 7962 -7961 0
-7963 -7962 7961 0
7963 -7962 -7961 0
7963 7962 7961 0
-7964 7525 0
-7964 -7961 0
7964 -7525 7961 0
-7965 7306 0
-7965 -7961 0
7965 -7306 7961 0
-7966 -7965 0
-7966 -7964 0
7966 7965 7964 0
-7967 7306 0
-7967 7525 0
7967 -7306 -7525 0
-7968 -7967 0
-7968 7966 0
7968 7967 -7966 0
-7969 7313 7532 0
-7969 -7313 -7532 0
7969 -7313 7532 0
7969 7313 -7532 0
-7970 7969 -7968 0
-7970 -7969 7968 0
7970 -7969 -7968 0
7970 7969 7968 0
-7971 7532 0
-7971 -7968 0
7971 -7532 7968 0
-7972 7313 0
-7972 -7968 0
7972 -7313 7968 0
-7973 -7972 0
-7973 -7971 0
7973 7972 7971 0
-7974 7313 0
-7974 7532 0
7974 -7313 -7532 0
-7975 -7974 0
-7975 7973 0
7975 7974 -7973 0
-7976 7320 7539 0
-7976 -7320 -7539 0
7976 -7320 7539 0
7976 7320 -7539 0
-7977 7976 -7975 0
-7977 -7976 7975 0
7977 -7976 -7975 0
7977 7976 7975 0
-7978 7539 0
-7978 -7975 0
7978 -7539 7975 0
-7979 7320 0
-7979 -7975 0
7979 -7320 7975 0
-7980 -7979 0
-7980 -7978 0
7980 7979 7978 0
-7981 7320 0
-7981 7539 0
7981 -7320 -7539 0
-7982 -7981 0
-7982 7980 0
7982 7981 -7980 0
-7983 7327 7546 0
-7983 -7327 -7546 0
7983 -7327 7546 0
7983 7327 -7546 0
-7984 7983 -7982 0
-7984 -7983 7982 0
7984 -7983 -7982 0
7984 7983 7982 0
-7985 7546 0
-7985 -7982 0
7985 -7546 7982 0
-7986 7327 0
-7986 -7982 0
7986 -7327 7982 0
-7987 -7986 0
-7987 -7985 0
7987 7986 7985 0
-7988 7327 0
-7988 7546 0
7988 -7327 -7546 0
-7989 -7988 0
-7989 7987 0
7989 7988 -7987 0
-7990 7334 7553 0
-7990 -7334 -7553 0
7990 -7334 7553 0
7990 7334 -7553 0
-7991 7990 -7989 0
-7991 -7990 7989 0
7991 -7990 -7989 0
7991 7990 7989 0
-7992 7553 0
-7992 -7989 0
7992 -7553 7989 0
-7993 7334 0
-7993 -7989 0
7993 -7334 7989 0
-7994 -7993 0
-7994 -7992 0
7994 7993 7992 0
-7995 7334 0
-7995 7553 0
7995 -7334 -7553 0
-7996 -7995 0
-7996 7994 0
7996 7995 -7994 0
-7997 7341 7560 0
-7997 -7341 -7560 0
7997 -7341 7560 0
7997 7341 -7560 0
-7998 7997 -7996 0
-7998 -7997 7996 0
7998 -7997 -7996 0
7998 7997 7996 0
-7999 7560 0
-7999 -7996 0
7999 -7560 7996 0
-8000 7341 0
-8000 -7996 0
8000 -7341 7996 0
-8001 -8000 0
-8001 -7999 0
8001 8000 7999 0
-8002 7341 0
-8002 7560 0
8002 -7341 -7560 0
-8003 -8002 0
-8003 8001 0
8003 8002 -8001 0
-8004 7348 7567 0
-8004 -7348 -7567 0
8004 -7348 7567 0
8004 7348 -7567 0
-8005 8004 -8003 0
-8005 -8004 8003 0
8005 -8004 -8003 0
8005 8004 8003 0
-8006 7567 0
-8006 -8003 0
8006 -7567 8003 0
-8007 7348 0
-8007 -8003 0
8007 -7348 8003 0
-8008 -8007 0
-8008 -8006 0
8008 8007 8006 0
-8009 7348 0
-8009 7567 0
8009 -7348 -7567 0
-8010 -8009 0
-8010 8008 0
8010 8009 -8008 0
-8011 7355 7574 0
-8011 -7355 -7574 0
8011 -7355 7574 0
8011 7355 -7574 0
-8012 8011 -8010 0
-8012 -8011 8010 0
8012 -8011 -8010 0
8012 8011 8010 0
-8013 7574 0
-8013 -8010 0
8013 -7574 8010 0
-8014 7355 0
-8014 -8010 0
8014 -7355 8010 0
-8015 -8014 0
-8015 -8013 0
8015 8014 8013 0
-8016 7355 0
-8016 7574 0
8016 -7355 -7574 0
-8017 -8016 0
-8017 8015 0
8017 8016 -8015 0
-8018 7362 7581 0
-8018 -7362 -7581 0
8018 -7362 7581 0
8018 7362 -7581 0
-8019 8018 -8017 0
-8019 -8018 8017 0
8019 -8018 -8017 0
8019 8018 8017 0
-8020 7581 0
-8020 -8017 0
8020 -7581 8017 0
-8021 7362 0
-8021 -8017 0
8021 -7362 8017 0
-8022 -8021 0
-8022 -8020 0
8022 8021 8020 0
-8023 7362 0
-8023 7581 0
8023 -7362 -7581 0
-8024 -8023 0
-8024 8022 0
8024 8023 -8022 0
-8025 7369 7588 0
-8025 -7369 -7588 0
8025 -7369 7588 0
8025 7369 -7588 0
-8026 8025 -8024 0
-8026 -8025 8024 0
8026 -8025 -8024 0
8026 8025 8024 0
-8027 7588 0
-8027 -8024 0
8027 -7588 8024 0
-8028 7369 0
-8028 -8024 0
8028 -7369 8024 0
-8029 -8028 0
-8029 -8027 0
8029 8028 8027 0
-8030 7369 0
-8030 7588 0
8030 -7369 -7588 0
-8031 -8030 0
-8031 8029 0
8031 8030 -8029 0
-8032 7376 7595 0
-8032 -7376 -7595 0
8032 -7376 7595 0
8032 7376 -7595 0
-8033 8032 -8031 0
-8033 -8032 8031 0
8033 -8032 -8031 0
8033 8032 8031 0
-8034 7595 0
-8034 -8031 0
8034 -7595 8031 0
-8035 7376 0
-8035 -8031 0
8035 -7376 8031 0
-8036 -8035 0
-8036 -8034 0
8036 8035 8034 0
-8037 7376 0
-8037 7595 0
8037 -7376 -7595 0
-8038 -8037 0
-8038 8036 0
8038 8037 -8036 0
-8039 7383 7602 0
-8039 -7383 -7602 0
8039 -7383 7602 0
8039 7383 -7602 0
-8040 8039 -8038 0
-8040 -8039 8038 0
8040 -8039 -8038 0
8040 8039 8038 0
-8041 7602 0
-8041 -8038 0
8041 -7602 8038 0
-8042 7383 0
-8042 -8038 0
8042 -7383 8038 0
-8043 -8042 0
-8043 -8041 0
8043 8042 8041 0
-8044 7383 0
-8044 7602 0
8044 -7383 -7602 0
-8045 -8044 0
-8045 8043 0
8045 8044 -8043 0
-8046 7390 7609 0
-8046 -7390 -7609 0
8046 -7390 7609 0
8046 7390 -7609 0
-8047 8046 -8045 0
-8047 -8046 8045 0
8047 -8046 -8045 0
8047 8046 8045 0
-8048 7609 0
-8048 -8045 0
8048 -7609 8045 0
-8049 7390 0
-8049 -8045 0
8049 -7390 8045 0
-8050 -8049 0
-8050 -8048 0
8050 8049 8048 0
-8051 7390 0
-8051 7609 0
8051 -7390 -7609 0
-8052 -8051 0
-8052 8050 0
8052 8051 -8050 0
-8053 7397 7616 0
-8053 -7397 -7616 0
8053 -7397 7616 0
8053 7397 -7616 0
-8054 8053 -8052 0
-8054 -8053 8052 0
8054 -8053 -8052 0
8054 8053 8052 0
-8055 7616 0
-8055 -8052 0
8055 -7616 8052 0
-8056 7397 0
-8056 -8052 0
8056 -7397 8052 0
-8057 -8056 0
-8057 -8055 0
8057 8056 8055 0
-8058 7397 0
-8058 7616 0
8058 -7397 -7616 0
-8059 -8058 0
-8059 8057 0
8059 8058 -8057 0
-8060 7404 7623 0
-8060 -7404 -7623 0
8060 -7404 7623 0
8060 7404 -7623 0
-8061 8060 -8059 0
-8061 -8060 8059 0
8061 -8060 -8059 0
8061 8060 8059 0
-8062 7623 0
-8062 -8059 0
8062 -7623 8059 0
-8063 7404 0
-8063 -8059 0
8063 -7404 8059 0
-8064 -8063 0
-8064 -8062 0
8064 8063 8062 0
-8065 7404 0
-8065 7623 0
8065 -7404 -7623 0
-8066 -8065 0
-8066 8064 0
8066 8065 -8064 0
-8067 7411 7630 0
-8067 -7411 -7630 0
8067 -7411 7630 0
8067 7411 -7630 0
-8068 8067 -8066 0
-8068 -8067 8066 0
8068 -8067 -8066 0
8068 8067 8066 0
-8069 7630 0
-8069 -8066 0
8069 -7630 8066 0
-8070 7411 0
-8070 -8066 0
8070 -7411 8066 0
-8071 -8070 0
-8071 -8069 0
8071 8070 8069 0
-8072 7411 0
-8072 7630 0
8072 -7411 -7630 0
-8073 -8072 0
-8073 8071 0
8073 8072 -8071 0
-8074 7418 7637 0
-8074 -7418 -7637 0
8074 -7418 7637 0
8074 7418 -7637 0
-8075 8074 -8073 0
-8075 -8074 8073 0
8075 -8074 -8073 0
8075 8074 8073 0
-8076 7637 0
-8076 -8073 0
8076 -7637 8073 0
-8077 7418 0
-8077 -8073 0
8077 -7418 8073 0
-8078 -8077 0
-8078 -8076 0
8078 8077 8076 0
-8079 7418 0
-8079 7637 0
8079 -7418 -7637 0
-8080 -8079 0
-8080 8078 0
8080 8079 -8078 0
-8081 7425 7644 0
-8081 -7425 -7644 0
8081 -7425 7644 0
8081 7425 -7644 0
-8082 8081 -8080 0
-8082 -8081 8080 0
8082 -8081 -8080 0
8082 8081 8080 0
-8083 7644 0
-8083 -8080 0
8083 -7644 8080 0
-8084 7425 0
-8084 -8080 0
8084 -7425 8080 0
-8085 -8084 0
-8085 -8083 0
8085 8084 8083 0
-8086 7425 0
-8086 7644 0
8086 -7425 -7644 0
-8087 -8086 0
-8087 8085 0
8087 8086 -8085 0
-8088 7432 7651 0
-8088 -7432 -7651 0
8088 -7432 7651 0
8088 7432 -7651 0
-8089 8088 -8087 0
-8089 -8088 8087 0
8089 -8088 -8087 0
8089 8088 8087 0
-8090 7651 0
-8090 -8087 0
8090 -7651 8087 0
-8091 7432 0
-8091 -8087 0
8091 -7432 8087 0
-8092 -8091 0
-8092 -8090 0
8092 8091 8090 0
-8093 7432 0
-8093 7651 0
8093 -7432 -7651 0
-8094 -8093 0
-8094 8092 0
8094 8093 -8092 0
-8095 7439 7658 0
-8095 -7439 -7658 0
8095 -7439 7658 0
8095 7439 -7658 0
-8096 8095 -8094 0
-8096 -8095 8094 0
8096 -8095 -8094 0
8096 8095 8094 0
-8097 7658 0
-8097 -8094 0
8097 -7658 8094 0
-8098 7439 0
-8098 -8094 0
8098 -7439 8094 0
-8099 -8098 0
-8099 -8097 0
8099 8098 8097 0
-8100 7439 0
-8100 7658 0
8100 -7439 -7658 0
-8101 -8100 0
-8101 8099 0
8101 8100 -8099 0
-8102 7446 7665 0
-8102 -7446 -7665 0
8102 -7446 7665 0
8102 7446 -7665 0
-8103 8102 -8101 0
-8103 -8102 8101 0
8103 -8102 -8101 0
8103 8102 8101 0
-8104 7665 0
-8104 -8101 0
8104 -7665 8101 0
-8105 7446 0
-8105 -8101 0
8105 -7446 8101 0
-8106 -8105 0
-8106 -8104 0
8106 8105 8104 0
-8107 7446 0
-8107 7665 0
8107 -7446 -7665 0
-8108 -8107 0
-8108 8106 0
8108 8107 -8106 0
-8109 7453 7672 0
-8109 -7453 -7672 0
8109 -7453 7672 0
8109 7453 -7672 0
-8110 8109 -8108 0
-8110 -8109 8108 0
8110 -8109 -8108 0
8110 8109 8108 0
-8111 7672 0
-8111 -8108 0
8111 -7672 8108 0
-8112 7453 0
-8112 -8108 0
8112 -7453 8108 0
-8113 -8112 0
-8113 -8111 0
8113 8112 8111 0
-8114 7453 0
-8114 7672 0
8114 -7453 -7672 0
-8115 -8114 0
-8115 8113 0
8115 8114 -8113 0
-8116 7460 7679 0
-8116 -7460 -7679 0
8116 -7460 7679 0
8116 7460 -7679 0
-8117 8116 -8115 0
-8117 -8116 8115 0
8117 -8116 -8115 0
8117 8116 8115 0
-8118 7679 0
-8118 -8115 0
8118 -7679 8115 0
-8119 7460 0
-8119 -8115 0
8119 -7460 8115 0
-8120 -8119 0
-8120 -8118 0
8120 8119 8118 0
-8121 7460 0
-8121 7679 0
8121 -7460 -7679 0
-8122 -8121 0
-8122 8120 0
8122 8121 -8120 0
-8123 7467 7686 0
-8123 -7467 -7686 0
8123 -7467 7686 0
8123 7467 -7686 0
-8124 8123 -8122 0
-8124 -8123 8122 0
8124 -8123 -8122 0
8124 8123 8122 0
-8125 7686 0
-8125 -8122 0
8125 -7686 8122 0
-8126 7467 0
-8126 -8122 0
8126 -7467 8122 0
-8127 -8126 0
-8127 -8125 0
8127 8126 8125 0
-8128 7467 0
-8128 7686 0
8128 -7467 -7686 0
-8129 -8128 0
-8129 8127 0
8129 8128 -8127 0
-8130 7474 7693 0
-8130 -7474 -7693 0
8130 -7474 7693 0
8130 7474 -7693 0
-8131 8130 -8129 0
-8131 -8130 8129 0
8131 -8130 -8129 0
8131 8130 8129 0
-8132 7693 0
-8132 -8129 0
8132 -7693 8129 0
-8133 7474 0
-8133 -8129 0
8133 -7474 8129 0
-8134 -8133 0
-8134 -8132 0
8134 8133 8132 0
-8135 7474 0
-8135 7693 0
8135 -7474 -7693 0
-8136 -8135 0
-8136 8134 0
8136 8135 -8134 0
-8137 7481 7700 0
-8137 -7481 -7700 0
8137 -7481 7700 0
8137 7481 -7700 0
-8138 8137 -8136 0
-8138 -8137 8136 0
8138 -8137 -8136 0
8138 8137 8136 0
-8139 7700 0
-8139 -8136 0
8139 -7700 8136 0
-8140 7481 0
-8140 -8136 0
8140 -7481 8136 0
-8141 -8140 0
-8141 -8139 0
8141 8140 8139 0
-8142 7481 0
-8142 7700 0
8142 -7481 -7700 0
-8143 -8142 0
-8143 8141 0
8143 8142 -8141 0
-8144 7488 7707 0
-8144 -7488 -7707 0
8144 -7488 7707 0
8144 7488 -7707 0
-8145 8144 -8143 0
-8145 -8144 8143 0
8145 -8144 -8143 0
8145 8144 8143 0
-8146 7707 0
-8146 -8143 0
8146 -7707 8143 0
-8147 7488 0
-8147 -8143 0
8147 -7488 8143 0
-8148 -8147 0
-8148 -8146 0
8148 8147 8146 0
-8149 7488 0
-8149 7707 0
8149 -7488 -7707 0
-8150 -8149 0
-8150 8148 0
8150 8149 -8148 0
-8151 7495 7714 0
-8151 -7495 -7714 0
8151 -7495 7714 0
8151 7495 -7714 0
-8152 8151 -8150 0
-8152 -8151 8150 0
8152 -8151 -8150 0
8152 8151 8150 0
-8153 7714 0
-8153 -8150 0
8153 -7714 8150 0
-8154 7495 0
-8154 -8150 0
8154 -7495 8150 0
-8155 -8154 0
-8155 -8153 0
8155 8154 8153 0
-8156 7495 0
-8156 7714 0
8156 -7495 -7714 0
-8157 -8156 0
-8157 8155 0
8157 8156 -8155 0
-8158 7502 7721 0
-8158 -7502 -7721 0
8158 -7502 7721 0
8158 7502 -7721 0
-8159 8158 -8157 0
-8159 -8158 8157 0
8159 -8158 -8157 0
8159 8158 8157 0
-8160 7721 0
-8160 -8157 0
8160 -7721 8157 0
-8161 7502 0
-8161 -8157 0
8161 -7502 8157 0
-8162 -8161 0
-8162 -8160 0
8162 8161 8160 0
-8163 7502 0
-8163 7721 0
8163 -7502 -7721 0
-8164 -8163 0
-8164 8162 0
8164 8163 -8162 0
-8165 7509 7728 0
-8165 -7509 -7728 0
8165 -7509 7728 0
8165 7509 -7728 0
-8166 8165 -8164 0
-8166 -8165 8164 0
8166 -8165 -8164 0
8166 8165 8164 0
-8167 7728 0
-8167 -8164 0
8167 -7728 8164 0
-8168 7509 0
-8168 -8164 0
8168 -7509 8164 0
-8169 -8168 0
-8169 -8167 0
8169 8168 8167 0
-8170 7509 0
-8170 7728 0
8170 -7509 -7728 0
-8171 -8170 0
-8171 8169 0
8171 8170 -8169 0
-8172 7772 7807 0
-8172 -7772 -7807 0
8172 -7772 7807 0
8172 7772 -7807 0
-8173 8172 7905 0
-8173 -8172 -7905 0
8173 -8172 7905 0
8173 8172 -7905 0
-8174 -7734 0
-8174 -4191 0
8174 7734 4191 0
-8175 7734 0
-8175 6171 0
8175 -7734 -6171 0
-8176 8175 8174 0
-8176 -8175 -8174 0
8176 -8175 8174 0
8176 8175 -8174 0
-8177 7963 8040 0
-8177 -7963 -8040 0
8177 -7963 8040 0
8177 7963 -8040 0
-8178 8177 8103 0
-8178 -8177 -8103 0
8178 -8177 8103 0
8178 8177 -8103 0
-8179 6390 0
-8179 4819 0
8179 -6390 -4819 0
-8180 7953 0
-8180 4819 0
8180 -7953 -4819 0
-8181 -8180 0
-8181 -8179 0
8181 8180 8179 0
-8182 7953 0
-8182 6390 0
8182 -7953 -6390 0
-8183 -8182 0
-8183 8181 0
8183 8182 -8181 0
-8184 7779 7814 0
-8184 -7779 -7814 0
8184 -7779 7814 0
8184 7779 -7814 0
-8185 8184 7912 0
-8185 -8184 -7912 0
8185 -8184 7912 0
8185 8184 -7912 0
-8186 -7737 0
-8186 4629 0
8186 7737 -4629 0
-8187 7737 0
-8187 6174 0
8187 -7737 -6174 0
-8188 8187 8186 0
-8188 -8187 -8186 0
8188 -8187 8186 0
8188 8187 -8186 0
-8189 7970 8047 0
-8189 -7970 -8047 0
8189 -7970 8047 0
8189 7970 -8047 0
-8190 8189 8110 0
-8190 -8189 -8110 0
8190 -8189 8110 0
8190 8189 -8110 0
-8191 6393 0
-8191 4822 0
8191 -6393 -4822 0
-8192 7956 0
-8192 4822 0
8192 -7956 -4822 0
-8193 -8192 0
-8193 -8191 0
8193 8192 8191 0
-8194 7956 0
-8194 6393 0
8194 -7956 -6393 0
-8195 -8194 0
-8195 8193 0
8195 8194 -8193 0
-8196 7786 7821 0
-8196 -7786 -7821 0
8196 -7786 7821 0
8196 7786 -7821 0
-8197 8196 7919 0
-8197 -8196 -7919 0
8197 -8196 7919 0
8197 8196 -7919 0
-8198 -7744 0
-8198 4631 0
8198 7744 -4631 0
-8199 7744 0
-8199 6181 0
8199 -7744 -6181 0
-8200 8199 8198 0
-8200 -8199 -8198 0
8200 -8199 8198 0
8200 8199 -8198 0
-8201 7977 8054 0
-8201 -7977 -8054 0
8201 -7977 8054 0
8201 7977 -8054 0
-8202 8201 8117 0
-8202 -8201 -8117 0
8202 -8201 8117 0
8202 8201 -8117 0
-8203 6400 0
-8203 4829 0
8203 -6400 -4829 0
-8204 7963 0
-8204 4829 0
8204 -7963 -4829 0
-8205 -8204 0
-8205 -8203 0
8205 8204 8203 0
-8206 7963 0
-8206 6400 0
8206 -7963 -6400 0
-8207 -8206 0
-8207 8205 0
8207 8206 -8205 0
-8208 7793 7828 0
-8208 -7793 -7828 0
8208 -7793 7828 0
8208 7793 -7828 0
-8209 8208 7926 0
-8209 -8208 -7926 0
8209 -8208 7926 0
8209 8208 -7926 0
-8210 -7751 0
-8210 4635 0
8210 7751 -4635 0
-8211 7751 0
-8211 6188 0
8211 -7751 -6188 0
-8212 8211 8210 0
-8212 -8211 -8210 0
8212 -8211 8210 0
8212 8211 -8210 0
-8213 7984 8061 0
-8213 -7984 -8061 0
8213 -7984 8061 0
8213 7984 -8061 0
-8214 8213 8124 0
-8214 -8213 -8124 0
8214 -8213 8124 0
8214 8213 -8124 0
-8215 6407 0
-8215 4836 0
8215 -6407 -4836 0
-8216 7970 0
-8216 4836 0
8216 -7970 -4836 0
-8217 -8216 0
-8217 -8215 0
8217 8216 8215 0
-8218 7970 0
-8218 6407 0
8218 -7970 -6407 0
-8219 -8218 0
-8219 8217 0
8219 8218 -8217 0
-8220 7800 7835 0
-8220 -7800 -7835 0
8220 -7800 7835 0
8220 7800 -7835 0
-8221 8220 7933 0
-8221 -8220 -7933 0
8221 -8220 7933 0
8221 8220 -7933 0
-8222 -7758 0
-8222 4639 0
8222 7758 -4639 0
-8223 7758 0
-8223 6195 0
8223 -7758 -6195 0
-8224 8223 8222 0
-8224 -8223 -8222 0
8224 -8223 8222 0
8224 8223 -8222 0
-8225 7991 8068 0
-8225 -7991 -8068 0
8225 -7991 8068 0
8225 7991 -8068 0
-8226 8225 8131 0
-8226 -8225 -8131 0
8226 -8225 8131 0
8226 8225 -8131 0
-8227 6414 0
-8227 4843 0
8227 -6414 -4843 0
-8228 7977 0
-8228 4843 0
8228 -7977 -4843 0
-8229 -8228 0
-8229 -8227 0
8229 8228 8227 0
-8230 7977 0
-8230 6414 0
8230 -7977 -6414 0
-8231 -8230 0
-8231 8229 0
8231 8230 -8229 0
-8232 7807 7842 0
-8232 -7807 -7842 0
8232 -7807 7842 0
8232 7807 -7842 0
-8233 8232 7940 0
-8233 -8232 -7940 0
8233 -8232 7940 0
8233 8232 -7940 0
-8234 -7765 0
-8234 4641 0
8234 7765 -4641 0
-8235 7765 0
-8235 6202 0
8235 -7765 -6202 0
-8236 8235 8234 0
-8236 -8235 -8234 0
8236 -8235 8234 0
8236 8235 -8234 0
-8237 7998 8075 0
-8237 -7998 -8075 0
8237 -7998 8075 0
8237 7998 -8075 0
-8238 8237 8138 0
-8238 -8237 -8138 0
8238 -8237 8138 0
8238 8237 -8138 0
-8239 6421 0
-8239 4850 0
8239 -6421 -4850 0
-8240 7984 0
-8240 4850 0
8240 -7984 -4850 0
-8241 -8240 0
-8241 -8239 0
8241 8240 8239 0
-8242 7984 0
-8242 6421 0
8242 -7984 -6421 0
-8243 -8242 0
-8243 8241 0
8243 8242 -8241 0
-8244 7814 7849 0
-8244 -7814 -7849 0
8244 -7814 7849 0
8244 7814 -7849 0
-8245 8244 7947 0
-8245 -8244 -7947 0
8245 -8244 7947 0
8245 8244 -7947 0
-8246 -7772 0
-8246 4643 0
8246 7772 -4643 0
-8247 7772 0
-8247 6209 0
8247 -7772 -6209 0
-8248 8247 8246 0
-8248 -8247 -8246 0
8248 -8247 8246 0
8248 8247 -8246 0
-8249 8005 8082 0
-8249 -8005 -8082 0
8249 -8005 8082 0
8249 8005 -8082 0
-8250 8249 8145 0
-8250 -8249 -8145 0
8250 -8249 8145 0
8250 8249 -8145 0
-8251 6428 0
-8251 4857 0
8251 -6428 -4857 0
-8252 7991 0
-8252 4857 0
8252 -7991 -4857 0
-8253 -8252 0
-8253 -8251 0
8253 8252 8251 0
-8254 7991 0
-8254 6428 0
8254 -7991 -6428 0
-8255 -8254 0
-8255 8253 0
8255 8254 -8253 0
-8256 7821 7856 0
-8256 -7821 -7856 0
8256 -7821 7856 0
8256 7821 -7856 0
-8257 8256 7734 0
-8257 -8256 -7734 0
8257 -8256 7734 0
8257 8256 -7734 0
-8258 -7779 0
-8258 4647 0
8258 7779 -4647 0
-8259 7779 0
-8259 6216 0
8259 -7779 -6216 0
-8260 8259 8258 0
-8260 -8259 -8258 0
8260 -8259 8258 0
8260 8259 -8258 0
-8261 8012 8089 0
-8261 -8012 -8089 0
8261 -8012 8089 0
8261 8012 -8089 0
-8262 8261 8152 0
-8262 -8261 -8152 0
8262 -8261 8152 0
8262 8261 -8152 0
-8263 6435 0
-8263 4864 0
8263 -6435 -4864 0
-8264 7998 0
-8264 4864 0
8264 -7998 -4864 0
-8265 -8264 0
-8265 -8263 0
8265 8264 8263 0
-8266 7998 0
-8266 6435 0
8266 -7998 -6435 0
-8267 -8266 0
-8267 8265 0
8267 8266 -8265 0
-8268 7828 7863 0
-8268 -7828 -7863 0
8268 -7828 7863 0
8268 7828 -7863 0
-8269 8268 7737 0
-8269 -8268 -7737 0
8269 -8268 7737 0
8269 8268 -7737 0
-8270 -7786 0
-8270 4652 0
8270 7786 -4652 0
-8271 7786 0
-8271 6223 0
8271 -7786 -6223 0
-8272 8271 8270 0
-8272 -8271 -8270 0
8272 -8271 8270 0
8272 8271 -8270 0
-8273 8019 8096 0
-8273 -8019 -8096 0
8273 -8019 8096 0
8273 8019 -8096 0
-8274 8273 8159 0
-8274 -8273 -8159 0
8274 -8273 8159 0
8274 8273 -8159 0
-8275 6442 0
-8275 4871 0
8275 -6442 -4871 0
-8276 8005 0
-8276 4871 0
8276 -8005 -4871 0
-8277 -8276 0
-8277 -8275 0
8277 8276 8275 0
-8278 8005 0
-8278 6442 0
8278 -8005 -6442 0
-8279 -8278 0
-8279 8277 0
8279 8278 -8277 0
-8280 7835 7870 0
-8280 -7835 -7870 0
8280 -7835 7870 0
8280 7835 -7870 0
-8281 8280 7744 0
-8281 -8280 -7744 0
8281 -8280 7744 0
8281 8280 -7744 0
-8282 -7793 0
-8282 4659 0
8282 7793 -4659 0
-8283 7793 0
-8283 6230 0
8283 -7793 -6230 0
-8284 8283 8282 0
-8284 -8283 -8282 0
8284 -8283 8282 0
8284 8283 -8282 0
-8285 8026 8103 0
-8285 -8026 -8103 0
8285 -8026 8103 0
8285 8026 -8103 0
-8286 8285 8166 0
-8286 -8285 -8166 0
8286 -8285 8166 0
8286 8285 -8166 0
-8287 6449 0
-8287 4878 0
8287 -6449 -4878 0
-8288 8012 0
-8288 4878 0
8288 -8012 -4878 0
-8289 -8288 0
-8289 -8287 0
8289 8288 8287 0
-8290 8012 0
-8290 6449 0
8290 -8012 -6449 0
-8291 -8290 0
-8291 8289 0
8291 8290 -8289 0
-8292 7842 7877 0
-8292 -7842 -7877 0
8292 -7842 7877 0
8292 7842 -7877 0
-8293 8292 7751 0
-8293 -8292 -7751 0
8293 -8292 7751 0
8293 8292 -7751 0
-8294 -7800 0
-8294 4666 0
8294 7800 -4666 0
-8295 7800 0
-8295 6237 0
8295 -7800 -6237 0
-8296 8295 8294 0
-8296 -8295 -8294 0
8296 -8295 8294 0
8296 8295 -8294 0
-8297 8033 8110 0
-8297 -8033 -8110 0
8297 -8033 8110 0
8297 8033 -8110 0
-8298 8297 7953 0
-8298 -8297 -7953 0
8298 -8297 7953 0
8298 8297 -7953 0
-8299 6456 0
-8299 4885 0
8299 -6456 -4885 0
-8300 8019 0
-8300 4885 0
8300 -8019 -4885 0
-8301 -8300 0
-8301 -8299 0
8301 8300 8299 0
-8302 8019 0
-8302 6456 0
8302 -8019 -6456 0
-8303 -8302 0
-8303 8301 0
8303 8302 -8301 0
-8304 7849 7884 0
-8304 -7849 -7884 0
8304 -7849 7884 0
8304 7849 -7884 0
-8305 8304 7758 0
-8305 -8304 -7758 0
8305 -8304 7758 0
8305 8304 -7758 0
-8306 -7807 0
-8306 4673 0
8306 7807 -4673 0
-8307 7807 0
-8307 6244 0
8307 -7807 -6244 0
-8308 8307 8306 0
-8308 -8307 -8306 0
8308 -8307 8306 0
8308 8307 -8306 0
-8309 8040 8117 0
-8309 -8040 -8117 0
8309 -8040 8117 0
8309 8040 -8117 0
-8310 8309 7956 0
-8310 -8309 -7956 0
8310 -8309 7956 0
8310 8309 -7956 0
-8311 6463 0
-8311 4892 0
8311 -6463 -4892 0
-8312 8026 0
-8312 4892 0
8312 -8026 -4892 0
-8313 -8312 0
-8313 -8311 0
8313 8312 8311 0
-8314 8026 0
-8314 6463 0
8314 -8026 -6463 0
-8315 -8314 0
-8315 8313 0
8315 8314 -8313 0
-8316 7856 7891 0
-8316 -7856 -7891 0
8316 -7856 7891 0
8316 7856 -7891 0
-8317 8316 7765 0
-8317 -8316 -7765 0
8317 -8316 7765 0
8317 8316 -7765 0
-8318 -7814 0
-8318 4680 0
8318 7814 -4680 0
-8319 7814 0
-8319 6251 0
8319 -7814 -6251 0
-8320 8319 8318 0
-8320 -8319 -8318 0
8320 -8319 8318 0
8320 8319 -8318 0
-8321 8047 8124 0
-8321 -8047 -8124 0
8321 -8047 8124 0
8321 8047 -8124 0
-8322 8321 7963 0
-8322 -8321 -7963 0
8322 -8321 7963 0
8322 8321 -7963 0
-8323 6470 0
-8323 4899 0
8323 -6470 -4899 0
-8324 8033 0
-8324 4899 0
8324 -8033 -4899 0
-8325 -8324 0
-8325 -8323 0
8325 8324 8323 0
-8326 8033 0
-8326 6470 0
8326 -8033 -6470 0
-8327 -8326 0
-8327 8325 0
8327 8326 -8325 0
-8328 7863 7898 0
-8328 -7863 -7898 0
8328 -7863 7898 0
8328 7863 -7898 0
-8329 8328 7772 0
-8329 -8328 -7772 0
8329 -8328 7772 0
8329 8328 -7772 0
-8330 -7821 0
-8330 4687 0
8330 7821 -4687 0
-8331 7821 0
-8331 6258 0
8331 -7821 -6258 0
-8332 8331 8330 0
-8332 -8331 -8330 0
8332 -8331 8330 0
8332 8331 -8330 0
-8333 8054 8131 0
-8333 -8054 -8131 0
8333 -8054 8131 0
8333 8054 -8131 0
-8334 8333 7970 0
-8334 -8333 -7970 0
8334 -8333 7970 0
8334 8333 -7970 0
-8335 6477 0
-8335 4906 0
8335 -6477 -4906 0
-8336 8040 0
-8336 4906 0
8336 -8040 -4906 0
-8337 -8336 0
-8337 -8335 0
8337 8336 8335 0
-8338 8040 0
-8338 6477 0
8338 -8040 -6477 0
-8339 -8338 0
-8339 8337 0
8339 8338 -8337 0
-8340 7870 7905 0
-8340 -7870 -7905 0
8340 -7870 7905 0
8340 7870 -7905 0
-8341 8340 7779 0
-8341 -8340 -7779 0
8341 -8340 7779 0
8341 8340 -7779 0
-8342 -7828 0
-8342 4694 0
8342 7828 -4694 0
-8343 7828 0
-8343 6265 0
8343 -7828 -6265 0
-8344 8343 8342 0
-8344 -8343 -8342 0
8344 -8343 8342 0
8344 8343 -8342 0
-8345 8061 8138 0
-8345 -8061 -8138 0
8345 -8061 8138 0
8345 8061 -8138 0
-8346 8345 7977 0
-8346 -8345 -7977 0
8346 -8345 7977 0
8346 8345 -7977 0
-8347 6484 0
-8347 4913 0
8347 -6484 -4913 0
-8348 8047 0
-8348 4913 0
8348 -8047 -4913 0
-8349 -8348 0
-8349 -8347 0
8349 8348 8347 0
-8350 8047 0
-8350 6484 0
8350 -8047 -6484 0
-8351 -8350 0
-8351 8349 0
8351 8350 -8349 0
-8352 7877 7912 0
-8352 -7877 -7912 0
8352 -7877 7912 0
8352 7877 -7912 0
-8353 8352 7786 0
-8353 -8352 -7786 0
8353 -8352 7786 0
8353 8352 -7786 0
-8354 -7835 0
-8354 4701 0
8354 7835 -4701 0
-8355 7835 0
-8355 6272 0
8355 -7835 -6272 0
-8356 8355 8354 0
-8356 -8355 -8354 0
8356 -8355 8354 0
8356 8355 -8354 0
-8357 8068 8145 0
-8357 -8068 -8145 0
8357 -8068 8145 0
8357 8068 -8145 0
-8358 8357 7984 0
-8358 -8357 -7984 0
8358 -8357 7984 0
8358 8357 -7984 0
-8359 6491 0
-8359 4920 0
8359 -6491 -4920 0
-8360 8054 0
-8360 4920 0
8360 -8054 -4920 0
-8361 -8360 0
-8361 -8359 0
8361 8360 8359 0
-8362 8054 0
-8362 6491 0
8362 -8054 -6491 0
-8363 -8362 0
-8363 8361 0
8363 8362 -8361 0
-8364 7884 7919 0
-8364 -7884 -7919 0
8364 -7884 7919 0
8364 7884 -7919 0
-8365 8364 7793 0
-8365 -8364 -7793 0
8365 -8364 7793 0
8365 8364 -7793 0
-8366 -7842 0
-8366 4708 0
8366 7842 -4708 0
-8367 7842 0
-8367 6279 0
8367 -7842 -6279 0
-8368 8367 8366 0
-8368 -8367 -8366 0
8368 -8367 8366 0
8368 8367 -8366 0
-8369 8075 8152 0
-8369 -8075 -8152 0
8369 -8075 8152 0
8369 8075 -8152 0
-8370 8369 7991 0
-8370 -8369 -7991 0
8370 -8369 7991 0
8370 8369 -7991 0
-8371 6498 0
-8371 4927 0
8371 -6498 -4927 0
-8372 8061 0
-8372 4927 0
8372 -8061 -4927 0
-8373 -8372 0
-8373 -8371 0
8373 8372 8371 0
-8374 8061 0
-8374 6498 0
8374 -8061 -6498 0
-8375 -8374 0
-8375 8373 0
8375 8374 -8373 0
-8376 7891 7926 0
-8376 -7891 -7926 0
8376 -7891 7926 0
8376 7891 -7926 0
-8377 8376 7800 0
-8377 -8376 -7800 0
8377 -8376 7800 0
8377 8376 -7800 0
-8378 -7849 0
-8378 4715 0
8378 7849 -4715 0
-8379 7849 0
-8379 6286 0
8379 -7849 -6286 0
-8380 8379 8378 0
-8380 -8379 -8378 0
8380 -8379 8378 0
8380 8379 -8378 0
-8381 8082 8159 0
-8381 -8082 -8159 0
8381 -8082 8159 0
8381 8082 -8159 0
-8382 8381 7998 0
-8382 -8381 -7998 0
8382 -8381 7998 0
8382 8381 -7998 0
-8383 6505 0
-8383 4934 0
8383 -6505 -4934 0
-8384 8068 0
-8384 4934 0
8384 -8068 -4934 0
-8385 -8384 0
-8385 -8383 0
8385 8384 8383 0
-8386 8068 0
-8386 6505 0
8386 -8068 -6505 0
-8387 -8386 0
-8387 8385 0
8387 8386 -8385 0
-8388 7898 7933 0
-8388 -7898 -7933 0
8388 -7898 7933 0
8388 7898 -7933 0
-8389 8388 7807 0
-8389 -8388 -7807 0
8389 -8388 7807 0
8389 8388 -7807 0
-8390 -7856 0
-8390 4722 0
8390 7856 -4722 0
-8391 7856 0
-8391 6293 0
8391 -7856 -6293 0
-8392 8391 8390 0
-8392 -8391 -8390 0
8392 -8391 8390 0
8392 8391 -8390 0
-8393 8089 8166 0
-8393 -8089 -8166 0
8393 -8089 8166 0
8393 8089 -8166 0
-8394 8393 8005 0
-8394 -8393 -8005 0
8394 -8393 8005 0
8394 8393 -8005 0
-8395 6512 0
-8395 4941 0
8395 -6512 -4941 0
-8396 8075 0
-8396 4941 0
8396 -8075 -4941 0
-8397 -8396 0
-8397 -8395 0
8397 8396 8395 0
-8398 8075 0
-8398 6512 0
8398 -8075 -6512 0
-8399 -8398 0
-8399 8397 0
8399 8398 -8397 0
-8400 7905 7940 0
-8400 -7905 -7940 0
8400 -7905 7940 0
8400 7905 -7940 0
-8401 8400 7814 0
-8401 -8400 -7814 0
8401 -8400 7814 0
8401 8400 -7814 0
-8402 -7863 0
-8402 4729 0
8402 7863 -4729 0
-8403 7863 0
-8403 6300 0
8403 -7863 -6300 0
-8404 8403 8402 0
-8404 -8403 -8402 0
8404 -8403 8402 0
8404 8403 -8402 0
-8405 8096 7953 0
-8405 -8096 -7953 0
8405 -8096 7953 0
8405 8096 -7953 0
-8406 8405 8012 0
-8406 -8405 -8012 0
8406 -8405 8012 0
8406 8405 -8012 0
-8407 6519 0
-8407 4948 0
8407 -6519 -4948 0
-8408 8082 0
-8408 4948 0
8408 -8082 -4948 0
-8409 -8408 0
-8409 -8407 0
8409 8408 8407 0
-8410 8082 0
-8410 6519 0
8410 -8082 -6519 0
-8411 -8410 0
-8411 8409 0
8411 8410 -8409 0
-8412 7912 7947 0
-8412 -7912 -7947 0
8412 -7912 7947 0
8412 7912 -7947 0
-8413 8412 7821 0
-8413 -8412 -7821 0
8413 -8412 7821 0
8413 8412 -7821 0
-8414 -7870 0
-8414 4736 0
8414 7870 -4736 0
-8415 7870 0
-8415 6307 0
8415 -7870 -6307 0
-8416 8415 8414 0
-8416 -8415 -8414 0
8416 -8415 8414 0
8416 8415 -8414 0
-8417 8103 7956 0
-8417 -8103 -7956 0
8417 -8103 7956 0
8417 8103 -7956 0
-8418 8417 8019 0
-8418 -8417 -8019 0
8418 -8417 8019 0
8418 8417 -8019 0
-8419 6526 0
-8419 4955 0
8419 -6526 -4955 0
-8420 8089 0
-8420 4955 0
8420 -8089 -4955 0
-8421 -8420 0
-8421 -8419 0
8421 8420 8419 0
-8422 8089 0
-8422 6526 0
8422 -8089 -6526 0
-8423 -8422 0
-8423 8421 0
8423 8422 -8421 0
-8424 7919 7734 0
-8424 -7919 -7734 0
8424 -7919 7734 0
8424 7919 -7734 0
-8425 8424 7828 0
-8425 -8424 -7828 0
8425 -8424 7828 0
8425 8424 -7828 0
-8426 -7877 0
-8426 4743 0
8426 7877 -4743 0
-8427 7877 0
-8427 6314 0
8427 -7877 -6314 0
-8428 8427 8426 0
-8428 -8427 -8426 0
8428 -8427 8426 0
8428 8427 -8426 0
-8429 8110 7963 0
-8429 -8110 -7963 0
8429 -8110 7963 0
8429 8110 -7963 0
-8430 8429 8026 0
-8430 -8429 -8026 0
8430 -8429 8026 0
8430 8429 -8026 0
-8431 6533 0
-8431 4962 0
8431 -6533 -4962 0
-8432 8096 0
-8432 4962 0
8432 -8096 -4962 0
-8433 -8432 0
-8433 -8431 0
8433 8432 8431 0
-8434 8096 0
-8434 6533 0
8434 -8096 -6533 0
-8435 -8434 0
-8435 8433 0
8435 8434 -8433 0
-8436 7926 7737 0
-8436 -7926 -7737 0
8436 -7926 7737 0
8436 7926 -7737 0
-8437 8436 7835 0
-8437 -8436 -7835 0
8437 -8436 7835 0
8437 8436 -7835 0
-8438 -7884 0
-8438 4750 0
8438 7884 -4750 0
-8439 7884 0
-8439 6321 0
8439 -7884 -6321 0
-8440 8439 8438 0
-8440 -8439 -8438 0
8440 -8439 8438 0
8440 8439 -8438 0
-8441 8117 7970 0
-8441 -8117 -7970 0
8441 -8117 7970 0
8441 8117 -7970 0
-8442 8441 8033 0
-8442 -8441 -8033 0
8442 -8441 8033 0
8442 8441 -8033 0
-8443 6540 0
-8443 4969 0
8443 -6540 -4969 0
-8444 8103 0
-8444 4969 0
8444 -8103 -4969 0
-8445 -8444 0
-8445 -8443 0
8445 8444 8443 0
-8446 8103 0
-8446 6540 0
8446 -8103 -6540 0
-8447 -8446 0
-8447 8445 0
8447 8446 -8445 0
-8448 7933 7744 0
-8448 -7933 -7744 0
8448 -7933 7744 0
8448 7933 -7744 0
-8449 8448 7842 0
-8449 -8448 -7842 0
8449 -8448 7842 0
8449 8448 -7842 0
-8450 -7891 0
-8450 4757 0
8450 7891 -4757 0
-8451 7891 0
-8451 6328 0
8451 -7891 -6328 0
-8452 8451 8450 0
-8452 -8451 -8450 0
8452 -8451 8450 0
8452 8451 -8450 0
-8453 8124 7977 0
-8453 -8124 -7977 0
8453 -8124 7977 0
8453 8124 -7977 0
-8454 8453 8040 0
-8454 -8453 -8040 0
8454 -8453 8040 0
8454 8453 -8040 0
-8455 6547 0
-8455 4976 0
8455 -6547 -4976 0
-8456 8110 0
-8456 4976 0
8456 -8110 -4976 0
-8457 -8456 0
-8457 -8455 0
8457 8456 8455 0
-8458 8110 0
-8458 6547 0
8458 -8110 -6547 0
-8459 -8458 0
-8459 8457 0
8459 8458 -8457 0
-8460 7940 7751 0
-8460 -7940 -7751 0
8460 -7940 7751 0
8460 7940 -7751 0
-8461 8460 7849 0
-8461 -8460 -7849 0
8461 -8460 7849 0
8461 8460 -7849 0
-8462 -7898 0
-8462 4764 0
8462 7898 -4764 0
-8463 7898 0
-8463 6335 0
8463 -7898 -6335 0
-8464 8463 8462 0
-8464 -8463 -8462 0
8464 -8463 8462 0
8464 8463 -8462 0
-8465 8131 7984 0
-8465 -8131 -7984 0
8465 -8131 7984 0
8465 8131 -7984 0
-8466 8465 8047 0
-8466 -8465 -8047 0
8466 -8465 8047 0
8466 8465 -8047 0
-8467 6554 0
-8467 4983 0
8467 -6554 -4983 0
-8468 8117 0
-8468 4983 0
8468 -8117 -4983 0
-8469 -8468 0
-8469 -8467 0
8469 8468 8467 0
-8470 8117 0
-8470 6554 0
8470 -8117 -6554 0
-8471 -8470 0
-8471 8469 0
8471 8470 -8469 0
-8472 7947 7758 0
-8472 -7947 -7758 0
8472 -7947 7758 0
8472 7947 -7758 0
-8473 8472 7856 0
-8473 -8472 -7856 0
8473 -8472 7856 0
8473 8472 -7856 0
-8474 -7905 0
-8474 4771 0
8474 7905 -4771 0
-8475 7905 0
-8475 6342 0
8475 -7905 -6342 0
-8476 8475 8474 0
-8476 -8475 -8474 0
8476 -8475 8474 0
8476 8475 -8474 0
-8477 8138 7991 0
-8477 -8138 -7991 0
8477 -8138 7991 0
8477 8138 -7991 0
-8478 8477 8054 0
-8478 -8477 -8054 0
8478 -8477 8054 0
8478 8477 -8054 0
-8479 6561 0
-8479 4990 0
8479 -6561 -4990 0
-8480 8124 0
-8480 4990 0
8480 -8124 -4990 0
-8481 -8480 0
-8481 -8479 0
8481 8480 8479 0
-8482 8124 0
-8482 6561 0
8482 -8124 -6561 0
-8483 -8482 0
-8483 8481 0
8483 8482 -8481 0
-8484 7734 7765 0
-8484 -7734 -7765 0
8484 -7734 7765 0
8484 7734 -7765 0
-8485 8484 7863 0
-8485 -8484 -7863 0
8485 -8484 7863 0
8485 8484 -7863 0
-8486 -7912 0
-8486 4778 0
8486 7912 -4778 0
-8487 7912 0
-8487 6349 0
8487 -7912 -6349 0
-8488 8487 8486 0
-8488 -8487 -8486 0
8488 -8487 8486 0
8488 8487 -8486 0
-8489 8145 7998 0
-8489 -8145 -7998 0
8489 -8145 7998 0
8489 8145 -7998 0
-8490 8489 8061 0
-8490 -8489 -8061 0
8490 -8489 8061 0
8490 8489 -8061 0
-8491 6568 0
-8491 4997 0
8491 -6568 -4997 0
-8492 8131 0
-8492 4997 0
8492 -8131 -4997 0
-8493 -8492 0
-8493 -8491 0
8493 8492 8491 0
-8494 8131 0
-8494 6568 0
8494 -8131 -6568 0
-8495 -8494 0
-8495 8493 0
8495 8494 -8493 0
-8496 7737 7772 0
-8496 -7737 -7772 0
8496 -7737 7772 0
8496 7737 -7772 0
-8497 8496 7870 0
-8497 -8496 -7870 0
8497 -8496 7870 0
8497 8496 -7870 0
-8498 -7919 0
-8498 4785 0
8498 7919 -4785 0
-8499 7919 0
-8499 6356 0
8499 -7919 -6356 0
-8500 8499 8498 0
-8500 -8499 -8498 0
8500 -8499 8498 0
8500 8499 -8498 0
-8501 8152 8005 0
-8501 -8152 -8005 0
8501 -8152 8005 0
8501 8152 -8005 0
-8502 8501 8068 0
-8502 -8501 -8068 0
8502 -8501 8068 0
8502 8501 -8068 0
-8503 6575 0
-8503 5004 0
8503 -6575 -5004 0
-8504 8138 0
-8504 5004 0
8504 -8138 -5004 0
-8505 -8504 0
-8505 -8503 0
8505 8504 8503 0
-8506 8138 0
-8506 6575 0
8506 -8138 -6575 0
-8507 -8506 0
-8507 8505 0
8507 8506 -8505 0
-8508 7744 7779 0
-8508 -7744 -7779 0
8508 -7744 7779 0
8508 7744 -7779 0
-8509 8508 7877 0
-8509 -8508 -7877 0
8509 -8508 7877 0
8509 8508 -7877 0
-8510 -7926 0
-8510 4792 0
8510 7926 -4792 0
-8511 7926 0
-8511 6363 0
8511 -7926 -6363 0
-8512 8511 8510 0
-8512 -8511 -8510 0
8512 -8511 8510 0
8512 8511 -8510 0
-8513 8159 8012 0
-8513 -8159 -8012 0
8513 -8159 8012 0
8513 8159 -8012 0
-8514 8513 8075 0
-8514 -8513 -8075 0
8514 -8513 8075 0
8514 8513 -8075 0
-8515 6582 0
-8515 5011 0
8515 -6582 -5011 0
-8516 8145 0
-8516 5011 0
8516 -8145 -5011 0
-8517 -8516 0
-8517 -8515 0
8517 8516 8515 0
-8518 8145 0
-8518 6582 0
8518 -8145 -6582 0
-8519 -8518 0
-8519 8517 0
8519 8518 -8517 0
-8520 7751 7786 0
-8520 -7751 -7786 0
8520 -7751 7786 0
8520 7751 -7786 0
-8521 8520 7884 0
-8521 -8520 -7884 0
8521 -8520 7884 0
8521 8520 -7884 0
-8522 -7933 0
-8522 4799 0
8522 7933 -4799 0
-8523 7933 0
-8523 6370 0
8523 -7933 -6370 0
-8524 8523 8522 0
-8524 -8523 -8522 0
8524 -8523 8522 0
8524 8523 -8522 0
-8525 8166 8019 0
-8525 -8166 -8019 0
8525 -8166 8019 0
8525 8166 -8019 0
-8526 8525 8082 0
-8526 -8525 -8082 0
8526 -8525 8082 0
8526 8525 -8082 0
-8527 6589 0
-8527 5018 0
8527 -6589 -5018 0
-8528 8152 0
-8528 5018 0
8528 -8152 -5018 0
-8529 -8528 0
-8529 -8527 0
8529 8528 8527 0
-8530 8152 0
-8530 6589 0
8530 -8152 -6589 0
-8531 -8530 0
-8531 8529 0
8531 8530 -8529 0
-8532 7758 7793 0
-8532 -7758 -7793 0
8532 -7758 7793 0
8532 7758 -7793 0
-8533 8532 7891 0
-8533 -8532 -7891 0
8533 -8532 7891 0
8533 8532 -7891 0
-8534 -7940 0
-8534 4806 0
8534 7940 -4806 0
-8535 7940 0
-8535 6377 0
8535 -7940 -6377 0
-8536 8535 8534 0
-8536 -8535 -8534 0
8536 -8535 8534 0
8536 8535 -8534 0
-8537 7953 8026 0
-8537 -7953 -8026 0
8537 -7953 8026 0
8537 7953 -8026 0
-8538 8537 8089 0
-8538 -8537 -8089 0
8538 -8537 8089 0
8538 8537 -8089 0
-8539 6596 0
-8539 5025 0
8539 -6596 -5025 0
-8540 8159 0
-8540 5025 0
8540 -8159 -5025 0
-8541 -8540 0
-8541 -8539 0
8541 8540 8539 0
-8542 8159 0
-8542 6596 0
8542 -8159 -6596 0
-8543 -8542 0
-8543 8541 0
8543 8542 -8541 0
-8544 7765 7800 0
-8544 -7765 -7800 0
8544 -7765 7800 0
8544 7765 -7800 0
-8545 8544 7898 0
-8545 -8544 -7898 0
8545 -8544 7898 0
8545 8544 -7898 0
-8546 -7947 0
-8546 4813 0
8546 7947 -4813 0
-8547 7947 0
-8547 6384 0
8547 -7947 -6384 0
-8548 8547 8546 0
-8548 -8547 -8546 0
8548 -8547 8546 0
8548 8547 -8546 0
-8549 7956 8033 0
-8549 -7956 -8033 0
8549 -7956 8033 0
8549 7956 -8033 0
-8550 8549 8096 0
-8550 -8549 -8096 0
8550 -8549 8096 0
8550 8549 -8096 0
-8551 6603 0
-8551 5032 0
8551 -6603 -5032 0
-8552 8166 0
-8552 5032 0
8552 -8166 -5032 0
-8553 -8552 0
-8553 -8551 0
8553 8552 8551 0
-8554 8166 0
-8554 6603 0
8554 -8166 -6603 0
-8555 -8554 0
-8555 8553 0
8555 8554 -8553 0
-8556 8188 8176 0
-8556 -8188 -8176 0
8556 -8188 8176 0
8556 8188 -8176 0
-8557 8188 0
-8557 8176 0
8557 -8188 -8176 0
-8558 -8200 8557 0
-8558 8200 -8557 0
8558 8200 8557 0
8558 -8200 -8557 0
-8559 8200 0
-8559 8557 0
8559 -8200 -8557 0
-8560 -8559 0
-8560 -8557 0
8560 8559 8557 0
-8561 -8200 0
-8561 8560 0
8561 8200 -8560 0
-8562 8212 -8561 0
-8562 -8212 8561 0
8562 -8212 -8561 0
8562 8212 8561 0
-8563 8212 0
-8563 -8561 0
8563 -8212 8561 0
-8564 -8224 8563 0
-8564 8224 -8563 0
8564 8224 8563 0
8564 -8224 -8563 0
-8565 8224 0
-8565 8563 0
8565 -8224 -8563 0
-8566 -8565 0
-8566 -8563 0
8566 8565 8563 0
-8567 -8224 0
-8567 8566 0
8567 8224 -8566 0
-8568 8236 -8567 0
-8568 -8236 8567 0
8568 -8236 -8567 0
8568 8236 8567 0
-8569 8236 0
-8569 -8567 0
8569 -8236 8567 0
-8570 -8248 8569 0
-8570 8248 -8569 0
8570 8248 8569 0
8570 -8248 -8569 0
-8571 8248 0
-8571 8569 0
8571 -8248 -8569 0
-8572 -8571 0
-8572 -8569 0
8572 8571 8569 0
-8573 -8248 0
-8573 8572 0
8573 8248 -8572 0
-8574 -8260 -8573 0
-8574 8260 8573 0
8574 8260 -8573 0
8574 -8260 8573 0
-8575 8260 0
-8575 -8573 0
8575 -8260 8573 0
-8576 -8575 0
-8576 8573 0
8576 8575 -8573 0
-8577 -8260 0
-8577 8576 0
8577 8260 -8576 0
-8578 8272 -8577 0
-8578 -8272 8577 0
8578 -8272 -8577 0
8578 8272 8577 0
-8579 8272 0
-8579 -8577 0
8579 -8272 8577 0
-8580 -8284 8579 0
-8580 8284 -8579 0
8580 8284 8579 0
8580 -8284 -8579 0
-8581 8284 0
-8581 8579 0
8581 -8284 -8579 0
-8582 -8581 0
-8582 -8579 0
8582 8581 8579 0
-8583 -8284 0
-8583 8582 0
8583 8284 -8582 0
-8584 -8296 -8583 0
-8584 8296 8583 0
8584 8296 -8583 0
8584 -8296 8583 0
-8585 8296 0
-8585 -8583 0
8585 -8296 8583 0
-8586 -8585 0
-8586 8583 0
8586 8585 -8583 0
-8587 -8296 0
-8587 8586 0
8587 8296 -8586 0
-8588 -8308 -8587 0
-8588 8308 8587 0
8588 8308 -8587 0
8588 -8308 8587 0
-8589 8308 0
-8589 -8587 0
8589 -8308 8587 0
-8590 -8589 0
-8590 8587 0
8590 8589 -8587 0
-8591 -8308 0
-8591 8590 0
8591 8308 -8590 0
-8592 -8320 -8591 0
-8592 8320 8591 0
8592 8320 -8591 0
8592 -8320 8591 0
-8593 8320 0
-8593 -8591 0
8593 -8320 8591 0
-8594 -8593 0
-8594 8591 0
8594 8593 -8591 0
-8595 -8320 0
-8595 8594 0
8595 8320 -8594 0
-8596 8332 -8595 0
-8596 -8332 8595 0
8596 -8332 -8595 0
8596 8332 8595 0
-8597 8332 0
-8597 -8595 0
8597 -8332 8595 0
-8598 -8344 8597 0
-8598 8344 -8597 0
8598 8344 8597 0
8598 -8344 -8597 0
-8599 8344 0
-8599 8597 0
8599 -8344 -8597 0
-8600 -8599 0
-8600 -8597 0
8600 8599 8597 0
-8601 -8344 0
-8601 8600 0
8601 8344 -8600 0
-8602 8356 -8601 0
-8602 -8356 8601 0
8602 -8356 -8601 0
8602 8356 8601 0
-8603 8356 0
-8603 -8601 0
8603 -8356 8601 0
-8604 8368 8603 0
-8604 -8368 -8603 0
8604 -8368 8603 0
8604 8368 -8603 0
-8605 8368 0
-8605 8603 0
8605 -8368 -8603 0
-8606 8380 8605 0
-8606 -8380 -8605 0
8606 -8380 8605 0
8606 8380 -8605 0
-8607 8380 0
-8607 8605 0
8607 -8380 -8605 0
-8608 -8392 8607 0
-8608 8392 -8607 0
8608 8392 8607 0
8608 -8392 -8607 0
-8609 8392 0
-8609 8607 0
8609 -8392 -8607 0
-8610 -8609 0
-8610 -8607 0
8610 8609 8607 0
-8611 -8392 0
-8611 8610 0
8611 8392 -8610 0
-8612 -8404 -8611 0
-8612 8404 8611 0
8612 8404 -8611 0
8612 -8404 8611 0
-8613 8404 0
-8613 -8611 0
8613 -8404 8611 0
-8614 -8613 0
-8614 8611 0
8614 8613 -8611 0
-8615 -8404 0
-8615 8614 0
8615 8404 -8614 0
-8616 -8416 -8615 0
-8616 8416 8615 0
8616 8416 -8615 0
8616 -8416 8615 0
-8617 8416 0
-8617 -8615 0
8617 -8416 8615 0
-8618 -8617 0
-8618 8615 0
8618 8617 -8615 0
-8619 -8416 0
-8619 8618 0
8619 8416 -8618 0
-8620 8428 -8619 0
-8620 -8428 8619 0
8620 -8428 -8619 0
8620 8428 8619 0
-8621 8428 0
-8621 -8619 0
8621 -8428 8619 0
-8622 8440 8621 0
-8622 -8440 -8621 0
8622 -8440 8621 0
8622 8440 -8621 0
-8623 8440 0
-8623 8621 0
8623 -8440 -8621 0
-8624 8452 8623 0
-8624 -8452 -8623 0
8624 -8452 8623 0
8624 8452 -8623 0
-8625 8452 0
-8625 8623 0
8625 -8452 -8623 0
-8626 -8464 8625 0
-8626 8464 -8625 0
8626 8464 8625 0
8626 -8464 -8625 0
-8627 8464 0
-8627 8625 0
8627 -8464 -8625 0
-8628 -8627 0
-8628 -8625 0
8628 8627 8625 0
-8629 -8464 0
-8629 8628 0
8629 8464 -8628 0
-8630 -8476 -8629 0
-8630 8476 8629 0
8630 8476 -8629 0
8630 -8476 8629 0
-8631 8476 0
-8631 -8629 0
8631 -8476 8629 0
-8632 -8631 0
-8632 8629 0
8632 8631 -8629 0
-8633 -8476 0
-8633 8632 0
8633 8476 -8632 0
-8634 8488 -8633 0
-8634 -8488 8633 0
8634 -8488 -8633 0
8634 8488 8633 0
-8635 8488 0
-8635 -8633 0
8635 -8488 8633 0
-8636 -8500 8635 0
-8636 8500 -8635 0
8636 8500 8635 0
8636 -8500 -8635 0
-8637 8500 0
-8637 8635 0
8637 -8500 -8635 0
-8638 -8637 0
-8638 -8635 0
8638 8637 8635 0
-8639 -8500 0
-8639 8638 0
8639 8500 -8638 0
-8640 8512 -8639 0
-8640 -8512 8639 0
8640 -8512 -8639 0
8640 8512 8639 0
-8641 8512 0
-8641 -8639 0
8641 -8512 8639 0
-8642 -8524 8641 0
-8642 8524 -8641 0
8642 8524 8641 0
8642 -8524 -8641 0
-8643 8524 0
-8643 8641 0
8643 -8524 -8641 0
-8644 -8643 0
-8644 -8641 0
8644 8643 8641 0
-8645 -8524 0
-8645 8644 0
8645 8524 -8644 0
-8646 8536 -8645 0
-8646 -8536 8645 0
8646 -8536 -8645 0
8646 8536 8645 0
-8647 8536 0
-8647 -8645 0
8647 -8536 8645 0
-8648 -8548 8647 0
-8648 8548 -8647 0
8648 8548 8647 0
8648 -8548 -8647 0
-8649 8548 0
-8649 8647 0
8649 -8548 -8647 0
-8650 -8649 0
-8650 -8647 0
8650 8649 8647 0
-8651 -8548 0
-8651 8650 0
8651 8548 -8650 0
-8652 -2784 8173 0
-8652 2784 -8173 0
8652 2784 8173 0
8652 -2784 -8173 0
-8653 -2784 0
-8653 8173 0
8653 2784 -8173 0
-8654 3222 8185 0
-8654 -3222 -8185 0
8654 -3222 8185 0
8654 3222 -8185 0
-8655 8654 8653 0
-8655 -8654 -8653 0
8655 -8654 8653 0
8655 8654 -8653 0
-8656 8185 0
-8656 8653 0
8656 -8185 -8653 0
-8657 3222 0
-8657 8653 0
8657 -3222 -8653 0
-8658 -8657 0
-8658 -8656 0
8658 8657 8656 0
-8659 3222 0
-8659 8185 0
8659 -3222 -8185 0
-8660 -8659 0
-8660 8658 0
8660 8659 -8658 0
-8661 3226 8197 0
-8661 -3226 -8197 0
8661 -3226 8197 0
8661 3226 -8197 0
-8662 8661 -8660 0
-8662 -8661 8660 0
8662 -8661 -8660 0
8662 8661 8660 0
-8663 8197 0
-8663 -8660 0
8663 -8197 8660 0
-8664 3226 0
-8664 -8660 0
8664 -3226 8660 0
-8665 -8664 0
-8665 -8663 0
8665 8664 8663 0
-8666 3226 0
-8666 8197 0
8666 -3226 -8197 0
-8667 -8666 0
-8667 8665 0
8667 8666 -8665 0
-8668 3230 8209 0
-8668 -3230 -8209 0
8668 -3230 8209 0
8668 3230 -8209 0
-8669 8668 -8667 0
-8669 -8668 8667 0
8669 -8668 -8667 0
8669 8668 8667 0
-8670 8209 0
-8670 -8667 0
8670 -8209 8667 0
-8671 3230 0
-8671 -8667 0
8671 -3230 8667 0
-8672 -8671 0
-8672 -8670 0
8672 8671 8670 0
-8673 3230 0
-8673 8209 0
8673 -3230 -8209 0
-8674 -8673 0
-8674 8672 0
8674 8673 -8672 0
-8675 3232 8221 0
-8675 -3232 -8221 0
8675 -3232 8221 0
8675 3232 -8221 0
-8676 8675 -8674 0
-8676 -8675 8674 0
8676 -8675 -8674 0
8676 8675 8674 0
-8677 8221 0
-8677 -8674 0
8677 -8221 8674 0
-8678 3232 0
-8678 -8674 0
8678 -3232 8674 0
-8679 -8678 0
-8679 -8677 0
8679 8678 8677 0
-8680 3232 0
-8680 8221 0
8680 -3232 -8221 0
-8681 -8680 0
-8681 8679 0
8681 8680 -8679 0
-8682 3234 8233 0
-8682 -3234 -8233 0
8682 -3234 8233 0
8682 3234 -8233 0
-8683 8682 -8681 0
-8683 -8682 8681 0
8683 -8682 -8681 0
8683 8682 8681 0
-8684 8233 0
-8684 -8681 0
8684 -8233 8681 0
-8685 3234 0
-8685 -8681 0
8685 -3234 8681 0
-8686 -8685 0
-8686 -8684 0
8686 8685 8684 0
-8687 3234 0
-8687 8233 0
8687 -3234 -8233 0
-8688 -8687 0
-8688 8686 0
8688 8687 -8686 0
-8689 3238 8245 0
-8689 -3238 -8245 0
8689 -3238 8245 0
8689 3238 -8245 0
-8690 8689 -8688 0
-8690 -8689 8688 0
8690 -8689 -8688 0
8690 8689 8688 0
-8691 8245 0
-8691 -8688 0
8691 -8245 8688 0
-8692 3238 0
-8692 -8688 0
8692 -3238 8688 0
-8693 -8692 0
-8693 -8691 0
8693 8692 8691 0
-8694 3238 0
-8694 8245 0
8694 -3238 -8245 0
-8695 -8694 0
-8695 8693 0
8695 8694 -8693 0
-8696 3242 8257 0
-8696 -3242 -8257 0
8696 -3242 8257 0
8696 3242 -8257 0
-8697 8696 -8695 0
-8697 -8696 8695 0
8697 -8696 -8695 0
8697 8696 8695 0
-8698 8257 0
-8698 -8695 0
8698 -8257 8695 0
-8699 3242 0
-8699 -8695 0
8699 -3242 8695 0
-8700 -8699 0
-8700 -8698 0
8700 8699 8698 0
-8701 3242 0
-8701 8257 0
8701 -3242 -8257 0
-8702 -8701 0
-8702 8700 0
8702 8701 -8700 0
-8703 3244 8269 0
-8703 -3244 -8269 0
8703 -3244 8269 0
8703 3244 -8269 0
-8704 8703 -8702 0
-8704 -8703 8702 0
8704 -8703 -8702 0
8704 8703 8702 0
-8705 8269 0
-8705 -8702 0
8705 -8269 8702 0
-8706 3244 0
-8706 -8702 0
8706 -3244 8702 0
-8707 -8706 0
-8707 -8705 0
8707 8706 8705 0
-8708 3244 0
-8708 8269 0
8708 -3244 -8269 0
-8709 -8708 0
-8709 8707 0
8709 8708 -8707 0
-8710 3246 8281 0
-8710 -3246 -8281 0
8710 -3246 8281 0
8710 3246 -8281 0
-8711 8710 -8709 0
-8711 -8710 8709 0
8711 -8710 -8709 0
8711 8710 8709 0
-8712 8281 0
-8712 -8709 0
8712 -8281 8709 0
-8713 3246 0
-8713 -8709 0
8713 -3246 8709 0
-8714 -8713 0
-8714 -8712 0
8714 8713 8712 0
-8715 3246 0
-8715 8281 0
8715 -3246 -8281 0
-8716 -8715 0
-8716 8714 0
8716 8715 -8714 0
-8717 3250 8293 0
-8717 -3250 -8293 0
8717 -3250 8293 0
8717 3250 -8293 0
-8718 8717 -8716 0
-8718 -8717 8716 0
8718 -8717 -8716 0
8718 8717 8716 0
-8719 8293 0
-8719 -8716 0
8719 -8293 8716 0
-8720 3250 0
-8720 -8716 0
8720 -3250 8716 0
-8721 -8720 0
-8721 -8719 0
8721 8720 8719 0
-8722 3250 0
-8722 8293 0
8722 -3250 -8293 0
-8723 -8722 0
-8723 8721 0
8723 8722 -8721 0
-8724 3254 8305 0
-8724 -3254 -8305 0
8724 -3254 8305 0
8724 3254 -8305 0
-8725 8724 -8723 0
-8725 -8724 8723 0
8725 -8724 -8723 0
8725 8724 8723 0
-8726 8305 0
-8726 -8723 0
8726 -8305 8723 0
-8727 3254 0
-8727 -8723 0
8727 -3254 8723 0
-8728 -8727 0
-8728 -8726 0
8728 8727 8726 0
-8729 3254 0
-8729 8305 0
8729 -3254 -8305 0
-8730 -8729 0
-8730 8728 0
8730 8729 -8728 0
-8731 3256 8317 0
-8731 -3256 -8317 0
8731 -3256 8317 0
8731 3256 -8317 0
-8732 8731 -8730 0
-8732 -8731 8730 0
8732 -8731 -8730 0
8732 8731 8730 0
-8733 8317 0
-8733 -8730 0
8733 -8317 8730 0
-8734 3256 0
-8734 -8730 0
8734 -3256 8730 0
-8735 -8734 0
-8735 -8733 0
8735 8734 8733 0
-8736 3256 0
-8736 8317 0
8736 -3256 -8317 0
-8737 -8736 0
-8737 8735 0
8737 8736 -8735 0
-8738 3258 8329 0
-8738 -3258 -8329 0
8738 -3258 8329 0
8738 3258 -8329 0
-8739 8738 -8737 0
-8739 -8738 8737 0
8739 -8738 -8737 0
8739 8738 8737 0
-8740 8329 0
-8740 -8737 0
8740 -8329 8737 0
-8741 3258 0
-8741 -8737 0
8741 -3258 8737 0
-8742 -8741 0
-8742 -8740 0
8742 8741 8740 0
-8743 3258 0
-8743 8329 0
8743 -3258 -8329 0
-8744 -8743 0
-8744 8742 0
8744 8743 -8742 0
-8745 3262 8341 0
-8745 -3262 -8341 0
8745 -3262 8341 0
8745 3262 -8341 0
-8746 8745 -8744 0
-8746 -8745 8744 0
8746 -8745 -8744 0
8746 8745 8744 0
-8747 8341 0
-8747 -8744 0
8747 -8341 8744 0
-8748 3262 0
-8748 -8744 0
8748 -3262 8744 0
-8749 -8748 0
-8749 -8747 0
8749 8748 8747 0
-8750 3262 0
-8750 8341 0
8750 -3262 -8341 0
-8751 -8750 0
-8751 8749 0
8751 8750 -8749 0
-8752 3266 8353 0
-8752 -3266 -8353 0
8752 -3266 8353 0
8752 3266 -8353 0
-8753 8752 -8751 0
-8753 -8752 8751 0
8753 -8752 -8751 0
8753 8752 8751 0
-8754 8353 0
-8754 -8751 0
8754 -8353 8751 0
-8755 3266 0
-8755 -8751 0
8755 -3266 8751 0
-8756 -8755 0
-8756 -8754 0
8756 8755 8754 0
-8757 3266 0
-8757 8353 0
8757 -3266 -8353 0
-8758 -8757 0
-8758 8756 0
8758 8757 -8756 0
-8759 3270 8365 0
-8759 -3270 -8365 0
8759 -3270 8365 0
8759 3270 -8365 0
-8760 8759 -8758 0
-8760 -8759 8758 0
8760 -8759 -8758 0
8760 8759 8758 0
-8761 8365 0
-8761 -8758 0
8761 -8365 8758 0
-8762 3270 0
-8762 -8758 0
8762 -3270 8758 0
-8763 -8762 0
-8763 -8761 0
8763 8762 8761 0
-8764 3270 0
-8764 8365 0
8764 -3270 -8365 0
-8765 -8764 0
-8765 8763 0
8765 8764 -8763 0
-8766 3274 8377 0
-8766 -3274 -8377 0
8766 -3274 8377 0
8766 3274 -8377 0
-8767 8766 -8765 0
-8767 -8766 8765 0
8767 -8766 -8765 0
8767 8766 8765 0
-8768 8377 0
-8768 -8765 0
8768 -8377 8765 0
-8769 3274 0
-8769 -8765 0
8769 -3274 8765 0
-8770 -8769 0
-8770 -8768 0
8770 8769 8768 0
-8771 3274 0
-8771 8377 0
8771 -3274 -8377 0
-8772 -8771 0
-8772 8770 0
8772 8771 -8770 0
-8773 3276 8389 0
-8773 -3276 -8389 0
8773 -3276 8389 0
8773 3276 -8389 0
-8774 8773 -8772 0
-8774 -8773 8772 0
8774 -8773 -8772 0
8774 8773 8772 0
-8775 8389 0
-8775 -8772 0
8775 -8389 8772 0
-8776 3276 0
-8776 -8772 0
8776 -3276 8772 0
-8777 -8776 0
-8777 -8775 0
8777 8776 8775 0
-8778 3276 0
-8778 8389 0
8778 -3276 -8389 0
-8779 -8778 0
-8779 8777 0
8779 8778 -8777 0
-8780 3278 8401 0
-8780 -3278 -8401 0
8780 -3278 8401 0
8780 3278 -8401 0
-8781 8780 -8779 0
-8781 -8780 8779 0
8781 -8780 -8779 0
8781 8780 8779 0
-8782 8401 0
-8782 -8779 0
8782 -8401 8779 0
-8783 3278 0
-8783 -8779 0
8783 -3278 8779 0
-8784 -8783 0
-8784 -8782 0
8784 8783 8782 0
-8785 3278 0
-8785 8401 0
8785 -3278 -8401 0
-8786 -8785 0
-8786 8784 0
8786 8785 -8784 0
-8787 3282 8413 0
-8787 -3282 -8413 0
8787 -3282 8413 0
8787 3282 -8413 0
-8788 8787 -8786 0
-8788 -8787 8786 0
8788 -8787 -8786 0
8788 8787 8786 0
-8789 8413 0
-8789 -8786 0
8789 -8413 8786 0
-8790 3282 0
-8790 -8786 0
8790 -3282 8786 0
-8791 -8790 0
-8791 -8789 0
8791 8790 8789 0
-8792 3282 0
-8792 8413 0
8792 -3282 -8413 0
-8793 -8792 0
-8793 8791 0
8793 8792 -8791 0
-8794 3284 8425 0
-8794 -3284 -8425 0
8794 -3284 8425 0
8794 3284 -8425 0
-8795 8794 -8793 0
-8795 -8794 8793 0
8795 -8794 -8793 0
8795 8794 8793 0
-8796 8425 0
-8796 -8793 0
8796 -8425 8793 0
-8797 3284 0
-8797 -8793 0
8797 -3284 8793 0
-8798 -8797 0
-8798 -8796 0
8798 8797 8796 0
-8799 3284 0
-8799 8425 0
8799 -3284 -8425 0
-8800 -8799 0
-8800 8798 0
8800 8799 -8798 0
-8801 3286 8437 0
-8801 -3286 -8437 0
8801 -3286 8437 0
8801 3286 -8437 0
-8802 8801 -8800 0
-8802 -8801 8800 0
8802 -8801 -8800 0
8802 8801 8800 0
-8803 8437 0
-8803 -8800 0
8803 -8437 8800 0
-8804 3286 0
-8804 -8800 0
8804 -3286 8800 0
-8805 -8804 0
-8805 -8803 0
8805 8804 8803 0
-8806 3286 0
-8806 8437 0
8806 -3286 -8437 0
-8807 -8806 0
-8807 8805 0
8807 8806 -8805 0
-8808 3288 8449 0
-8808 -3288 -8449 0
8808 -3288 8449 0
8808 3288 -8449 0
-8809 8808 -8807 0
-8809 -8808 8807 0
8809 -8808 -8807 0
8809 8808 8807 0
-8810 8449 0
-8810 -8807 0
8810 -8449 8807 0
-8811 3288 0
-8811 -8807 0
8811 -3288 8807 0
-8812 -8811 0
-8812 -8810 0
8812 8811 8810 0
-8813 3288 0
-8813 8449 0
8813 -3288 -8449 0
-8814 -8813 0
-8814 8812 0
8814 8813 -8812 0
-8815 3290 8461 0
-8815 -3290 -8461 0
8815 -3290 8461 0
8815 3290 -8461 0
-8816 8815 -8814 0
-8816 -8815 8814 0
8816 -8815 -8814 0
8816 8815 8814 0
-8817 8461 0
-8817 -8814 0
8817 -8461 8814 0
-8818 3290 0
-8818 -8814 0
8818 -3290 8814 0
-8819 -8818 0
-8819 -8817 0
8819 8818 8817 0
-8820 3290 0
-8820 8461 0
8820 -3290 -8461 0
-8821 -8820 0
-8821 8819 0
8821 8820 -8819 0
-8822 3292 8473 0
-8822 -3292 -8473 0
8822 -3292 8473 0
8822 3292 -8473 0
-8823 8822 -8821 0
-8823 -8822 8821 0
8823 -8822 -8821 0
8823 8822 8821 0
-8824 8473 0
-8824 -8821 0
8824 -8473 8821 0
-8825 3292 0
-8825 -8821 0
8825 -3292 8821 0
-8826 -8825 0
-8826 -8824 0
8826 8825 8824 0
-8827 3292 0
-8827 8473 0
8827 -3292 -8473 0
-8828 -8827 0
-8828 8826 0
8828 8827 -8826 0
-8829 3296 8485 0
-8829 -3296 -8485 0
8829 -3296 8485 0
8829 3296 -8485 0
-8830 8829 -8828 0
-8830 -8829 8828 0
8830 -8829 -8828 0
8830 8829 8828 0
-8831 8485 0
-8831 -8828 0
8831 -8485 8828 0
-8832 3296 0
-8832 -8828 0
8832 -3296 8828 0
-8833 -8832 0
-8833 -8831 0
8833 8832 8831 0
-8834 3296 0
-8834 8485 0
8834 -3296 -8485 0
-8835 -8834 0
-8835 8833 0
8835 8834 -8833 0
-8836 3298 8497 0
-8836 -3298 -8497 0
8836 -3298 8497 0
8836 3298 -8497 0
-8837 8836 -8835 0
-8837 -8836 8835 0
8837 -8836 -8835 0
8837 8836 8835 0
-8838 8497 0
-8838 -8835 0
8838 -8497 8835 0
-8839 3298 0
-8839 -8835 0
8839 -3298 8835 0
-8840 -8839 0
-8840 -8838 0
8840 8839 8838 0
-8841 3298 0
-8841 8497 0
8841 -3298 -8497 0
-8842 -8841 0
-8842 8840 0
8842 8841 -8840 0
-8843 3302 8509 0
-8843 -3302 -8509 0
8843 -3302 8509 0
8843 3302 -8509 0
-8844 8843 -8842 0
-8844 -8843 8842 0
8844 -8843 -8842 0
8844 8843 8842 0
-8845 8509 0
-8845 -8842 0
8845 -8509 8842 0
-8846 3302 0
-8846 -8842 0
8846 -3302 8842 0
-8847 -8846 0
-8847 -8845 0
8847 8846 8845 0
-8848 3302 0
-8848 8509 0
8848 -3302 -8509 0
-8849 -8848 0
-8849 8847 0
8849 8848 -8847 0
-8850 3304 8521 0
-8850 -3304 -8521 0
8850 -3304 8521 0
8850 3304 -8521 0
-8851 8850 -8849 0
-8851 -8850 8849 0
8851 -8850 -8849 0
8851 8850 8849 0
-8852 8521 0
-8852 -8849 0
8852 -8521 8849 0
-8853 3304 0
-8853 -8849 0
8853 -3304 8849 0
-8854 -8853 0
-8854 -8852 0
8854 8853 8852 0
-8855 3304 0
-8855 8521 0
8855 -3304 -8521 0
-8856 -8855 0
-8856 8854 0
8856 8855 -8854 0
-8857 3308 8533 0
-8857 -3308 -8533 0
8857 -3308 8533 0
8857 3308 -8533 0
-8858 8857 -8856 0
-8858 -8857 8856 0
8858 -8857 -8856 0
8858 8857 8856 0
-8859 8533 0
-8859 -8856 0
8859 -8533 8856 0
-8860 3308 0
-8860 -8856 0
8860 -3308 8856 0
-8861 -8860 0
-8861 -8859 0
8861 8860 8859 0
-8862 3308 0
-8862 8533 0
8862 -3308 -8533 0
-8863 -8862 0
-8863 8861 0
8863 8862 -8861 0
-8864 3312 8545 0
-8864 -3312 -8545 0
8864 -3312 8545 0
8864 3312 -8545 0
-8865 8864 -8863 0
-8865 -8864 8863 0
8865 -8864 -8863 0
8865 8864 8863 0
-8866 8545 0
-8866 -8863 0
8866 -8545 8863 0
-8867 3312 0
-8867 -8863 0
8867 -3312 8863 0
-8868 -8867 0
-8868 -8866 0
8868 8867 8866 0
-8869 3312 0
-8869 8545 0
8869 -3312 -8545 0
-8870 -8869 0
-8870 8868 0
8870 8869 -8868 0
-8871 8652 -8176 0
-8871 -8652 8176 0
8871 -8652 -8176 0
8871 8652 8176 0
-8872 8652 0
-8872 -8176 0
8872 -8652 8176 0
-8873 8655 8556 0
-8873 -8655 -8556 0
8873 -8655 8556 0
8873 8655 -8556 0
-8874 8873 8872 0
-8874 -8873 -8872 0
8874 -8873 8872 0
8874 8873 -8872 0
-8875 8556 0
-8875 8872 0
8875 -8556 -8872 0
-8876 8655 0
-8876 8872 0
8876 -8655 -8872 0
-8877 -8876 0
-8877 -8875 0
8877 8876 8875 0
-8878 8655 0
-8878 8556 0
8878 -8655 -8556 0
-8879 -8878 0
-8879 8877 0
8879 8878 -8877 0
-8880 8662 8558 0
-8880 -8662 -8558 0
8880 -8662 8558 0
8880 8662 -8558 0
-8881 8880 -8879 0
-8881 -8880 8879 0
8881 -8880 -8879 0
8881 8880 8879 0
-8882 8558 0
-8882 -8879 0
8882 -8558 8879 0
-8883 8662 0
-8883 -8879 0
8883 -8662 8879 0
-8884 -8883 0
-8884 -8882 0
8884 8883 8882 0
-8885 8662 0
-8885 8558 0
8885 -8662 -8558 0
-8886 -8885 0
-8886 8884 0
8886 8885 -8884 0
-8887 8669 8562 0
-8887 -8669 -8562 0
8887 -8669 8562 0
8887 8669 -8562 0
-8888 8887 -8886 0
-8888 -8887 8886 0
8888 -8887 -8886 0
8888 8887 8886 0
-8889 8562 0
-8889 -8886 0
8889 -8562 8886 0
-8890 8669 0
-8890 -8886 0
8890 -8669 8886 0
-8891 -8890 0
-8891 -8889 0
8891 8890 8889 0
-8892 8669 0
-8892 8562 0
8892 -8669 -8562 0
-8893 -8892 0
-8893 8891 0
8893 8892 -8891 0
-8894 8676 8564 0
-8894 -8676 -8564 0
8894 -8676 8564 0
8894 8676 -8564 0
-8895 8894 -8893 0
-8895 -8894 8893 0
8895 -8894 -8893 0
8895 8894 8893 0
-8896 8564 0
-8896 -8893 0
8896 -8564 8893 0
-8897 8676 0
-8897 -8893 0
8897 -8676 8893 0
-8898 -8897 0
-8898 -8896 0
8898 8897 8896 0
-8899 8676 0
-8899 8564 0
8899 -8676 -8564 0
-8900 -8899 0
-8900 8898 0
8900 8899 -8898 0
-8901 8683 8568 0
-8901 -8683 -8568 0
8901 -8683 8568 0
8901 8683 -8568 0
-8902 8901 -8900 0
-8902 -8901 8900 0
8902 -8901 -8900 0
8902 8901 8900 0
-8903 8568 0
-8903 -8900 0
8903 -8568 8900 0
-8904 8683 0
-8904 -8900 0
8904 -8683 8900 0
-8905 -8904 0
-8905 -8903 0
8905 8904 8903 0
-8906 8683 0
-8906 8568 0
8906 -8683 -8568 0
-8907 -8906 0
-8907 8905 0
8907 8906 -8905 0
-8908 8690 8570 0
-8908 -8690 -8570 0
8908 -8690 8570 0
8908 8690 -8570 0
-8909 8908 -8907 0
-8909 -8908 8907 0
8909 -8908 -8907 0
8909 8908 8907 0
-8910 8570 0
-8910 -8907 0
8910 -8570 8907 0
-8911 8690 0
-8911 -8907 0
8911 -8690 8907 0
-8912 -8911 0
-8912 -8910 0
8912 8911 8910 0
-8913 8690 0
-8913 8570 0
8913 -8690 -8570 0
-8914 -8913 0
-8914 8912 0
8914 8913 -8912 0
-8915 8697 8574 0
-8915 -8697 -8574 0
8915 -8697 8574 0
8915 8697 -8574 0
-8916 8915 -8914 0
-8916 -8915 8914 0
8916 -8915 -8914 0
8916 8915 8914 0
-8917 8574 0
-8917 -8914 0
8917 -8574 8914 0
-8918 8697 0
-8918 -8914 0
8918 -8697 8914 0
-8919 -8918 0
-8919 -8917 0
8919 8918 8917 0
-8920 8697 0
-8920 8574 0
8920 -8697 -8574 0
-8921 -8920 0
-8921 8919 0
8921 8920 -8919 0
-8922 8704 8578 0
-8922 -8704 -8578 0
8922 -8704 8578 0
8922 8704 -8578 0
-8923 8922 -8921 0
-8923 -8922 8921 0
8923 -8922 -8921 0
8923 8922 8921 0
-8924 8578 0
-8924 -8921 0
8924 -8578 8921 0
-8925 8704 0
-8925 -8921 0
8925 -8704 8921 0
-8926 -8925 0
-8926 -8924 0
8926 8925 8924 0
-8927 8704 0
-8927 8578 0
8927 -8704 -8578 0
-8928 -8927 0
-8928 8926 0
8928 8927 -8926 0
-8929 8711 8580 0
-8929 -8711 -8580 0
8929 -8711 8580 0
8929 8711 -8580 0
-8930 8929 -8928 0
-8930 -8929 8928 0
8930 -8929 -8928 0
8930 8929 8928 0
-8931 8580 0
-8931 -8928 0
8931 -8580 8928 0
-8932 8711 0
-8932 -8928 0
8932 -8711 8928 0
-8933 -8932 0
-8933 -8931 0
8933 8932 8931 0
-8934 8711 0
-8934 8580 0
8934 -8711 -8580 0
-8935 -8934 0
-8935 8933 0
8935 8934 -8933 0
-8936 8718 8584 0
-8936 -8718 -8584 0
8936 -8718 8584 0
8936 8718 -8584 0
-8937 8936 -8935 0
-8937 -8936 8935 0
8937 -8936 -8935 0
8937 8936 8935 0
-8938 8584 0
-8938 -8935 0
8938 -8584 8935 0
-8939 8718 0
-8939 -8935 0
8939 -8718 8935 0
-8940 -8939 0
-8940 -8938 0
8940 8939 8938 0
-8941 8718 0
-8941 8584 0
8941 -8718 -8584 0
-8942 -8941 0
-8942 8940 0
8942 8941 -8940 0
-8943 8725 8588 0
-8943 -8725 -8588 0
8943 -8725 8588 0
8943 8725 -8588 0
-8944 8943 -8942 0
-8944 -8943 8942 0
8944 -8943 -8942 0
8944 8943 8942 0
-8945 8588 0
-8945 -8942 0
8945 -8588 8942 0
-8946 8725 0
-8946 -8942 0
8946 -8725 8942 0
-8947 -8946 0
-8947 -8945 0
8947 8946 8945 0
-8948 8725 0
-8948 8588 0
8948 -8725 -8588 0
-8949 -8948 0
-8949 8947 0
8949 8948 -8947 0
-8950 8732 8592 0
-8950 -8732 -8592 0
8950 -8732 8592 0
8950 8732 -8592 0
-8951 8950 -8949 0
-8951 -8950 8949 0
8951 -8950 -8949 0
8951 8950 8949 0
-8952 8592 0
-8952 -8949 0
8952 -8592 8949 0
-8953 8732 0
-8953 -8949 0
8953 -8732 8949 0
-8954 -8953 0
-8954 -8952 0
8954 8953 8952 0
-8955 8732 0
-8955 8592 0
8955 -8732 -8592 0
-8956 -8955 0
-8956 8954 0
8956 8955 -8954 0
-8957 8739 8596 0
-8957 -8739 -8596 0
8957 -8739 8596 0
8957 8739 -8596 0
-8958 8957 -8956 0
-8958 -8957 8956 0
8958 -8957 -8956 0
8958 8957 8956 0
-8959 8596 0
-8959 -8956 0
8959 -8596 8956 0
-8960 8739 0
-8960 -8956 0
8960 -8739 8956 0
-8961 -8960 0
-8961 -8959 0
8961 8960 8959 0
-8962 8739 0
-8962 8596 0
8962 -8739 -8596 0
-8963 -8962 0
-8963 8961 0
8963 8962 -8961 0
-8964 8746 8598 0
-8964 -8746 -8598 0
8964 -8746 8598 0
8964 8746 -8598 0
-8965 8964 -8963 0
-8965 -8964 8963 0
8965 -8964 -8963 0
8965 8964 8963 0
-8966 8598 0
-8966 -8963 0
8966 -8598 8963 0
-8967 8746 0
-8967 -8963 0
8967 -8746 8963 0
-8968 -8967 0
-8968 -8966 0
8968 8967 8966 0
-8969 8746 0
-8969 8598 0
8969 -8746 -8598 0
-8970 -8969 0
-8970 8968 0
8970 8969 -8968 0
-8971 8753 8602 0
-8971 -8753 -8602 0
8971 -8753 8602 0
8971 8753 -8602 0
-8972 8971 -8970 0
-8972 -8971 8970 0
8972 -8971 -8970 0
8972 8971 8970 0
-8973 8602 0
-8973 -8970 0
8973 -8602 8970 0
-8974 8753 0
-8974 -8970 0
8974 -8753 8970 0
-8975 -8974 0
-8975 -8973 0
8975 8974 8973 0
-8976 8753 0
-8976 8602 0
8976 -8753 -8602 0
-8977 -8976 0
-8977 8975 0
8977 8976 -8975 0
-8978 8760 8604 0
-8978 -8760 -8604 0
8978 -8760 8604 0
8978 8760 -8604 0
-8979 8978 -8977 0
-8979 -8978 8977 0
8979 -8978 -8977 0
8979 8978 8977 0
-8980 8604 0
-8980 -8977 0
8980 -8604 8977 0
-8981 8760 0
-8981 -8977 0
8981 -8760 8977 0
-8982 -8981 0
-8982 -8980 0
8982 8981 8980 0
-8983 8760 0
-8983 8604 0
8983 -8760 -8604 0
-8984 -8983 0
-8984 8982 0
8984 8983 -8982 0
-8985 8767 8606 0
-8985 -8767 -8606 0
8985 -8767 8606 0
8985 8767 -8606 0
-8986 8985 -8984 0
-8986 -8985 8984 0
8986 -8985 -8984 0
8986 8985 8984 0
-8987 8606 0
-8987 -8984 0
8987 -8606 8984 0
-8988 8767 0
-8988 -8984 0
8988 -8767 8984 0
-8989 -8988 0
-8989 -8987 0
8989 8988 8987 0
-8990 8767 0
-8990 8606 0
8990 -8767 -8606 0
-8991 -8990 0
-8991 8989 0
8991 8990 -8989 0
-8992 8774 8608 0
-8992 -8774 -8608 0
8992 -8774 8608 0
8992 8774 -8608 0
-8993 8992 -8991 0
-8993 -8992 8991 0
8993 -8992 -8991 0
8993 8992 8991 0
-8994 8608 0
-8994 -8991 0
8994 -8608 8991 0
-8995 8774 0
-8995 -8991 0
8995 -8774 8991 0
-8996 -8995 0
-8996 -8994 0
8996 8995 8994 0
-8997 8774 0
-8997 8608 0
8997 -8774 -8608 0
-8998 -8997 0
-8998 8996 0
8998 8997 -8996 0
-8999 8781 8612 0
-8999 -8781 -8612 0
8999 -8781 8612 0
8999 8781 -8612 0
-9000 8999 -8998 0
-9000 -8999 8998 0
9000 -8999 -8998 0
9000 8999 8998 0
-9001 8612 0
-9001 -8998 0
9001 -8612 8998 0
-9002 8781 0
-9002 -8998 0
9002 -8781 8998 0
-9003 -9002 0
-9003 -9001 0
9003 9002 9001 0
-9004 8781 0
-9004 8612 0
9004 -8781 -8612 0
-9005 -9004 0
-9005 9003 0
9005 9004 -9003 0
-9006 8788 8616 0
-9006 -8788 -8616 0
9006 -8788 8616 0
9006 8788 -8616 0
-9007 9006 -9005 0
-9007 -9006 9005 0
9007 -9006 -9005 0
9007 9006 9005 0
-9008 8616 0
-9008 -9005 0
9008 -8616 9005 0
-9009 8788 0
-9009 -9005 0
9009 -8788 9005 0
-9010 -9009 0
-9010 -9008 0
9010 9009 9008 0
-9011 8788 0
-9011 8616 0
9011 -8788 -8616 0
-9012 -9011 0
-9012 9010 0
9012 9011 -9010 0
-9013 8795 8620 0
-9013 -8795 -8620 0
9013 -8795 8620 0
9013 8795 -8620 0
-9014 9013 -9012 0
-9014 -9013 9012 0
9014 -9013 -9012 0
9014 9013 9012 0
-9015 8620 0
-9015 -9012 0
9015 -8620 9012 0
-9016 8795 0
-9016 -9012 0
9016 -8795 9012 0
-9017 -9016 0
-9017 -9015 0
9017 9016 9015 0
-9018 8795 0
-9018 8620 0
9018 -8795 -8620 0
-9019 -9018 0
-9019 9017 0
9019 9018 -9017 0
-9020 8802 8622 0
-9020 -8802 -8622 0
9020 -8802 8622 0
9020 8802 -8622 0
-9021 9020 -9019 0
-9021 -9020 9019 0
9021 -9020 -9019 0
9021 9020 9019 0
-9022 8622 0
-9022 -9019 0
9022 -8622 9019 0
-9023 8802 0
-9023 -9019 0
9023 -8802 9019 0
-9024 -9023 0
-9024 -9022 0
9024 9023 9022 0
-9025 8802 0
-9025 8622 0
9025 -8802 -8622 0
-9026 -9025 0
-9026 9024 0
9026 9025 -9024 0
-9027 8809 8624 0
-9027 -8809 -8624 0
9027 -8809 8624 0
9027 8809 -8624 0
-9028 9027 -9026 0
-9028 -9027 9026 0
9028 -9027 -9026 0
9028 9027 9026 0
-9029 8624 0
-9029 -9026 0
9029 -8624 9026 0
-9030 8809 0
-9030 -9026 0
9030 -8809 9026 0
-9031 -9030 0
-9031 -9029 0
9031 9030 9029 0
-9032 8809 0
-9032 8624 0
9032 -8809 -8624 0
-9033 -9032 0
-9033 9031 0
9033 9032 -9031 0
-9034 8816 8626 0
-9034 -8816 -8626 0
9034 -8816 8626 0
9034 8816 -8626 0
-9035 9034 -9033 0
-9035 -9034 9033 0
9035 -9034 -9033 0
9035 9034 9033 0
-9036 8626 0
-9036 -9033 0
9036 -8626 9033 0
-9037 8816 0
-9037 -9033 0
9037 -8816 9033 0
-9038 -9037 0
-9038 -9036 0
9038 9037 9036 0
-9039 8816 0
-9039 8626 0
9039 -8816 -8626 0
-9040 -9039 0
-9040 9038 0
9040 9039 -9038 0
-9041 8823 8630 0
-9041 -8823 -8630 0
9041 -8823 8630 0
9041 8823 -8630 0
-9042 9041 -9040 0
-9042 -9041 9040 0
9042 -9041 -9040 0
9042 9041 9040 0
-9043 8630 0
-9043 -9040 0
9043 -8630 9040 0
-9044 8823 0
-9044 -9040 0
9044 -8823 9040 0
-9045 -9044 0
-9045 -9043 0
9045 9044 9043 0
-9046 8823 0
-9046 8630 0
9046 -8823 -8630 0
-9047 -9046 0
-9047 9045 0
9047 9046 -9045 0
-9048 8830 8634 0
-9048 -8830 -8634 0
9048 -8830 8634 0
9048 8830 -8634 0
-9049 9048 -9047 0
-9049 -9048 9047 0
9049 -9048 -9047 0
9049 9048 9047 0
-9050 8634 0
-9050 -9047 0
9050 -8634 9047 0
-9051 8830 0
-9051 -9047 0
9051 -8830 9047 0
-9052 -9051 0
-9052 -9050 0
9052 9051 9050 0
-9053 8830 0
-9053 8634 0
9053 -8830 -8634 0
-9054 -9053 0
-9054 9052 0
9054 9053 -9052 0
-9055 8837 8636 0
-9055 -8837 -8636 0
9055 -8837 8636 0
9055 8837 -8636 0
-9056 9055 -9054 0
-9056 -9055 9054 0
9056 -9055 -9054 0
9056 9055 9054 0
-9057 8636 0
-9057 -9054 0
9057 -8636 9054 0
-9058 8837 0
-9058 -9054 0
9058 -8837 9054 0
-9059 -9058 0
-9059 -9057 0
9059 9058 9057 0
-9060 8837 0
-9060 8636 0
9060 -8837 -8636 0
-9061 -9060 0
-9061 9059 0
9061 9060 -9059 0
-9062 8844 8640 0
-9062 -8844 -8640 0
9062 -8844 8640 0
9062 8844 -8640 0
-9063 9062 -9061 0
-9063 -9062 9061 0
9063 -9062 -9061 0
9063 9062 9061 0
-9064 8640 0
-9064 -9061 0
9064 -8640 9061 0
-9065 8844 0
-9065 -9061 0
9065 -8844 9061 0
-9066 -9065 0
-9066 -9064 0
9066 9065 9064 0
-9067 8844 0
-9067 8640 0
9067 -8844 -8640 0
-9068 -9067 0
-9068 9066 0
9068 9067 -9066 0
-9069 8851 8642 0
-9069 -8851 -8642 0
9069 -8851 8642 0
9069 8851 -8642 0
-9070 9069 -9068 0
-9070 -9069 9068 0
9070 -9069 -9068 0
9070 9069 9068 0
-9071 8642 0
-9071 -9068 0
9071 -8642 9068 0
-9072 8851 0
-9072 -9068 0
9072 -8851 9068 0
-9073 -9072 0
-9073 -9071 0
9073 9072 9071 0
-9074 8851 0
-9074 8642 0
9074 -8851 -8642 0
-9075 -9074 0
-9075 9073 0
9075 9074 -9073 0
-9076 8858 8646 0
-9076 -8858 -8646 0
9076 -8858 8646 0
9076 8858 -8646 0
-9077 9076 -9075 0
-9077 -9076 9075 0
9077 -9076 -9075 0
9077 9076 9075 0
-9078 8646 0
-9078 -9075 0
9078 -8646 9075 0
-9079 8858 0
-9079 -9075 0
9079 -8858 9075 0
-9080 -9079 0
-9080 -9078 0
9080 9079 9078 0
-9081 8858 0
-9081 8646 0
9081 -8858 -8646 0
-9082 -9081 0
-9082 9080 0
9082 9081 -9080 0
-9083 8865 8648 0
-9083 -8865 -8648 0
9083 -8865 8648 0
9083 8865 -8648 0
-9084 9083 -9082 0
-9084 -9083 9082 0
9084 -9083 -9082 0
9084 9083 9082 0
-9085 8648 0
-9085 -9082 0
9085 -8648 9082 0
-9086 8865 0
-9086 -9082 0
9086 -8865 9082 0
-9087 -9086 0
-9087 -9085 0
9087 9086 9085 0
-9088 8865 0
-9088 8648 0
9088 -8865 -8648 0
-9089 -9088 0
-9089 9087 0
9089 9088 -9087 0
-9090 8178 -8183 0
-9090 -8178 8183 0
9090 -8178 -8183 0
9090 8178 8183 0
-9091 8178 0
-9091 -8183 0
9091 -8178 8183 0
-9092 8190 -8195 0
-9092 -8190 8195 0
9092 -8190 -8195 0
9092 8190 8195 0
-9093 9092 9091 0
-9093 -9092 -9091 0
9093 -9092 9091 0
9093 9092 -9091 0
-9094 -8195 0
-9094 9091 0
9094 8195 -9091 0
-9095 8190 0
-9095 9091 0
9095 -8190 -9091 0
-9096 -9095 0
-9096 -9094 0
9096 9095 9094 0
-9097 8190 0
-9097 -8195 0
9097 -8190 8195 0
-9098 -9097 0
-9098 9096 0
9098 9097 -9096 0
-9099 8202 -8207 0
-9099 -8202 8207 0
9099 -8202 -8207 0
9099 8202 8207 0
-9100 9099 -9098 0
-9100 -9099 9098 0
9100 -9099 -9098 0
9100 9099 9098 0
-9101 -8207 0
-9101 -9098 0
9101 8207 9098 0
-9102 8202 0
-9102 -9098 0
9102 -8202 9098 0
-9103 -9102 0
-9103 -9101 0
9103 9102 9101 0
-9104 8202 0
-9104 -8207 0
9104 -8202 8207 0
-9105 -9104 0
-9105 9103 0
9105 9104 -9103 0
-9106 8214 -8219 0
-9106 -8214 8219 0
9106 -8214 -8219 0
9106 8214 8219 0
-9107 9106 -9105 0
-9107 -9106 9105 0
9107 -9106 -9105 0
9107 9106 9105 0
-9108 -8219 0
-9108 -9105 0
9108 8219 9105 0
-9109 8214 0
-9109 -9105 0
9109 -8214 9105 0
-9110 -9109 0
-9110 -9108 0
9110 9109 9108 0
-9111 8214 0
-9111 -8219 0
9111 -8214 8219 0
-9112 -9111 0
-9112 9110 0
9112 9111 -9110 0
-9113 8226 -8231 0
-9113 -8226 8231 0
9113 -8226 -8231 0
9113 8226 8231 0
-9114 9113 -9112 0
-9114 -9113 9112 0
9114 -9113 -9112 0
9114 9113 9112 0
-9115 -8231 0
-9115 -9112 0
9115 8231 9112 0
-9116 8226 0
-9116 -9112 0
9116 -8226 9112 0
-9117 -9116 0
-9117 -9115 0
9117 9116 9115 0
-9118 8226 0
-9118 -8231 0
9118 -8226 8231 0
-9119 -9118 0
-9119 9117 0
9119 9118 -9117 0
-9120 8238 -8243 0
-9120 -8238 8243 0
9120 -8238 -8243 0
9120 8238 8243 0
-9121 9120 -9119 0
-9121 -9120 9119 0
9121 -9120 -9119 0
9121 9120 9119 0
-9122 -8243 0
-9122 -9119 0
9122 8243 9119 0
-9123 8238 0
-9123 -9119 0
9123 -8238 9119 0
-9124 -9123 0
-9124 -9122 0
9124 9123 9122 0
-9125 8238 0
-9125 -8243 0
9125 -8238 8243 0
-9126 -9125 0
-9126 9124 0
9126 9125 -9124 0
-9127 8250 -8255 0
-9127 -8250 8255 0
9127 -8250 -8255 0
9127 8250 8255 0
-9128 9127 -9126 0
-9128 -9127 9126 0
9128 -9127 -9126 0
9128 9127 9126 0
-9129 -8255 0
-9129 -9126 0
9129 8255 9126 0
-9130 8250 0
-9130 -9126 0
9130 -8250 9126 0
-9131 -9130 0
-9131 -9129 0
9131 9130 9129 0
-9132 8250 0
-9132 -8255 0
9132 -8250 8255 0
-9133 -9132 0
-9133 9131 0
9133 9132 -9131 0
-9134 8262 -8267 0
-9134 -8262 8267 0
9134 -8262 -8267 0
9134 8262 8267 0
-9135 9134 -9133 0
-9135 -9134 9133 0
9135 -9134 -9133 0
9135 9134 9133 0
-9136 -8267 0
-9136 -9133 0
9136 8267 9133 0
-9137 8262 0
-9137 -9133 0
9137 -8262 9133 0
-9138 -9137 0
-9138 -9136 0
9138 9137 9136 0
-9139 8262 0
-9139 -8267 0
9139 -8262 8267 0
-9140 -9139 0
-9140 9138 0
9140 9139 -9138 0
-9141 8274 -8279 0
-9141 -8274 8279 0
9141 -8274 -8279 0
9141 8274 8279 0
-9142 9141 -9140 0
-9142 -9141 9140 0
9142 -9141 -9140 0
9142 9141 9140 0
-9143 -8279 0
-9143 -9140 0
9143 8279 9140 0
-9144 8274 0
-9144 -9140 0
9144 -8274 9140 0
-9145 -9144 0
-9145 -9143 0
9145 9144 9143 0
-9146 8274 0
-9146 -8279 0
9146 -8274 8279 0
-9147 -9146 0
-9147 9145 0
9147 9146 -9145 0
-9148 8286 -8291 0
-9148 -8286 8291 0
9148 -8286 -8291 0
9148 8286 8291 0
-9149 9148 -9147 0
-9149 -9148 9147 0
9149 -9148 -9147 0
9149 9148 9147 0
-9150 -8291 0
-9150 -9147 0
9150 8291 9147 0
-9151 8286 0
-9151 -9147 0
9151 -8286 9147 0
-9152 -9151 0
-9152 -9150 0
9152 9151 9150 0
-9153 8286 0
-9153 -8291 0
9153 -8286 8291 0
-9154 -9153 0
-9154 9152 0
9154 9153 -9152 0
-9155 8298 -8303 0
-9155 -8298 8303 0
9155 -8298 -8303 0
9155 8298 8303 0
-9156 9155 -9154 0
-9156 -9155 9154 0
9156 -9155 -9154 0
9156 9155 9154 0
-9157 -8303 0
-9157 -9154 0
9157 8303 9154 0
-9158 8298 0
-9158 -9154 0
9158 -8298 9154 0
-9159 -9158 0
-9159 -9157 0
9159 9158 9157 0
-9160 8298 0
-9160 -8303 0
9160 -8298 8303 0
-9161 -9160 0
-9161 9159 0
9161 9160 -9159 0
-9162 8310 -8315 0
-9162 -8310 8315 0
9162 -8310 -8315 0
9162 8310 8315 0
-9163 9162 -9161 0
-9163 -9162 9161 0
9163 -9162 -9161 0
9163 9162 9161 0
-9164 -8315 0
-9164 -9161 0
9164 8315 9161 0
-9165 8310 0
-9165 -9161 0
9165 -8310 9161 0
-9166 -9165 0
-9166 -9164 0
9166 9165 9164 0
-9167 8310 0
-9167 -8315 0
9167 -8310 8315 0
-9168 -9167 0
-9168 9166 0
9168 9167 -9166 0
-9169 8322 -8327 0
-9169 -8322 8327 0
9169 -8322 -8327 0
9169 8322 8327 0
-9170 9169 -9168 0
-9170 -9169 9168 0
9170 -9169 -9168 0
9170 9169 9168 0
-9171 -8327 0
-9171 -9168 0
9171 8327 9168 0
-9172 8322 0
-9172 -9168 0
9172 -8322 9168 0
-9173 -9172 0
-9173 -9171 0
9173 9172 9171 0
-9174 8322 0
-9174 -8327 0
9174 -8322 8327 0
-9175 -9174 0
-9175 9173 0
9175 9174 -9173 0
-9176 8334 -8339 0
-9176 -8334 8339 0
9176 -8334 -8339 0
9176 8334 8339 0
-9177 9176 -9175 0
-9177 -9176 9175 0
9177 -9176 -9175 0
9177 9176 9175 0
-9178 -8339 0
-9178 -9175 0
9178 8339 9175 0
-9179 8334 0
-9179 -9175 0
9179 -8334 9175 0
-9180 -9179 0
-9180 -9178 0
9180 9179 9178 0
-9181 8334 0
-9181 -8339 0
9181 -8334 8339 0
-9182 -9181 0
-9182 9180 0
9182 9181 -9180 0
-9183 8346 -8351 0
-9183 -8346 8351 0
9183 -8346 -8351 0
9183 8346 8351 0
-9184 9183 -9182 0
-9184 -9183 9182 0
9184 -9183 -9182 0
9184 9183 9182 0
-9185 -8351 0
-9185 -9182 0
9185 8351 9182 0
-9186 8346 0
-9186 -9182 0
9186 -8346 9182 0
-9187 -9186 0
-9187 -9185 0
9187 9186 9185 0
-9188 8346 0
-9188 -8351 0
9188 -8346 8351 0
-9189 -9188 0
-9189 9187 0
9189 9188 -9187 0
-9190 8358 -8363 0
-9190 -8358 8363 0
9190 -8358 -8363 0
9190 8358 8363 0
-9191 9190 -9189 0
-9191 -9190 9189 0
9191 -9190 -9189 0
9191 9190 9189 0
-9192 -8363 0
-9192 -9189 0
9192 8363 9189 0
-9193 8358 0
-9193 -9189 0
9193 -8358 9189 0
-9194 -9193 0
-9194 -9192 0
9194 9193 9192 0
-9195 8358 0
-9195 -8363 0
9195 -8358 8363 0
-9196 -9195 0
-9196 9194 0
9196 9195 -9194 0
-9197 8370 -8375 0
-9197 -8370 8375 0
9197 -8370 -8375 0
9197 8370 8375 0
-9198 9197 -9196 0
-9198 -9197 9196 0
9198 -9197 -9196 0
9198 9197 9196 0
-9199 -8375 0
-9199 -9196 0
9199 8375 9196 0
-9200 8370 0
-9200 -9196 0
9200 -8370 9196 0
-9201 -9200 0
-9201 -9199 0
9201 9200 9199 0
-9202 8370 0
-9202 -8375 0
9202 -8370 8375 0
-9203 -9202 0
-9203 9201 0
9203 9202 -9201 0
-9204 8382 -8387 0
-9204 -8382 8387 0
9204 -8382 -8387 0
9204 8382 8387 0
-9205 9204 -9203 0
-9205 -9204 9203 0
9205 -9204 -9203 0
9205 9204 9203 0
-9206 -8387 0
-9206 -9203 0
9206 8387 9203 0
-9207 8382 0
-9207 -9203 0
9207 -8382 9203 0
-9208 -9207 0
-9208 -9206 0
9208 9207 9206 0
-9209 8382 0
-9209 -8387 0
9209 -8382 8387 0
-9210 -9209 0
-9210 9208 0
9210 9209 -9208 0
-9211 8394 -8399 0
-9211 -8394 8399 0
9211 -8394 -8399 0
9211 8394 8399 0
-9212 9211 -9210 0
-9212 -9211 9210 0
9212 -9211 -9210 0
9212 9211 9210 0
-9213 -8399 0
-9213 -9210 0
9213 8399 9210 0
-9214 8394 0
-9214 -9210 0
9214 -8394 9210 0
-9215 -9214 0
-9215 -9213 0
9215 9214 9213 0
-9216 8394 0
-9216 -8399 0
9216 -8394 8399 0
-9217 -9216 0
-9217 9215 0
9217 9216 -9215 0
-9218 8406 -8411 0
-9218 -8406 8411 0
9218 -8406 -8411 0
9218 8406 8411 0
-9219 9218 -9217 0
-9219 -9218 9217 0
9219 -9218 -9217 0
9219 9218 9217 0
-9220 -8411 0
-9220 -9217 0
9220 8411 9217 0
-9221 8406 0
-9221 -9217 0
9221 -8406 9217 0
-9222 -9221 0
-9222 -9220 0
9222 9221 9220 0
-9223 8406 0
-9223 -8411 0
9223 -8406 8411 0
-9224 -9223 0
-9224 9222 0
9224 9223 -9222 0
-9225 8418 -8423 0
-9225 -8418 8423 0
9225 -8418 -8423 0
9225 8418 8423 0
-9226 9225 -9224 0
-9226 -9225 9224 0
9226 -9225 -9224 0
9226 9225 9224 0
-9227 -8423 0
-9227 -9224 0
9227 8423 9224 0
-9228 8418 0
-9228 -9224 0
9228 -8418 9224 0
-9229 -9228 0
-9229 -9227 0
9229 9228 9227 0
-9230 8418 0
-9230 -8423 0
9230 -8418 8423 0
-9231 -9230 0
-9231 9229 0
9231 9230 -9229 0
-9232 8430 -8435 0
-9232 -8430 8435 0
9232 -8430 -8435 0
9232 8430 8435 0
-9233 9232 -9231 0
-9233 -9232 9231 0
9233 -9232 -9231 0
9233 9232 9231 0
-9234 -8435 0
-9234 -9231 0
9234 8435 9231 0
-9235 8430 0
-9235 -9231 0
9235 -8430 9231 0
-9236 -9235 0
-9236 -9234 0
9236 9235 9234 0
-9237 8430 0
-9237 -8435 0
9237 -8430 8435 0
-9238 -9237 0
-9238 9236 0
9238 9237 -9236 0
-9239 8442 -8447 0
-9239 -8442 8447 0
9239 -8442 -8447 0
9239 8442 8447 0
-9240 9239 -9238 0
-9240 -9239 9238 0
9240 -9239 -9238 0
9240 9239 9238 0
-9241 -8447 0
-9241 -9238 0
9241 8447 9238 0
-9242 8442 0
-9242 -9238 0
9242 -8442 9238 0
-9243 -9242 0
-9243 -9241 0
9243 9242 9241 0
-9244 8442 0
-9244 -8447 0
9244 -8442 8447 0
-9245 -9244 0
-9245 9243 0
9245 9244 -9243 0
-9246 8454 -8459 0
-9246 -8454 8459 0
9246 -8454 -8459 0
9246 8454 8459 0
-9247 9246 -9245 0
-9247 -9246 9245 0
9247 -9246 -9245 0
9247 9246 9245 0
-9248 -8459 0
-9248 -9245 0
9248 8459 9245 0
-9249 8454 0
-9249 -9245 0
9249 -8454 9245 0
-9250 -9249 0
-9250 -9248 0
9250 9249 9248 0
-9251 8454 0
-9251 -8459 0
9251 -8454 8459 0
-9252 -9251 0
-9252 9250 0
9252 9251 -9250 0
-9253 8466 -8471 0
-9253 -8466 8471 0
9253 -8466 -8471 0
9253 8466 8471 0
-9254 9253 -9252 0
-9254 -9253 9252 0
9254 -9253 -9252 0
9254 9253 9252 0
-9255 -8471 0
-9255 -9252 0
9255 8471 9252 0
-9256 8466 0
-9256 -9252 0
9256 -8466 9252 0
-9257 -9256 0
-9257 -9255 0
9257 9256 9255 0
-9258 8466 0
-9258 -8471 0
9258 -8466 8471 0
-9259 -9258 0
-9259 9257 0
9259 9258 -9257 0
-9260 8478 -8483 0
-9260 -8478 8483 0
9260 -8478 -8483 0
9260 8478 8483 0
-9261 9260 -9259 0
-9261 -9260 9259 0
9261 -9260 -9259 0
9261 9260 9259 0
-9262 -8483 0
-9262 -9259 0
9262 8483 9259 0
-9263 8478 0
-9263 -9259 0
9263 -8478 9259 0
-9264 -9263 0
-9264 -9262 0
9264 9263 9262 0
-9265 8478 0
-9265 -8483 0
9265 -8478 8483 0
-9266 -9265 0
-9266 9264 0
9266 9265 -9264 0
-9267 8490 -8495 0
-9267 -8490 8495 0
9267 -8490 -8495 0
9267 8490 8495 0
-9268 9267 -9266 0
-9268 -9267 9266 0
9268 -9267 -9266 0
9268 9267 9266 0
-9269 -8495 0
-9269 -9266 0
9269 8495 9266 0
-9270 8490 0
-9270 -9266 0
9270 -8490 9266 0
-9271 -9270 0
-9271 -9269 0
9271 9270 9269 0
-9272 8490 0
-9272 -8495 0
9272 -8490 8495 0
-9273 -9272 0
-9273 9271 0
9273 9272 -9271 0
-9274 8502 -8507 0
-9274 -8502 8507 0
9274 -8502 -8507 0
9274 8502 8507 0
-9275 9274 -9273 0
-9275 -9274 9273 0
9275 -9274 -9273 0
9275 9274 9273 0
-9276 -8507 0
-9276 -9273 0
9276 8507 9273 0
-9277 8502 0
-9277 -9273 0
9277 -8502 9273 0
-9278 -9277 0
-9278 -9276 0
9278 9277 9276 0
-9279 8502 0
-9279 -8507 0
9279 -8502 8507 0
-9280 -9279 0
-9280 9278 0
9280 9279 -9278 0
-9281 8514 -8519 0
-9281 -8514 8519 0
9281 -8514 -8519 0
9281 8514 8519 0
-9282 9281 -9280 0
-9282 -9281 9280 0
9282 -9281 -9280 0
9282 9281 9280 0
-9283 -8519 0
-9283 -9280 0
9283 8519 9280 0
-9284 8514 0
-9284 -9280 0
9284 -8514 9280 0
-9285 -9284 0
-9285 -9283 0
9285 9284 9283 0
-9286 8514 0
-9286 -8519 0
9286 -8514 8519 0
-9287 -9286 0
-9287 9285 0
9287 9286 -9285 0
-9288 8526 -8531 0
-9288 -8526 8531 0
9288 -8526 -8531 0
9288 8526 8531 0
-9289 9288 -9287 0
-9289 -9288 9287 0
9289 -9288 -9287 0
9289 9288 9287 0
-9290 -8531 0
-9290 -9287 0
9290 8531 9287 0
-9291 8526 0
-9291 -9287 0
9291 -8526 9287 0
-9292 -9291 0
-9292 -9290 0
9292 9291 9290 0
-9293 8526 0
-9293 -8531 0
9293 -8526 8531 0
-9294 -9293 0
-9294 9292 0
9294 9293 -9292 0
-9295 8538 -8543 0
-9295 -8538 8543 0
9295 -8538 -8543 0
9295 8538 8543 0
-9296 9295 -9294 0
-9296 -9295 9294 0
9296 -9295 -9294 0
9296 9295 9294 0
-9297 -8543 0
-9297 -9294 0
9297 8543 9294 0
-9298 8538 0
-9298 -9294 0
9298 -8538 9294 0
-9299 -9298 0
-9299 -9297 0
9299 9298 9297 0
-9300 8538 0
-9300 -8543 0
9300 -8538 8543 0
-9301 -9300 0
-9301 9299 0
9301 9300 -9299 0
-9302 8550 -8555 0
-9302 -8550 8555 0
9302 -8550 -8555 0
9302 8550 8555 0
-9303 9302 -9301 0
-9303 -9302 9301 0
9303 -9302 -9301 0
9303 9302 9301 0
-9304 -8555 0
-9304 -9301 0
9304 8555 9301 0
-9305 8550 0
-9305 -9301 0
9305 -8550 9301 0
-9306 -9305 0
-9306 -9304 0
9306 9305 9304 0
-9307 8550 0
-9307 -8555 0
9307 -8550 8555 0
-9308 -9307 0
-9308 9306 0
9308 9307 -9306 0
-9309 3314 8871 0
-9309 -3314 -8871 0
9309 -3314 8871 0
9309 3314 -8871 0
-9310 3314 0
-9310 8871 0
9310 -3314 -8871 0
-9311 3317 8874 0
-9311 -3317 -8874 0
9311 -3317 8874 0
9311 3317 -8874 0
-9312 9311 9310 0
-9312 -9311 -9310 0
9312 -9311 9310 0
9312 9311 -9310 0
-9313 8874 0
-9313 9310 0
9313 -8874 -9310 0
-9314 3317 0
-9314 9310 0
9314 -3317 -9310 0
-9315 -9314 0
-9315 -9313 0
9315 9314 9313 0
-9316 3317 0
-9316 8874 0
9316 -3317 -8874 0
-9317 -9316 0
-9317 9315 0
9317 9316 -9315 0
-9318 3324 8881 0
-9318 -3324 -8881 0
9318 -3324 8881 0
9318 3324 -8881 0
-9319 9318 -9317 0
-9319 -9318 9317 0
9319 -9318 -9317 0
9319 9318 9317 0
-9320 8881 0
-9320 -9317 0
9320 -8881 9317 0
-9321 3324 0
-9321 -9317 0
9321 -3324 9317 0
-9322 -9321 0
-9322 -9320 0
9322 9321 9320 0
-9323 3324 0
-9323 8881 0
9323 -3324 -8881 0
-9324 -9323 0
-9324 9322 0
9324 9323 -9322 0
-9325 3331 8888 0
-9325 -3331 -8888 0
9325 -3331 8888 0
9325 3331 -8888 0
-9326 9325 -9324 0
-9326 -9325 9324 0
9326 -9325 -9324 0
9326 9325 9324 0
-9327 8888 0
-9327 -9324 0
9327 -8888 9324 0
-9328 3331 0
-9328 -9324 0
9328 -3331 9324 0
-9329 -9328 0
-9329 -9327 0
9329 9328 9327 0
-9330 3331 0
-9330 8888 0
9330 -3331 -8888 0
-9331 -9330 0
-9331 9329 0
9331 9330 -9329 0
-9332 3338 8895 0
-9332 -3338 -8895 0
9332 -3338 8895 0
9332 3338 -8895 0
-9333 9332 -9331 0
-9333 -9332 9331 0
9333 -9332 -9331 0
9333 9332 9331 0
-9334 8895 0
-9334 -9331 0
9334 -8895 9331 0
-9335 3338 0
-9335 -9331 0
9335 -3338 9331 0
-9336 -9335 0
-9336 -9334 0
9336 9335 9334 0
-9337 3338 0
-9337 8895 0
9337 -3338 -8895 0
-9338 -9337 0
-9338 9336 0
9338 9337 -9336 0
-9339 3345 8902 0
-9339 -3345 -8902 0
9339 -3345 8902 0
9339 3345 -8902 0
-9340 9339 -9338 0
-9340 -9339 9338 0
9340 -9339 -9338 0
9340 9339 9338 0
-9341 8902 0
-9341 -9338 0
9341 -8902 9338 0
-9342 3345 0
-9342 -9338 0
9342 -3345 9338 0
-9343 -9342 0
-9343 -9341 0
9343 9342 9341 0
-9344 3345 0
-9344 8902 0
9344 -3345 -8902 0
-9345 -9344 0
-9345 9343 0
9345 9344 -9343 0
-9346 3352 8909 0
-9346 -3352 -8909 0
9346 -3352 8909 0
9346 3352 -8909 0
-9347 9346 -9345 0
-9347 -9346 9345 0
9347 -9346 -9345 0
9347 9346 9345 0
-9348 8909 0
-9348 -9345 0
9348 -8909 9345 0
-9349 3352 0
-9349 -9345 0
9349 -3352 9345 0
-9350 -9349 0
-9350 -9348 0
9350 9349 9348 0
-9351 3352 0
-9351 8909 0
9351 -3352 -8909 0
-9352 -9351 0
-9352 9350 0
9352 9351 -9350 0
-9353 3359 8916 0
-9353 -3359 -8916 0
9353 -3359 8916 0
9353 3359 -8916 0
-9354 9353 -9352 0
-9354 -9353 9352 0
9354 -9353 -9352 0
9354 9353 9352 0
-9355 8916 0
-9355 -9352 0
9355 -8916 9352 0
-9356 3359 0
-9356 -9352 0
9356 -3359 9352 0
-9357 -9356 0
-9357 -9355 0
9357 9356 9355 0
-9358 3359 0
-9358 8916 0
9358 -3359 -8916 0
-9359 -9358 0
-9359 9357 0
9359 9358 -9357 0
-9360 3366 8923 0
-9360 -3366 -8923 0
9360 -3366 8923 0
9360 3366 -8923 0
-9361 9360 -9359 0
-9361 -9360 9359 0
9361 -9360 -9359 0
9361 9360 9359 0
-9362 8923 0
-9362 -9359 0
9362 -8923 9359 0
-9363 3366 0
-9363 -9359 0
9363 -3366 9359 0
-9364 -9363 0
-9364 -9362 0
9364 9363 9362 0
-9365 3366 0
-9365 8923 0
9365 -3366 -8923 0
-9366 -9365 0
-9366 9364 0
9366 9365 -9364 0
-9367 3373 8930 0
-9367 -3373 -8930 0
9367 -3373 8930 0
9367 3373 -8930 0
-9368 9367 -9366 0
-9368 -9367 9366 0
9368 -9367 -9366 0
9368 9367 9366 0
-9369 8930 0
-9369 -9366 0
9369 -8930 9366 0
-9370 3373 0
-9370 -9366 0
9370 -3373 9366 0
-9371 -9370 0
-9371 -9369 0
9371 9370 9369 0
-9372 3373 0
-9372 8930 0
9372 -3373 -8930 0
-9373 -9372 0
-9373 9371 0
9373 9372 -9371 0
-9374 3380 8937 0
-9374 -3380 -8937 0
9374 -3380 8937 0
9374 3380 -8937 0
-9375 9374 -9373 0
-9375 -9374 9373 0
9375 -9374 -9373 0
9375 9374 9373 0
-9376 8937 0
-9376 -9373 0
9376 -8937 9373 0
-9377 3380 0
-9377 -9373 0
9377 -3380 9373 0
-9378 -9377 0
-9378 -9376 0
9378 9377 9376 0
-9379 3380 0
-9379 8937 0
9379 -3380 -8937 0
-9380 -9379 0
-9380 9378 0
9380 9379 -9378 0
-9381 3387 8944 0
-9381 -3387 -8944 0
9381 -3387 8944 0
9381 3387 -8944 0
-9382 9381 -9380 0
-9382 -9381 9380 0
9382 -9381 -9380 0
9382 9381 9380 0
-9383 8944 0
-9383 -9380 0
9383 -8944 9380 0
-9384 3387 0
-9384 -9380 0
9384 -3387 9380 0
-9385 -9384 0
-9385 -9383 0
9385 9384 9383 0
-9386 3387 0
-9386 8944 0
9386 -3387 -8944 0
-9387 -9386 0
-9387 9385 0
9387 9386 -9385 0
-9388 3394 8951 0
-9388 -3394 -8951 0
9388 -3394 8951 0
9388 3394 -8951 0
-9389 9388 -9387 0
-9389 -9388 9387 0
9389 -9388 -9387 0
9389 9388 9387 0
-9390 8951 0
-9390 -9387 0
9390 -8951 9387 0
-9391 3394 0
-9391 -9387 0
9391 -3394 9387 0
-9392 -9391 0
-9392 -9390 0
9392 9391 9390 0
-9393 3394 0
-9393 8951 0
9393 -3394 -8951 0
-9394 -9393 0
-9394 9392 0
9394 9393 -9392 0
-9395 3401 8958 0
-9395 -3401 -8958 0
9395 -3401 8958 0
9395 3401 -8958 0
-9396 9395 -9394 0
-9396 -9395 9394 0
9396 -9395 -9394 0
9396 9395 9394 0
-9397 8958 0
-9397 -9394 0
9397 -8958 9394 0
-9398 3401 0
-9398 -9394 0
9398 -3401 9394 0
-9399 -9398 0
-9399 -9397 0
9399 9398 9397 0
-9400 3401 0
-9400 8958 0
9400 -3401 -8958 0
-9401 -9400 0
-9401 9399 0
9401 9400 -9399 0
-9402 3408 8965 0
-9402 -3408 -8965 0
9402 -3408 8965 0
9402 3408 -8965 0
-9403 9402 -9401 0
-9403 -9402 9401 0
9403 -9402 -9401 0
9403 9402 9401 0
-9404 8965 0
-9404 -9401 0
9404 -8965 9401 0
-9405 3408 0
-9405 -9401 0
9405 -3408 9401 0
-9406 -9405 0
-9406 -9404 0
9406 9405 9404 0
-9407 3408 0
-9407 8965 0
9407 -3408 -8965 0
-9408 -9407 0
-9408 9406 0
9408 9407 -9406 0
-9409 3415 8972 0
-9409 -3415 -8972 0
9409 -3415 8972 0
9409 3415 -8972 0
-9410 9409 -9408 0
-9410 -9409 9408 0
9410 -9409 -9408 0
9410 9409 9408 0
-9411 8972 0
-9411 -9408 0
9411 -8972 9408 0
-9412 3415 0
-9412 -9408 0
9412 -3415 9408 0
-9413 -9412 0
-9413 -9411 0
9413 9412 9411 0
-9414 3415 0
-9414 8972 0
9414 -3415 -8972 0
-9415 -9414 0
-9415 9413 0
9415 9414 -9413 0
-9416 3422 8979 0
-9416 -3422 -8979 0
9416 -3422 8979 0
9416 3422 -8979 0
-9417 9416 -9415 0
-9417 -9416 9415 0
9417 -9416 -9415 0
9417 9416 9415 0
-9418 8979 0
-9418 -9415 0
9418 -8979 9415 0
-9419 3422 0
-9419 -9415 0
9419 -3422 9415 0
-9420 -9419 0
-9420 -9418 0
9420 9419 9418 0
-9421 3422 0
-9421 8979 0
9421 -3422 -8979 0
-9422 -9421 0
-9422 9420 0
9422 9421 -9420 0
-9423 3429 8986 0
-9423 -3429 -8986 0
9423 -3429 8986 0
9423 3429 -8986 0
-9424 9423 -9422 0
-9424 -9423 9422 0
9424 -9423 -9422 0
9424 9423 9422 0
-9425 8986 0
-9425 -9422 0
9425 -8986 9422 0
-9426 3429 0
-9426 -9422 0
9426 -3429 9422 0
-9427 -9426 0
-9427 -9425 0
9427 9426 9425 0
-9428 3429 0
-9428 8986 0
9428 -3429 -8986 0
-9429 -9428 0
-9429 9427 0
9429 9428 -9427 0
-9430 3436 8993 0
-9430 -3436 -8993 0
9430 -3436 8993 0
9430 3436 -8993 0
-9431 9430 -9429 0
-9431 -9430 9429 0
9431 -9430 -9429 0
9431 9430 9429 0
-9432 8993 0
-9432 -9429 0
9432 -8993 9429 0
-9433 3436 0
-9433 -9429 0
9433 -3436 9429 0
-9434 -9433 0
-9434 -9432 0
9434 9433 9432 0
-9435 3436 0
-9435 8993 0
9435 -3436 -8993 0
-9436 -9435 0
-9436 9434 0
9436 9435 -9434 0
-9437 3443 9000 0
-9437 -3443 -9000 0
9437 -3443 9000 0
9437 3443 -9000 0
-9438 9437 -9436 0
-9438 -9437 9436 0
9438 -9437 -9436 0
9438 9437 9436 0
-9439 9000 0
-9439 -9436 0
9439 -9000 9436 0
-9440 3443 0
-9440 -9436 0
9440 -3443 9436 0
-9441 -9440 0
-9441 -9439 0
9441 9440 9439 0
-9442 3443 0
-9442 9000 0
9442 -3443 -9000 0
-9443 -9442 0
-9443 9441 0
9443 9442 -9441 0
-9444 3450 9007 0
-9444 -3450 -9007 0
9444 -3450 9007 0
9444 3450 -9007 0
-9445 9444 -9443 0
-9445 -9444 9443 0
9445 -9444 -9443 0
9445 9444 9443 0
-9446 9007 0
-9446 -9443 0
9446 -9007 9443 0
-9447 3450 0
-9447 -9443 0
9447 -3450 9443 0
-9448 -9447 0
-9448 -9446 0
9448 9447 9446 0
-9449 3450 0
-9449 9007 0
9449 -3450 -9007 0
-9450 -9449 0
-9450 9448 0
9450 9449 -9448 0
-9451 3457 9014 0
-9451 -3457 -9014 0
9451 -3457 9014 0
9451 3457 -9014 0
-9452 9451 -9450 0
-9452 -9451 9450 0
9452 -9451 -9450 0
9452 9451 9450 0
-9453 9014 0
-9453 -9450 0
9453 -9014 9450 0
-9454 3457 0
-9454 -9450 0
9454 -3457 9450 0
-9455 -9454 0
-9455 -9453 0
9455 9454 9453 0
-9456 3457 0
-9456 9014 0
9456 -3457 -9014 0
-9457 -9456 0
-9457 9455 0
9457 9456 -9455 0
-9458 3464 9021 0
-9458 -3464 -9021 0
9458 -3464 9021 0
9458 3464 -9021 0
-9459 9458 -9457 0
-9459 -9458 9457 0
9459 -9458 -9457 0
9459 9458 9457 0
-9460 9021 0
-9460 -9457 0
9460 -9021 9457 0
-9461 3464 0
-9461 -9457 0
9461 -3464 9457 0
-9462 -9461 0
-9462 -9460 0
9462 9461 9460 0
-9463 3464 0
-9463 9021 0
9463 -3464 -9021 0
-9464 -9463 0
-9464 9462 0
9464 9463 -9462 0
-9465 3471 9028 0
-9465 -3471 -9028 0
9465 -3471 9028 0
9465 3471 -9028 0
-9466 9465 -9464 0
-9466 -9465 9464 0
9466 -9465 -9464 0
9466 9465 9464 0
-9467 9028 0
-9467 -9464 0
9467 -9028 9464 0
-9468 3471 0
-9468 -9464 0
9468 -3471 9464 0
-9469 -9468 0
-9469 -9467 0
9469 9468 9467 0
-9470 3471 0
-9470 9028 0
9470 -3471 -9028 0
-9471 -9470 0
-9471 9469 0
9471 9470 -9469 0
-9472 3478 9035 0
-9472 -3478 -9035 0
9472 -3478 9035 0
9472 3478 -9035 0
-9473 9472 -9471 0
-9473 -9472 9471 0
9473 -9472 -9471 0
9473 9472 9471 0
-9474 9035 0
-9474 -9471 0
9474 -9035 9471 0
-9475 3478 0
-9475 -9471 0
9475 -3478 9471 0
-9476 -9475 0
-9476 -9474 0
9476 9475 9474 0
-9477 3478 0
-9477 9035 0
9477 -3478 -9035 0
-9478 -9477 0
-9478 9476 0
9478 9477 -9476 0
-9479 3485 9042 0
-9479 -3485 -9042 0
9479 -3485 9042 0
9479 3485 -9042 0
-9480 9479 -9478 0
-9480 -9479 9478 0
9480 -9479 -9478 0
9480 9479 9478 0
-9481 9042 0
-9481 -9478 0
9481 -9042 9478 0
-9482 3485 0
-9482 -9478 0
9482 -3485 9478 0
-9483 -9482 0
-9483 -9481 0
9483 9482 9481 0
-9484 3485 0
-9484 9042 0
9484 -3485 -9042 0
-9485 -9484 0
-9485 9483 0
9485 9484 -9483 0
-9486 3492 9049 0
-9486 -3492 -9049 0
9486 -3492 9049 0
9486 3492 -9049 0
-9487 9486 -9485 0
-9487 -9486 9485 0
9487 -9486 -9485 0
9487 9486 9485 0
-9488 9049 0
-9488 -9485 0
9488 -9049 9485 0
-9489 3492 0
-9489 -9485 0
9489 -3492 9485 0
-9490 -9489 0
-9490 -9488 0
9490 9489 9488 0
-9491 3492 0
-9491 9049 0
9491 -3492 -9049 0
-9492 -9491 0
-9492 9490 0
9492 9491 -9490 0
-9493 3499 9056 0
-9493 -3499 -9056 0
9493 -3499 9056 0
9493 3499 -9056 0
-9494 9493 -9492 0
-9494 -9493 9492 0
9494 -9493 -9492 0
9494 9493 9492 0
-9495 9056 0
-9495 -9492 0
9495 -9056 9492 0
-9496 3499 0
-9496 -9492 0
9496 -3499 9492 0
-9497 -9496 0
-9497 -9495 0
9497 9496 9495 0
-9498 3499 0
-9498 9056 0
9498 -3499 -9056 0
-9499 -9498 0
-9499 9497 0
9499 9498 -9497 0
-9500 3506 9063 0
-9500 -3506 -9063 0
9500 -3506 9063 0
9500 3506 -9063 0
-9501 9500 -9499 0
-9501 -9500 9499 0
9501 -9500 -9499 0
9501 9500 9499 0
-9502 9063 0
-9502 -9499 0
9502 -9063 9499 0
-9503 3506 0
-9503 -9499 0
9503 -3506 9499 0
-9504 -9503 0
-9504 -9502 0
9504 9503 9502 0
-9505 3506 0
-9505 9063 0
9505 -3506 -9063 0
-9506 -9505 0
-9506 9504 0
9506 9505 -9504 0
-9507 3513 9070 0
-9507 -3513 -9070 0
9507 -3513 9070 0
9507 3513 -9070 0
-9508 9507 -9506 0
-9508 -9507 9506 0
9508 -9507 -9506 0
9508 9507 9506 0
-9509 9070 0
-9509 -9506 0
9509 -9070 9506 0
-9510 3513 0
-9510 -9506 0
9510 -3513 9506 0
-9511 -9510 0
-9511 -9509 0
9511 9510 9509 0
-9512 3513 0
-9512 9070 0
9512 -3513 -9070 0
-9513 -9512 0
-9513 9511 0
9513 9512 -9511 0
-9514 3520 9077 0
-9514 -3520 -9077 0
9514 -3520 9077 0
9514 3520 -9077 0
-9515 9514 -9513 0
-9515 -9514 9513 0
9515 -9514 -9513 0
9515 9514 9513 0
-9516 9077 0
-9516 -9513 0
9516 -9077 9513 0
-9517 3520 0
-9517 -9513 0
9517 -3520 9513 0
-9518 -9517 0
-9518 -9516 0
9518 9517 9516 0
-9519 3520 0
-9519 9077 0
9519 -3520 -9077 0
-9520 -9519 0
-9520 9518 0
9520 9519 -9518 0
-9521 3527 9084 0
-9521 -3527 -9084 0
9521 -3527 9084 0
9521 3527 -9084 0
-9522 9521 -9520 0
-9522 -9521 9520 0
9522 -9521 -9520 0
9522 9521 9520 0
-9523 9084 0
-9523 -9520 0
9523 -9084 9520 0
-9524 3527 0
-9524 -9520 0
9524 -3527 9520 0
-9525 -9524 0
-9525 -9523 0
9525 9524 9523 0
-9526 3527 0
-9526 9084 0
9526 -3527 -9084 0
-9527 -9526 0
-9527 9525 0
9527 9526 -9525 0
-9528 8871 9090 0
-9528 -8871 -9090 0
9528 -8871 9090 0
9528 8871 -9090 0
-9529 8871 0
-9529 9090 0
9529 -8871 -9090 0
-9530 8874 9093 0
-9530 -8874 -9093 0
9530 -8874 9093 0
9530 8874 -9093 0
-9531 9530 9529 0
-9531 -9530 -9529 0
9531 -9530 9529 0
9531 9530 -9529 0
-9532 9093 0
-9532 9529 0
9532 -9093 -9529 0
-9533 8874 0
-9533 9529 0
9533 -8874 -9529 0
-9534 -9533 0
-9534 -9532 0
9534 9533 9532 0
-9535 8874 0
-9535 9093 0
9535 -8874 -9093 0
-9536 -9535 0
-9536 9534 0
9536 9535 -9534 0
-9537 8881 9100 0
-9537 -8881 -9100 0
9537 -8881 9100 0
9537 8881 -9100 0
-9538 9537 -9536 0
-9538 -9537 9536 0
9538 -9537 -9536 0
9538 9537 9536 0
-9539 9100 0
-9539 -9536 0
9539 -9100 9536 0
-9540 8881 0
-9540 -9536 0
9540 -8881 9536 0
-9541 -9540 0
-9541 -9539 0
9541 9540 9539 0
-9542 8881 0
-9542 9100 0
9542 -8881 -9100 0
-9543 -9542 0
-9543 9541 0
9543 9542 -9541 0
-9544 8888 9107 0
-9544 -8888 -9107 0
9544 -8888 9107 0
9544 8888 -9107 0
-9545 9544 -9543 0
-9545 -9544 9543 0
9545 -9544 -9543 0
9545 9544 9543 0
-9546 9107 0
-9546 -9543 0
9546 -9107 9543 0
-9547 8888 0
-9547 -9543 0
9547 -8888 9543 0
-9548 -9547 0
-9548 -9546 0
9548 9547 9546 0
-9549 8888 0
-9549 9107 0
9549 -8888 -9107 0
-9550 -9549 0
-9550 9548 0
9550 9549 -9548 0
-9551 8895 9114 0
-9551 -8895 -9114 0
9551 -8895 9114 0
9551 8895 -9114 0
-9552 9551 -9550 0
-9552 -9551 9550 0
9552 -9551 -9550 0
9552 9551 9550 0
-9553 9114 0
-9553 -9550 0
9553 -9114 9550 0
-9554 8895 0
-9554 -9550 0
9554 -8895 9550 0
-9555 -9554 0
-9555 -9553 0
9555 9554 9553 0
-9556 8895 0
-9556 9114 0
9556 -8895 -9114 0
-9557 -9556 0
-9557 9555 0
9557 9556 -9555 0
-9558 8902 9121 0
-9558 -8902 -9121 0
9558 -8902 9121 0
9558 8902 -9121 0
-9559 9558 -9557 0
-9559 -9558 9557 0
9559 -9558 -9557 0
9559 9558 9557 0
-9560 9121 0
-9560 -9557 0
9560 -9121 9557 0
-9561 8902 0
-9561 -9557 0
9561 -8902 9557 0
-9562 -9561 0
-9562 -9560 0
9562 9561 9560 0
-9563 8902 0
-9563 9121 0
9563 -8902 -9121 0
-9564 -9563 0
-9564 9562 0
9564 9563 -9562 0
-9565 8909 9128 0
-9565 -8909 -9128 0
9565 -8909 9128 0
9565 8909 -9128 0
-9566 9565 -9564 0
-9566 -9565 9564 0
9566 -9565 -9564 0
9566 9565 9564 0
-9567 9128 0
-9567 -9564 0
9567 -9128 9564 0
-9568 8909 0
-9568 -9564 0
9568 -8909 9564 0
-9569 -9568 0
-9569 -9567 0
9569 9568 9567 0
-9570 8909 0
-9570 9128 0
9570 -8909 -9128 0
-9571 -9570 0
-9571 9569 0
9571 9570 -9569 0
-9572 8916 9135 0
-9572 -8916 -9135 0
9572 -8916 9135 0
9572 8916 -9135 0
-9573 9572 -9571 0
-9573 -9572 9571 0
9573 -9572 -9571 0
9573 9572 9571 0
-9574 9135 0
-9574 -9571 0
9574 -9135 9571 0
-9575 8916 0
-9575 -9571 0
9575 -8916 9571 0
-9576 -9575 0
-9576 -9574 0
9576 9575 9574 0
-9577 8916 0
-9577 9135 0
9577 -8916 -9135 0
-9578 -9577 0
-9578 9576 0
9578 9577 -9576 0
-9579 8923 9142 0
-9579 -8923 -9142 0
9579 -8923 9142 0
9579 8923 -9142 0
-9580 9579 -9578 0
-9580 -9579 9578 0
9580 -9579 -9578 0
9580 9579 9578 0
-9581 9142 0
-9581 -9578 0
9581 -9142 9578 0
-9582 8923 0
-9582 -9578 0
9582 -8923 9578 0
-9583 -9582 0
-9583 -9581 0
9583 9582 9581 0
-9584 8923 0
-9584 9142 0
9584 -8923 -9142 0
-9585 -9584 0
-9585 9583 0
9585 9584 -9583 0
-9586 8930 9149 0
-9586 -8930 -9149 0
9586 -8930 9149 0
9586 8930 -9149 0
-9587 9586 -9585 0
-9587 -9586 9585 0
9587 -9586 -9585 0
9587 9586 9585 0
-9588 9149 0
-9588 -9585 0
9588 -9149 9585 0
-9589 8930 0
-9589 -9585 0
9589 -8930 9585 0
-9590 -9589 0
-9590 -9588 0
9590 9589 9588 0
-9591 8930 0
-9591 9149 0
9591 -8930 -9149 0
-9592 -9591 0
-9592 9590 0
9592 9591 -9590 0
-9593 8937 9156 0
-9593 -8937 -9156 0
9593 -8937 9156 0
9593 8937 -9156 0
-9594 9593 -9592 0
-9594 -9593 9592 0
9594 -9593 -9592 0
9594 9593 9592 0
-9595 9156 0
-9595 -9592 0
9595 -9156 9592 0
-9596 8937 0
-9596 -9592 0
9596 -8937 9592 0
-9597 -9596 0
-9597 -9595 0
9597 9596 9595 0
-9598 8937 0
-9598 9156 0
9598 -8937 -9156 0
-9599 -9598 0
-9599 9597 0
9599 9598 -9597 0
-9600 8944 9163 0
-9600 -8944 -9163 0
9600 -8944 9163 0
9600 8944 -9163 0
-9601 9600 -9599 0
-9601 -9600 9599 0
9601 -9600 -9599 0
9601 9600 9599 0
-9602 9163 0
-9602 -9599 0
9602 -9163 9599 0
-9603 8944 0
-9603 -9599 0
9603 -8944 9599 0
-9604 -9603 0
-9604 -9602 0
9604 9603 9602 0
-9605 8944 0
-9605 9163 0
9605 -8944 -9163 0
-9606 -9605 0
-9606 9604 0
9606 9605 -9604 0
-9607 8951 9170 0
-9607 -8951 -9170 0
9607 -8951 9170 0
9607 8951 -9170 0
-9608 9607 -9606 0
-9608 -9607 9606 0
9608 -9607 -9606 0
9608 9607 9606 0
-9609 9170 0
-9609 -9606 0
9609 -9170 9606 0
-9610 8951 0
-9610 -9606 0
9610 -8951 9606 0
-9611 -9610 0
-9611 -9609 0
9611 9610 9609 0
-9612 8951 0
-9612 9170 0
9612 -8951 -9170 0
-9613 -9612 0
-9613 9611 0
9613 9612 -9611 0
-9614 8958 9177 0
-9614 -8958 -9177 0
9614 -8958 9177 0
9614 8958 -9177 0
-9615 9614 -9613 0
-9615 -9614 9613 0
9615 -9614 -9613 0
9615 9614 9613 0
-9616 9177 0
-9616 -9613 0
9616 -9177 9613 0
-9617 8958 0
-9617 -9613 0
9617 -8958 9613 0
-9618 -9617 0
-9618 -9616 0
9618 9617 9616 0
-9619 8958 0
-9619 9177 0
9619 -8958 -9177 0
-9620 -9619 0
-9620 9618 0
9620 9619 -9618 0
-9621 8965 9184 0
-9621 -8965 -9184 0
9621 -8965 9184 0
9621 8965 -9184 0
-9622 9621 -9620 0
-9622 -9621 9620 0
9622 -9621 -9620 0
9622 9621 9620 0
-9623 9184 0
-9623 -9620 0
9623 -9184 9620 0
-9624 8965 0
-9624 -9620 0
9624 -8965 9620 0
-9625 -9624 0
-9625 -9623 0
9625 9624 9623 0
-9626 8965 0
-9626 9184 0
9626 -8965 -9184 0
-9627 -9626 0
-9627 9625 0
9627 9626 -9625 0
-9628 8972 9191 0
-9628 -8972 -9191 0
9628 -8972 9191 0
9628 8972 -9191 0
-9629 9628 -9627 0
-9629 -9628 9627 0
9629 -9628 -9627 0
9629 9628 9627 0
-9630 9191 0
-9630 -9627 0
9630 -9191 9627 0
-9631 8972 0
-9631 -9627 0
9631 -8972 9627 0
-9632 -9631 0
-9632 -9630 0
9632 9631 9630 0
-9633 8972 0
-9633 9191 0
9633 -8972 -9191 0
-9634 -9633 0
-9634 9632 0
9634 9633 -9632 0
-9635 8979 9198 0
-9635 -8979 -9198 0
9635 -8979 9198 0
9635 8979 -9198 0
-9636 9635 -9634 0
-9636 -9635 9634 0
9636 -9635 -9634 0
9636 9635 9634 0
-9637 9198 0
-9637 -9634 0
9637 -9198 9634 0
-9638 8979 0
-9638 -9634 0
9638 -8979 9634 0
-9639 -9638 0
-9639 -9637 0
9639 9638 9637 0
-9640 8979 0
-9640 9198 0
9640 -8979 -9198 0
-9641 -9640 0
-9641 9639 0
9641 9640 -9639 0
-9642 8986 9205 0
-9642 -8986 -9205 0
9642 -8986 9205 0
9642 8986 -9205 0
-9643 9642 -9641 0
-9643 -9642 9641 0
9643 -9642 -9641 0
9643 9642 9641 0
-9644 9205 0
-9644 -9641 0
9644 -9205 9641 0
-9645 8986 0
-9645 -9641 0
9645 -8986 9641 0
-9646 -9645 0
-9646 -9644 0
9646 9645 9644 0
-9647 8986 0
-9647 9205 0
9647 -8986 -9205 0
-9648 -9647 0
-9648 9646 0
9648 9647 -9646 0
-9649 8993 9212 0
-9649 -8993 -9212 0
9649 -8993 9212 0
9649 8993 -9212 0
-9650 9649 -9648 0
-9650 -9649 9648 0
9650 -9649 -9648 0
9650 9649 9648 0
-9651 9212 0
-9651 -9648 0
9651 -9212 9648 0
-9652 8993 0
-9652 -9648 0
9652 -8993 9648 0
-9653 -9652 0
-9653 -9651 0
9653 9652 9651 0
-9654 8993 0
-9654 9212 0
9654 -8993 -9212 0
-9655 -9654 0
-9655 9653 0
9655 9654 -9653 0
-9656 9000 9219 0
-9656 -9000 -9219 0
9656 -9000 9219 0
9656 9000 -9219 0
-9657 9656 -9655 0
-9657 -9656 9655 0
9657 -9656 -9655 0
9657 9656 9655 0
-9658 9219 0
-9658 -9655 0
9658 -9219 9655 0
-9659 9000 0
-9659 -9655 0
9659 -9000 9655 0
-9660 -9659 0
-9660 -9658 0
9660 9659 9658 0
-9661 9000 0
-9661 9219 0
9661 -9000 -9219 0
-9662 -9661 0
-9662 9660 0
9662 9661 -9660 0
-9663 9007 9226 0
-9663 -9007 -9226 0
9663 -9007 9226 0
9663 9007 -9226 0
-9664 9663 -9662 0
-9664 -9663 9662 0
9664 -9663 -9662 0
9664 9663 9662 0
-9665 9226 0
-9665 -9662 0
9665 -9226 9662 0
-9666 9007 0
-9666 -9662 0
9666 -9007 9662 0
-9667 -9666 0
-9667 -9665 0
9667 9666 9665 0
-9668 9007 0
-9668 9226 0
9668 -9007 -9226 0
-9669 -9668 0
-9669 9667 0
9669 9668 -9667 0
-9670 9014 9233 0
-9670 -9014 -9233 0
9670 -9014 9233 0
9670 9014 -9233 0
-9671 9670 -9669 0
-9671 -9670 9669 0
9671 -9670 -9669 0
9671 9670 9669 0
-9672 9233 0
-9672 -9669 0
9672 -9233 9669 0
-9673 9014 0
-9673 -9669 0
9673 -9014 9669 0
-9674 -9673 0
-9674 -9672 0
9674 9673 9672 0
-9675 9014 0
-9675 9233 0
9675 -9014 -9233 0
-9676 -9675 0
-9676 9674 0
9676 9675 -9674 0
-9677 9021 9240 0
-9677 -9021 -9240 0
9677 -9021 9240 0
9677 9021 -9240 0
-9678 9677 -9676 0
-9678 -9677 9676 0
9678 -9677 -9676 0
9678 9677 9676 0
-9679 9240 0
-9679 -9676 0
9679 -9240 9676 0
-9680 9021 0
-9680 -9676 0
9680 -9021 9676 0
-9681 -9680 0
-9681 -9679 0
9681 9680 9679 0
-9682 9021 0
-9682 9240 0
9682 -9021 -9240 0
-9683 -9682 0
-9683 9681 0
9683 9682 -9681 0
-9684 9028 9247 0
-9684 -9028 -9247 0
9684 -9028 9247 0
9684 9028 -9247 0
-9685 9684 -9683 0
-9685 -9684 9683 0
9685 -9684 -9683 0
9685 9684 9683 0
-9686 9247 0
-9686 -9683 0
9686 -9247 9683 0
-9687 9028 0
-9687 -9683 0
9687 -9028 9683 0
-9688 -9687 0
-9688 -9686 0
9688 9687 9686 0
-9689 9028 0
-9689 9247 0
9689 -9028 -9247 0
-9690 -9689 0
-9690 9688 0
9690 9689 -9688 0
-9691 9035 9254 0
-9691 -9035 -9254 0
9691 -9035 9254 0
9691 9035 -9254 0
-9692 9691 -9690 0
-9692 -9691 9690 0
9692 -9691 -9690 0
9692 9691 9690 0
-9693 9254 0
-9693 -9690 0
9693 -9254 9690 0
-9694 9035 0
-9694 -9690 0
9694 -9035 9690 0
-9695 -9694 0
-9695 -9693 0
9695 9694 9693 0
-9696 9035 0
-9696 9254 0
9696 -9035 -9254 0
-9697 -9696 0
-9697 9695 0
9697 9696 -9695 0
-9698 9042 9261 0
-9698 -9042 -9261 0
9698 -9042 9261 0
9698 9042 -9261 0
-9699 9698 -9697 0
-9699 -9698 9697 0
9699 -9698 -9697 0
9699 9698 9697 0
-9700 9261 0
-9700 -9697 0
9700 -9261 9697 0
-9701 9042 0
-9701 -9697 0
9701 -9042 9697 0
-9702 -9701 0
-9702 -9700 0
9702 9701 9700 0
-9703 9042 0
-9703 9261 0
9703 -9042 -9261 0
-9704 -9703 0
-9704 9702 0
9704 9703 -9702 0
-9705 9049 9268 0
-9705 -9049 -9268 0
9705 -9049 9268 0
9705 9049 -9268 0
-9706 9705 -9704 0
-9706 -9705 9704 0
9706 -9705 -9704 0
9706 9705 9704 0
-9707 9268 0
-9707 -9704 0
9707 -9268 9704 0
-9708 9049 0
-9708 -9704 0
9708 -9049 9704 0
-9709 -9708 0
-9709 -9707 0
9709 9708 9707 0
-9710 9049 0
-9710 9268 0
9710 -9049 -9268 0
-9711 -9710 0
-9711 9709 0
9711 9710 -9709 0
-9712 9056 9275 0
-9712 -9056 -9275 0
9712 -9056 9275 0
9712 9056 -9275 0
-9713 9712 -9711 0
-9713 -9712 9711 0
9713 -9712 -9711 0
9713 9712 9711 0
-9714 9275 0
-9714 -9711 0
9714 -9275 9711 0
-9715 9056 0
-9715 -9711 0
9715 -9056 9711 0
-9716 -9715 0
-9716 -9714 0
9716 9715 9714 0
-9717 9056 0
-9717 9275 0
9717 -9056 -9275 0
-9718 -9717 0
-9718 9716 0
9718 9717 -9716 0
-9719 9063 9282 0
-9719 -9063 -9282 0
9719 -9063 9282 0
9719 9063 -9282 0
-9720 9719 -9718 0
-9720 -9719 9718 0
9720 -9719 -9718 0
9720 9719 9718 0
-9721 9282 0
-9721 -9718 0
9721 -9282 9718 0
-9722 9063 0
-9722 -9718 0
9722 -9063 9718 0
-9723 -9722 0
-9723 -9721 0
9723 9722 9721 0
-9724 9063 0
-9724 9282 0
9724 -9063 -9282 0
-9725 -9724 0
-9725 9723 0
9725 9724 -9723 0
-9726 9070 9289 0
-9726 -9070 -9289 0
9726 -9070 9289 0
9726 9070 -9289 0
-9727 9726 -9725 0
-9727 -9726 9725 0
9727 -9726 -9725 0
9727 9726 9725 0
-9728 9289 0
-9728 -9725 0
9728 -9289 9725 0
-9729 9070 0
-9729 -9725 0
9729 -9070 9725 0
-9730 -9729 0
-9730 -9728 0
9730 9729 9728 0
-9731 9070 0
-9731 9289 0
9731 -9070 -9289 0
-9732 -9731 0
-9732 9730 0
9732 9731 -9730 0
-9733 9077 9296 0
-9733 -9077 -9296 0
9733 -9077 9296 0
9733 9077 -9296 0
-9734 9733 -9732 0
-9734 -9733 9732 0
9734 -9733 -9732 0
9734 9733 9732 0
-9735 9296 0
-9735 -9732 0
9735 -9296 9732 0
-9736 9077 0
-9736 -9732 0
9736 -9077 9732 0
-9737 -9736 0
-9737 -9735 0
9737 9736 9735 0
-9738 9077 0
-9738 9296 0
9738 -9077 -9296 0
-9739 -9738 0
-9739 9737 0
9739 9738 -9737 0
-9740 9084 9303 0
-9740 -9084 -9303 0
9740 -9084 9303 0
9740 9084 -9303 0
-9741 9740 -9739 0
-9741 -9740 9739 0
9741 -9740 -9739 0
9741 9740 9739 0
-9742 9303 0
-9742 -9739 0
9742 -9303 9739 0
-9743 9084 0
-9743 -9739 0
9743 -9084 9739 0
-9744 -9743 0
-9744 -9742 0
9744 9743 9742 0
-9745 9084 0
-9745 9303 0
9745 -9084 -9303 0
-9746 -9745 0
-9746 9744 0
9746 9745 -9744 0
-9747 9347 9382 0
-9747 -9347 -9382 0
9747 -9347 9382 0
9747 9347 -9382 0
-9748 9747 9480 0
-9748 -9747 -9480 0
9748 -9747 9480 0
9748 9747 -9480 0
-9749 -9309 0
-9749 6171 0
9749 9309 -6171 0
-9750 9309 0
-9750 7734 0
9750 -9309 -7734 0
-9751 9750 9749 0
-9751 -9750 -9749 0
9751 -9750 9749 0
9751 9750 -9749 0
-9752 9538 9615 0
-9752 -9538 -9615 0
9752 -9538 9615 0
9752 9538 -9615 0
-9753 9752 9678 0
-9753 -9752 -9678 0
9753 -9752 9678 0
9753 9752 -9678 0
-9754 7953 0
-9754 6390 0
9754 -7953 -6390 0
-9755 9528 0
-9755 6390 0
9755 -9528 -6390 0
-9756 -9755 0
-9756 -9754 0
9756 9755 9754 0
-9757 9528 0
-9757 7953 0
9757 -9528 -7953 0
-9758 -9757 0
-9758 9756 0
9758 9757 -9756 0
-9759 9354 9389 0
-9759 -9354 -9389 0
9759 -9354 9389 0
9759 9354 -9389 0
-9760 9759 9487 0
-9760 -9759 -9487 0
9760 -9759 9487 0
9760 9759 -9487 0
-9761 -9312 0
-9761 6174 0
9761 9312 -6174 0
-9762 9312 0
-9762 7737 0
9762 -9312 -7737 0
-9763 9762 9761 0
-9763 -9762 -9761 0
9763 -9762 9761 0
9763 9762 -9761 0
-9764 9545 9622 0
-9764 -9545 -9622 0
9764 -9545 9622 0
9764 9545 -9622 0
-9765 9764 9685 0
-9765 -9764 -9685 0
9765 -9764 9685 0
9765 9764 -9685 0
-9766 7956 0
-9766 6393 0
9766 -7956 -6393 0
-9767 9531 0
-9767 6393 0
9767 -9531 -6393 0
-9768 -9767 0
-9768 -9766 0
9768 9767 9766 0
-9769 9531 0
-9769 7956 0
9769 -9531 -7956 0
-9770 -9769 0
-9770 9768 0
9770 9769 -9768 0
-9771 9361 9396 0
-9771 -9361 -9396 0
9771 -9361 9396 0
9771 9361 -9396 0
-9772 9771 9494 0
-9772 -9771 -9494 0
9772 -9771 9494 0
9772 9771 -9494 0
-9773 -9319 0
-9773 6181 0
9773 9319 -6181 0
-9774 9319 0
-9774 7744 0
9774 -9319 -7744 0
-9775 9774 9773 0
-9775 -9774 -9773 0
9775 -9774 9773 0
9775 9774 -9773 0
-9776 9552 9629 0
-9776 -9552 -9629 0
9776 -9552 9629 0
9776 9552 -9629 0
-9777 9776 9692 0
-9777 -9776 -9692 0
9777 -9776 9692 0
9777 9776 -9692 0
-9778 7963 0
-9778 6400 0
9778 -7963 -6400 0
-9779 9538 0
-9779 6400 0
9779 -9538 -6400 0
-9780 -9779 0
-9780 -9778 0
9780 9779 9778 0
-9781 9538 0
-9781 7963 0
9781 -9538 -7963 0
-9782 -9781 0
-9782 9780 0
9782 9781 -9780 0
-9783 9368 9403 0
-9783 -9368 -9403 0
9783 -9368 9403 0
9783 9368 -9403 0
-9784 9783 9501 0
-9784 -9783 -9501 0
9784 -9783 9501 0
9784 9783 -9501 0
-9785 -9326 0
-9785 6188 0
9785 9326 -6188 0
-9786 9326 0
-9786 7751 0
9786 -9326 -7751 0
-9787 9786 9785 0
-9787 -9786 -9785 0
9787 -9786 9785 0
9787 9786 -9785 0
-9788 9559 9636 0
-9788 -9559 -9636 0
9788 -9559 9636 0
9788 9559 -9636 0
-9789 9788 9699 0
-9789 -9788 -9699 0
9789 -9788 9699 0
9789 9788 -9699 0
-9790 7970 0
-9790 6407 0
9790 -7970 -6407 0
-9791 9545 0
-9791 6407 0
9791 -9545 -6407 0
-9792 -9791 0
-9792 -9790 0
9792 9791 9790 0
-9793 9545 0
-9793 7970 0
9793 -9545 -7970 0
-9794 -9793 0
-9794 9792 0
9794 9793 -9792 0
-9795 9375 9410 0
-9795 -9375 -9410 0
9795 -9375 9410 0
9795 9375 -9410 0
-9796 9795 9508 0
-9796 -9795 -9508 0
9796 -9795 9508 0
9796 9795 -9508 0
-9797 -9333 0
-9797 6195 0
9797 9333 -6195 0
-9798 9333 0
-9798 7758 0
9798 -9333 -7758 0
-9799 9798 9797 0
-9799 -9798 -9797 0
9799 -9798 9797 0
9799 9798 -9797 0
-9800 9566 9643 0
-9800 -9566 -9643 0
9800 -9566 9643 0
9800 9566 -9643 0
-9801 9800 9706 0
-9801 -9800 -9706 0
9801 -9800 9706 0
9801 9800 -9706 0
-9802 7977 0
-9802 6414 0
9802 -7977 -6414 0
-9803 9552 0
-9803 6414 0
9803 -9552 -6414 0
-9804 -9803 0
-9804 -9802 0
9804 9803 9802 0
-9805 9552 0
-9805 7977 0
9805 -9552 -7977 0
-9806 -9805 0
-9806 9804 0
9806 9805 -9804 0
-9807 9382 9417 0
-9807 -9382 -9417 0
9807 -9382 9417 0
9807 9382 -9417 0
-9808 9807 9515 0
-9808 -9807 -9515 0
9808 -9807 9515 0
9808 9807 -9515 0
-9809 -9340 0
-9809 6202 0
9809 9340 -6202 0
-9810 9340 0
-9810 7765 0
9810 -9340 -7765 0
-9811 9810 9809 0
-9811 -9810 -9809 0
9811 -9810 9809 0
9811 9810 -9809 0
-9812 9573 9650 0
-9812 -9573 -9650 0
9812 -9573 9650 0
9812 9573 -9650 0
-9813 9812 9713 0
-9813 -9812 -9713 0
9813 -9812 9713 0
9813 9812 -9713 0
-9814 7984 0
-9814 6421 0
9814 -7984 -6421 0
-9815 9559 0
-9815 6421 0
9815 -9559 -6421 0
-9816 -9815 0
-9816 -9814 0
9816 9815 9814 0
-9817 9559 0
-9817 7984 0
9817 -9559 -7984 0
-9818 -9817 0
-9818 9816 0
9818 9817 -9816 0
-9819 9389 9424 0
-9819 -9389 -9424 0
9819 -9389 9424 0
9819 9389 -9424 0
-9820 9819 9522 0
-9820 -9819 -9522 0
9820 -9819 9522 0
9820 9819 -9522 0
-9821 -9347 0
-9821 6209 0
9821 9347 -6209 0
-9822 9347 0
-9822 7772 0
9822 -9347 -7772 0
-9823 9822 9821 0
-9823 -9822 -9821 0
9823 -9822 9821 0
9823 9822 -9821 0
-9824 9580 9657 0
-9824 -9580 -9657 0
9824 -9580 9657 0
9824 9580 -9657 0
-9825 9824 9720 0
-9825 -9824 -9720 0
9825 -9824 9720 0
9825 9824 -9720 0
-9826 7991 0
-9826 6428 0
9826 -7991 -6428 0
-9827 9566 0
-9827 6428 0
9827 -9566 -6428 0
-9828 -9827 0
-9828 -9826 0
9828 9827 9826 0
-9829 9566 0
-9829 7991 0
9829 -9566 -7991 0
-9830 -9829 0
-9830 9828 0
9830 9829 -9828 0
-9831 9396 9431 0
-9831 -9396 -9431 0
9831 -9396 9431 0
9831 9396 -9431 0
-9832 9831 9309 0
-9832 -9831 -9309 0
9832 -9831 9309 0
9832 9831 -9309 0
-9833 -9354 0
-9833 6216 0
9833 9354 -6216 0
-9834 9354 0
-9834 7779 0
9834 -9354 -7779 0
-9835 9834 9833 0
-9835 -9834 -9833 0
9835 -9834 9833 0
9835 9834 -9833 0
-9836 9587 9664 0
-9836 -9587 -9664 0
9836 -9587 9664 0
9836 9587 -9664 0
-9837 9836 9727 0
-9837 -9836 -9727 0
9837 -9836 9727 0
9837 9836 -9727 0
-9838 7998 0
-9838 6435 0
9838 -7998 -6435 0
-9839 9573 0
-9839 6435 0
9839 -9573 -6435 0
-9840 -9839 0
-9840 -9838 0
9840 9839 9838 0
-9841 9573 0
-9841 7998 0
9841 -9573 -7998 0
-9842 -9841 0
-9842 9840 0
9842 9841 -9840 0
-9843 9403 9438 0
-9843 -9403 -9438 0
9843 -9403 9438 0
9843 9403 -9438 0
-9844 9843 9312 0
-9844 -9843 -9312 0
9844 -9843 9312 0
9844 9843 -9312 0
-9845 -9361 0
-9845 6223 0
9845 9361 -6223 0
-9846 9361 0
-9846 7786 0
9846 -9361 -7786 0
-9847 9846 9845 0
-9847 -9846 -9845 0
9847 -9846 9845 0
9847 9846 -9845 0
-9848 9594 9671 0
-9848 -9594 -9671 0
9848 -9594 9671 0
9848 9594 -9671 0
-9849 9848 9734 0
-9849 -9848 -9734 0
9849 -9848 9734 0
9849 9848 -9734 0
-9850 8005 0
-9850 6442 0
9850 -8005 -6442 0
-9851 9580 0
-9851 6442 0
9851 -9580 -6442 0
-9852 -9851 0
-9852 -9850 0
9852 9851 9850 0
-9853 9580 0
-9853 8005 0
9853 -9580 -8005 0
-9854 -9853 0
-9854 9852 0
9854 9853 -9852 0
-9855 9410 9445 0
-9855 -9410 -9445 0
9855 -9410 9445 0
9855 9410 -9445 0
-9856 9855 9319 0
-9856 -9855 -9319 0
9856 -9855 9319 0
9856 9855 -9319 0
-9857 -9368 0
-9857 6230 0
9857 9368 -6230 0
-9858 9368 0
-9858 7793 0
9858 -9368 -7793 0
-9859 9858 9857 0
-9859 -9858 -9857 0
9859 -9858 9857 0
9859 9858 -9857 0
-9860 9601 9678 0
-9860 -9601 -9678 0
9860 -9601 9678 0
9860 9601 -9678 0
-9861 9860 9741 0
-9861 -9860 -9741 0
9861 -9860 9741 0
9861 9860 -9741 0
-9862 8012 0
-9862 6449 0
9862 -8012 -6449 0
-9863 9587 0
-9863 6449 0
9863 -9587 -6449 0
-9864 -9863 0
-9864 -9862 0
9864 9863 9862 0
-9865 9587 0
-9865 8012 0
9865 -9587 -8012 0
-9866 -9865 0
-9866 9864 0
9866 9865 -9864 0
-9867 9417 9452 0
-9867 -9417 -9452 0
9867 -9417 9452 0
9867 9417 -9452 0
-9868 9867 9326 0
-9868 -9867 -9326 0
9868 -9867 9326 0
9868 9867 -9326 0
-9869 -9375 0
-9869 6237 0
9869 9375 -6237 0
-9870 9375 0
-9870 7800 0
9870 -9375 -7800 0
-9871 9870 9869 0
-9871 -9870 -9869 0
9871 -9870 9869 0
9871 9870 -9869 0
-9872 9608 9685 0
-9872 -9608 -9685 0
9872 -9608 9685 0
9872 9608 -9685 0
-9873 9872 9528 0
-9873 -9872 -9528 0
9873 -9872 9528 0
9873 9872 -9528 0
-9874 8019 0
-9874 6456 0
9874 -8019 -6456 0
-9875 9594 0
-9875 6456 0
9875 -9594 -6456 0
-9876 -9875 0
-9876 -9874 0
9876 9875 9874 0
-9877 9594 0
-9877 8019 0
9877 -9594 -8019 0
-9878 -9877 0
-9878 9876 0
9878 9877 -9876 0
-9879 9424 9459 0
-9879 -9424 -9459 0
9879 -9424 9459 0
9879 9424 -9459 0
-9880 9879 9333 0
-9880 -9879 -9333 0
9880 -9879 9333 0
9880 9879 -9333 0
-9881 -9382 0
-9881 6244 0
9881 9382 -6244 0
-9882 9382 0
-9882 7807 0
9882 -9382 -7807 0
-9883 9882 9881 0
-9883 -9882 -9881 0
9883 -9882 9881 0
9883 9882 -9881 0
-9884 9615 9692 0
-9884 -9615 -9692 0
9884 -9615 9692 0
9884 9615 -9692 0
-9885 9884 9531 0
-9885 -9884 -9531 0
9885 -9884 9531 0
9885 9884 -9531 0
-9886 8026 0
-9886 6463 0
9886 -8026 -6463 0
-9887 9601 0
-9887 6463 0
9887 -9601 -6463 0
-9888 -9887 0
-9888 -9886 0
9888 9887 9886 0
-9889 9601 0
-9889 8026 0
9889 -9601 -8026 0
-9890 -9889 0
-9890 9888 0
9890 9889 -9888 0
-9891 9431 9466 0
-9891 -9431 -9466 0
9891 -9431 9466 0
9891 9431 -9466 0
-9892 9891 9340 0
-9892 -9891 -9340 0
9892 -9891 9340 0
9892 9891 -9340 0
-9893 -9389 0
-9893 6251 0
9893 9389 -6251 0
-9894 9389 0
-9894 7814 0
9894 -9389 -7814 0
-9895 9894 9893 0
-9895 -9894 -9893 0
9895 -9894 9893 0
9895 9894 -9893 0
-9896 9622 9699 0
-9896 -9622 -9699 0
9896 -9622 9699 0
9896 9622 -9699 0
-9897 9896 9538 0
-9897 -9896 -9538 0
9897 -9896 9538 0
9897 9896 -9538 0
-9898 8033 0
-9898 6470 0
9898 -8033 -6470 0
-9899 9608 0
-9899 6470 0
9899 -9608 -6470 0
-9900 -9899 0
-9900 -9898 0
9900 9899 9898 0
-9901 9608 0
-9901 8033 0
9901 -9608 -8033 0
-9902 -9901 0
-9902 9900 0
9902 9901 -9900 0
-9903 9438 9473 0
-9903 -9438 -9473 0
9903 -9438 9473 0
9903 9438 -9473 0
-9904 9903 9347 0
-9904 -9903 -9347 0
9904 -9903 9347 0
9904 9903 -9347 0
-9905 -9396 0
-9905 6258 0
9905 9396 -6258 0
-9906 9396 0
-9906 7821 0
9906 -9396 -7821 0
-9907 9906 9905 0
-9907 -9906 -9905 0
9907 -9906 9905 0
9907 9906 -9905 0
-9908 9629 9706 0
-9908 -9629 -9706 0
9908 -9629 9706 0
9908 9629 -9706 0
-9909 9908 9545 0
-9909 -9908 -9545 0
9909 -9908 9545 0
9909 9908 -9545 0
-9910 8040 0
-9910 6477 0
9910 -8040 -6477 0
-9911 9615 0
-9911 6477 0
9911 -9615 -6477 0
-9912 -9911 0
-9912 -9910 0
9912 9911 9910 0
-9913 9615 0
-9913 8040 0
9913 -9615 -8040 0
-9914 -9913 0
-9914 9912 0
9914 9913 -9912 0
-9915 9445 9480 0
-9915 -9445 -9480 0
9915 -9445 9480 0
9915 9445 -9480 0
-9916 9915 9354 0
-9916 -9915 -9354 0
9916 -9915 9354 0
9916 9915 -9354 0
-9917 -9403 0
-9917 6265 0
9917 9403 -6265 0
-9918 9403 0
-9918 7828 0
9918 -9403 -7828 0
-9919 9918 9917 0
-9919 -9918 -9917 0
9919 -9918 9917 0
9919 9918 -9917 0
-9920 9636 9713 0
-9920 -9636 -9713 0
9920 -9636 9713 0
9920 9636 -9713 0
-9921 9920 9552 0
-9921 -9920 -9552 0
9921 -9920 9552 0
9921 9920 -9552 0
-9922 8047 0
-9922 6484 0
9922 -8047 -6484 0
-9923 9622 0
-9923 6484 0
9923 -9622 -6484 0
-9924 -9923 0
-9924 -9922 0
9924 9923 9922 0
-9925 9622 0
-9925 8047 0
9925 -9622 -8047 0
-9926 -9925 0
-9926 9924 0
9926 9925 -9924 0
-9927 9452 9487 0
-9927 -9452 -9487 0
9927 -9452 9487 0
9927 9452 -9487 0
-9928 9927 9361 0
-9928 -9927 -9361 0
9928 -9927 9361 0
9928 9927 -9361 0
-9929 -9410 0
-9929 6272 0
9929 9410 -6272 0
-9930 9410 0
-9930 7835 0
9930 -9410 -7835 0
-9931 9930 9929 0
-9931 -9930 -9929 0
9931 -9930 9929 0
9931 9930 -9929 0
-9932 9643 9720 0
-9932 -9643 -9720 0
9932 -9643 9720 0
9932 9643 -9720 0
-9933 9932 9559 0
-9933 -9932 -9559 0
9933 -9932 9559 0
9933 9932 -9559 0
-9934 8054 0
-9934 6491 0
9934 -8054 -6491 0
-9935 9629 0
-9935 6491 0
9935 -9629 -6491 0
-9936 -9935 0
-9936 -9934 0
9936 9935 9934 0
-9937 9629 0
-9937 8054 0
9937 -9629 -8054 0
-9938 -9937 0
-9938 9936 0
9938 9937 -9936 0
-9939 9459 9494 0
-9939 -9459 -9494 0
9939 -9459 9494 0
9939 9459 -9494 0
-9940 9939 9368 0
-9940 -9939 -9368 0
9940 -9939 9368 0
9940 9939 -9368 0
-9941 -9417 0
-9941 6279 0
9941 9417 -6279 0
-9942 9417 0
-9942 7842 0
9942 -9417 -7842 0
-9943 9942 9941 0
-9943 -9942 -9941 0
9943 -9942 9941 0
9943 9942 -9941 0
-9944 9650 9727 0
-9944 -9650 -9727 0
9944 -9650 9727 0
9944 9650 -9727 0
-9945 9944 9566 0
-9945 -9944 -9566 0
9945 -9944 9566 0
9945 9944 -9566 0
-9946 8061 0
-9946 6498 0
9946 -8061 -6498 0
-9947 9636 0
-9947 6498 0
9947 -9636 -6498 0
-9948 -9947 0
-9948 -9946 0
9948 9947 9946 0
-9949 9636 0
-9949 8061 0
9949 -9636 -8061 0
-9950 -9949 0
-9950 9948 0
9950 9949 -9948 0
-9951 9466 9501 0
-9951 -9466 -9501 0
9951 -9466 9501 0
9951 9466 -9501 0
-9952 9951 9375 0
-9952 -9951 -9375 0
9952 -9951 9375 0
9952 9951 -9375 0
-9953 -9424 0
-9953 6286 0
9953 9424 -6286 0
-9954 9424 0
-9954 7849 0
9954 -9424 -7849 0
-9955 9954 9953 0
-9955 -9954 -9953 0
9955 -9954 9953 0
9955 9954 -9953 0
-9956 9657 9734 0
-9956 -9657 -9734 0
9956 -9657 9734 0
9956 9657 -9734 0
-9957 9956 9573 0
-9957 -9956 -9573 0
9957 -9956 9573 0
9957 9956 -9573 0
-9958 8068 0
-9958 6505 0
9958 -8068 -6505 0
-9959 9643 0
-9959 6505 0
9959 -9643 -6505 0
-9960 -9959 0
-9960 -9958 0
9960 9959 9958 0
-9961 9643 0
-9961 8068 0
9961 -9643 -8068 0
-9962 -9961 0
-9962 9960 0
9962 9961 -9960 0
-9963 9473 9508 0
-9963 -9473 -9508 0
9963 -9473 9508 0
9963 9473 -9508 0
-9964 9963 9382 0
-9964 -9963 -9382 0
9964 -9963 9382 0
9964 9963 -9382 0
-9965 -9431 0
-9965 6293 0
9965 9431 -6293 0
-9966 9431 0
-9966 7856 0
9966 -9431 -7856 0
-9967 9966 9965 0
-9967 -9966 -9965 0
9967 -9966 9965 0
9967 9966 -9965 0
-9968 9664 9741 0
-9968 -9664 -9741 0
9968 -9664 9741 0
9968 9664 -9741 0
-9969 9968 9580 0
-9969 -9968 -9580 0
9969 -9968 9580 0
9969 9968 -9580 0
-9970 8075 0
-9970 6512 0
9970 -8075 -6512 0
-9971 9650 0
-9971 6512 0
9971 -9650 -6512 0
-9972 -9971 0
-9972 -9970 0
9972 9971 9970 0
-9973 9650 0
-9973 8075 0
9973 -9650 -8075 0
-9974 -9973 0
-9974 9972 0
9974 9973 -9972 0
-9975 9480 9515 0
-9975 -9480 -9515 0
9975 -9480 9515 0
9975 9480 -9515 0
-9976 9975 9389 0
-9976 -9975 -9389 0
9976 -9975 9389 0
9976 9975 -9389 0
-9977 -9438 0
-9977 6300 0
9977 9438 -6300 0
-9978 9438 0
-9978 7863 0
9978 -9438 -7863 0
-9979 9978 9977 0
-9979 -9978 -9977 0
9979 -9978 9977 0
9979 9978 -9977 0
-9980 9671 9528 0
-9980 -9671 -9528 0
9980 -9671 9528 0
9980 9671 -9528 0
-9981 9980 9587 0
-9981 -9980 -9587 0
9981 -9980 9587 0
9981 9980 -9587 0
-9982 8082 0
-9982 6519 0
9982 -8082 -6519 0
-9983 9657 0
-9983 6519 0
9983 -9657 -6519 0
-9984 -9983 0
-9984 -9982 0
9984 9983 9982 0
-9985 9657 0
-9985 8082 0
9985 -9657 -8082 0
-9986 -9985 0
-9986 9984 0
9986 9985 -9984 0
-9987 9487 9522 0
-9987 -9487 -9522 0
9987 -9487 9522 0
9987 9487 -9522 0
-9988 9987 9396 0
-9988 -9987 -9396 0
9988 -9987 9396 0
9988 9987 -9396 0
-9989 -9445 0
-9989 6307 0
9989 9445 -6307 0
-9990 9445 0
-9990 7870 0
9990 -9445 -7870 0
-9991 9990 9989 0
-9991 -9990 -9989 0
9991 -9990 9989 0
9991 9990 -9989 0
-9992 9678 9531 0
-9992 -9678 -9531 0
9992 -9678 9531 0
9992 9678 -9531 0
-9993 9992 9594 0
-9993 -9992 -9594 0
9993 -9992 9594 0
9993 9992 -9594 0
-9994 8089 0
-9994 6526 0
9994 -8089 -6526 0
-9995 9664 0
-9995 6526 0
9995 -9664 -6526 0
-9996 -9995 0
-9996 -9994 0
9996 9995 9994 0
-9997 9664 0
-9997 8089 0
9997 -9664 -8089 0
-9998 -9997 0
-9998 9996 0
9998 9997 -9996 0
-9999 9494 9309 0
-9999 -9494 -9309 0
9999 -9494 9309 0
9999 9494 -9309 0
-10000 9999 9403 0
-10000 -9999 -9403 0
10000 -9999 9403 0
10000 9999 -9403 0
-10001 -9452 0
-10001 6314 0
10001 9452 -6314 0
-10002 9452 0
-10002 7877 0
10002 -9452 -7877 0
-10003 10002 10001 0
-10003 -10002 -10001 0
10003 -10002 10001 0
10003 10002 -10001 0
-10004 9685 9538 0
-10004 -9685 -9538 0
10004 -9685 9538 0
10004 9685 -9538 0
-10005 10004 9601 0
-10005 -10004 -9601 0
10005 -10004 9601 0
10005 10004 -9601 0
-10006 8096 0
-10006 6533 0
10006 -8096 -6533 0
-10007 9671 0
-10007 6533 0
10007 -9671 -6533 0
-10008 -10007 0
-10008 -10006 0
10008 10007 10006 0
-10009 9671 0
-10009 8096 0
10009 -9671 -8096 0
-10010 -10009 0
-10010 10008 0
10010 10009 -10008 0
-10011 9501 9312 0
-10011 -9501 -9312 0
10011 -9501 9312 0
10011 9501 -9312 0
-10012 10011 9410 0
-10012 -10011 -9410 0
10012 -10011 9410 0
10012 10011 -9410 0
-10013 -9459 0
-10013 6321 0
10013 9459 -6321 0
-10014 9459 0
-10014 7884 0
10014 -9459 -7884 0
-10015 10014 10013 0
-10015 -10014 -10013 0
10015 -10014 10013 0
10015 10014 -10013 0
-10016 9692 9545 0
-10016 -9692 -9545 0
10016 -9692 9545 0
10016 9692 -9545 0
-10017 10016 9608 0
-10017 -10016 -9608 0
10017 -10016 9608 0
10017 10016 -9608 0
-10018 8103 0
-10018 6540 0
10018 -8103 -6540 0
-10019 9678 0
-10019 6540 0
10019 -9678 -6540 0
-10020 -10019 0
-10020 -10018 0
10020 10019 10018 0
-10021 9678 0
-10021 8103 0
10021 -9678 -8103 0
-10022 -10021 0
-10022 10020 0
10022 10021 -10020 0
-10023 9508 9319 0
-10023 -9508 -9319 0
10023 -9508 9319 0
10023 9508 -9319 0
-10024 10023 9417 0
-10024 -10023 -9417 0
10024 -10023 9417 0
10024 10023 -9417 0
-10025 -9466 0
-10025 6328 0
10025 9466 -6328 0
-10026 9466 0
-10026 7891 0
10026 -9466 -7891 0
-10027 10026 10025 0
-10027 -10026 -10025 0
10027 -10026 10025 0
10027 10026 -10025 0
-10028 9699 9552 0
-10028 -9699 -9552 0
10028 -9699 9552 0
10028 9699 -9552 0
-10029 10028 9615 0
-10029 -10028 -9615 0
10029 -10028 9615 0
10029 10028 -9615 0
-10030 8110 0
-10030 6547 0
10030 -8110 -6547 0
-10031 9685 0
-10031 6547 0
10031 -9685 -6547 0
-10032 -10031 0
-10032 -10030 0
10032 10031 10030 0
-10033 9685 0
-10033 8110 0
10033 -9685 -8110 0
-10034 -10033 0
-10034 10032 0
10034 10033 -10032 0
-10035 9515 9326 0
-10035 -9515 -9326 0
10035 -9515 9326 0
10035 9515 -9326 0
-10036 10035 9424 0
-10036 -10035 -9424 0
10036 -10035 9424 0
10036 10035 -9424 0
-10037 -9473 0
-10037 6335 0
10037 9473 -6335 0
-10038 9473 0
-10038 7898 0
10038 -9473 -7898 0
-10039 10038 10037 0
-10039 -10038 -10037 0
10039 -10038 10037 0
10039 10038 -10037 0
-10040 9706 9559 0
-10040 -9706 -9559 0
10040 -9706 9559 0
10040 9706 -9559 0
-10041 10040 9622 0
-10041 -10040 -9622 0
10041 -10040 9622 0
10041 10040 -9622 0
-10042 8117 0
-10042 6554 0
10042 -8117 -6554 0
-10043 9692 0
-10043 6554 0
10043 -9692 -6554 0
-10044 -10043 0
-10044 -10042 0
10044 10043 10042 0
-10045 9692 0
-10045 8117 0
10045 -9692 -8117 0
-10046 -10045 0
-10046 10044 0
10046 10045 -10044 0
-10047 9522 9333 0
-10047 -9522 -9333 0
10047 -9522 9333 0
10047 9522 -9333 0
-10048 10047 9431 0
-10048 -10047 -9431 0
10048 -10047 9431 0
10048 10047 -9431 0
-10049 -9480 0
-10049 6342 0
10049 9480 -6342 0
-10050 9480 0
-10050 7905 0
10050 -9480 -7905 0
-10051 10050 10049 0
-10051 -10050 -10049 0
10051 -10050 10049 0
10051 10050 -10049 0
-10052 9713 9566 0
-10052 -9713 -9566 0
10052 -9713 9566 0
10052 9713 -9566 0
-10053 10052 9629 0
-10053 -10052 -9629 0
10053 -10052 9629 0
10053 10052 -9629 0
-10054 8124 0
-10054 6561 0
10054 -8124 -6561 0
-10055 9699 0
-10055 6561 0
10055 -9699 -6561 0
-10056 -10055 0
-10056 -10054 0
10056 10055 10054 0
-10057 9699 0
-10057 8124 0
10057 -9699 -8124 0
-10058 -10057 0
-10058 10056 0
10058 10057 -10056 0
-10059 9309 9340 0
-10059 -9309 -9340 0
10059 -9309 9340 0
10059 9309 -9340 0
-10060 10059 9438 0
-10060 -10059 -9438 0
10060 -10059 9438 0
10060 10059 -9438 0
-10061 -9487 0
-10061 6349 0
10061 9487 -6349 0
-10062 9487 0
-10062 7912 0
10062 -9487 -7912 0
-10063 10062 10061 0
-10063 -10062 -10061 0
10063 -10062 10061 0
10063 10062 -10061 0
-10064 9720 9573 0
-10064 -9720 -9573 0
10064 -9720 9573 0
10064 9720 -9573 0
-10065 10064 9636 0
-10065 -10064 -9636 0
10065 -10064 9636 0
10065 10064 -9636 0
-10066 8131 0
-10066 6568 0
10066 -8131 -6568 0
-10067 9706 0
-10067 6568 0
10067 -9706 -6568 0
-10068 -10067 0
-10068 -10066 0
10068 10067 10066 0
-10069 9706 0
-10069 8131 0
10069 -9706 -8131 0
-10070 -10069 0
-10070 10068 0
10070 10069 -10068 0
-10071 9312 9347 0
-10071 -9312 -9347 0
10071 -9312 9347 0
10071 9312 -9347 0
-10072 10071 9445 0
-10072 -10071 -9445 0
10072 -10071 9445 0
10072 10071 -9445 0
-10073 -9494 0
-10073 6356 0
10073 9494 -6356 0
-10074 9494 0
-10074 7919 0
10074 -9494 -7919 0
-10075 10074 10073 0
-10075 -10074 -10073 0
10075 -10074 10073 0
10075 10074 -10073 0
-10076 9727 9580 0
-10076 -9727 -9580 0
10076 -9727 9580 0
10076 9727 -9580 0
-10077 10076 9643 0
-10077 -10076 -9643 0
10077 -10076 9643 0
10077 10076 -9643 0
-10078 8138 0
-10078 6575 0
10078 -8138 -6575 0
-10079 9713 0
-10079 6575 0
10079 -9713 -6575 0
-10080 -10079 0
-10080 -10078 0
10080 10079 10078 0
-10081 9713 0
-10081 8138 0
10081 -9713 -8138 0
-10082 -10081 0
-10082 10080 0
10082 10081 -10080 0
-10083 9319 9354 0
-10083 -9319 -9354 0
10083 -9319 9354 0
10083 9319 -9354 0
-10084 10083 9452 0
-10084 -10083 -9452 0
10084 -10083 9452 0
10084 10083 -9452 0
-10085 -9501 0
-10085 6363 0
10085 9501 -6363 0
-10086 9501 0
-10086 7926 0
10086 -9501 -7926 0
-10087 10086 10085 0
-10087 -10086 -10085 0
10087 -10086 10085 0
10087 10086 -10085 0
-10088 9734 9587 0
-10088 -9734 -9587 0
10088 -9734 9587 0
10088 9734 -9587 0
-10089 10088 9650 0
-10089 -10088 -9650 0
10089 -10088 9650 0
10089 10088 -9650 0
-10090 8145 0
-10090 6582 0
10090 -8145 -6582 0
-10091 9720 0
-10091 6582 0
10091 -9720 -6582 0
-10092 -10091 0
-10092 -10090 0
10092 10091 10090 0
-10093 9720 0
-10093 8145 0
10093 -9720 -8145 0
-10094 -10093 0
-10094 10092 0
10094 10093 -10092 0
-10095 9326 9361 0
-10095 -9326 -9361 0
10095 -9326 9361 0
10095 9326 -9361 0
-10096 10095 9459 0
-10096 -10095 -9459 0
10096 -10095 9459 0
10096 10095 -9459 0
-10097 -9508 0
-10097 6370 0
10097 9508 -6370 0
-10098 9508 0
-10098 7933 0
10098 -9508 -7933 0
-10099 10098 10097 0
-10099 -10098 -10097 0
10099 -10098 10097 0
10099 10098 -10097 0
-10100 9741 9594 0
-10100 -9741 -9594 0
10100 -9741 9594 0
10100 9741 -9594 0
-10101 10100 9657 0
-10101 -10100 -9657 0
10101 -10100 9657 0
10101 10100 -9657 0
-10102 8152 0
-10102 6589 0
10102 -8152 -6589 0
-10103 9727 0
-10103 6589 0
10103 -9727 -6589 0
-10104 -10103 0
-10104 -10102 0
10104 10103 10102 0
-10105 9727 0
-10105 8152 0
10105 -9727 -8152 0
-10106 -10105 0
-10106 10104 0
10106 10105 -10104 0
-10107 9333 9368 0
-10107 -9333 -9368 0
10107 -9333 9368 0
10107 9333 -9368 0
-10108 10107 9466 0
-10108 -10107 -9466 0
10108 -10107 9466 0
10108 10107 -9466 0
-10109 -9515 0
-10109 6377 0
10109 9515 -6377 0
-10110 9515 0
-10110 7940 0
10110 -9515 -7940 0
-10111 10110 10109 0
-10111 -10110 -10109 0
10111 -10110 10109 0
10111 10110 -10109 0
-10112 9528 9601 0
-10112 -9528 -9601 0
10112 -9528 9601 0
10112 9528 -9601 0
-10113 10112 9664 0
-10113 -10112 -9664 0
10113 -10112 9664 0
10113 10112 -9664 0
-10114 8159 0
-10114 6596 0
10114 -8159 -6596 0
-10115 9734 0
-10115 6596 0
10115 -9734 -6596 0
-10116 -10115 0
-10116 -10114 0
10116 10115 10114 0
-10117 9734 0
-10117 8159 0
10117 -9734 -8159 0
-10118 -10117 0
-10118 10116 0
10118 10117 -10116 0
-10119 9340 9375 0
-10119 -9340 -9375 0
10119 -9340 9375 0
10119 9340 -9375 0
-10120 10119 9473 0
-10120 -10119 -9473 0
10120 -10119 9473 0
10120 10119 -9473 0
-10121 -9522 0
-10121 6384 0
10121 9522 -6384 0
-10122 9522 0
-10122 7947 0
10122 -9522 -7947 0
-10123 10122 10121 0
-10123 -10122 -10121 0
10123 -10122 10121 0
10123 10122 -10121 0
-10124 9531 9608 0
-10124 -9531 -9608 0
10124 -9531 9608 0
10124 9531 -9608 0
-10125 10124 9671 0
-10125 -10124 -9671 0
10125 -10124 9671 0
10125 10124 -9671 0
-10126 8166 0
-10126 6603 0
10126 -8166 -6603 0
-10127 9741 0
-10127 6603 0
10127 -9741 -6603 0
-10128 -10127 0
-10128 -10126 0
10128 10127 10126 0
-10129 9741 0
-10129 8166 0
10129 -9741 -8166 0
-10130 -10129 0
-10130 10128 0
10130 10129 -10128 0
-10131 -9799 9787 0
-10131 9799 -9787 0
10131 9799 9787 0
10131 -9799 -9787 0
-10132 9799 0
-10132 9787 0
10132 -9799 -9787 0
-10133 -10132 0
-10133 -9787 0
10133 10132 9787 0
-10134 -9799 0
-10134 10133 0
10134 9799 -10133 0
-10135 9811 -10134 0
-10135 -9811 10134 0
10135 -9811 -10134 0
10135 9811 10134 0
-10136 9811 0
-10136 -10134 0
10136 -9811 10134 0
-10137 9823 10136 0
-10137 -9823 -10136 0
10137 -9823 10136 0
10137 9823 -10136 0
-10138 9823 0
-10138 10136 0
10138 -9823 -10136 0
-10139 -9835 10138 0
-10139 9835 -10138 0
10139 9835 10138 0
10139 -9835 -10138 0
-10140 9835 0
-10140 10138 0
10140 -9835 -10138 0
-10141 -10140 0
-10141 -10138 0
10141 10140 10138 0
-10142 -9835 0
-10142 10141 0
10142 9835 -10141 0
-10143 9847 -10142 0
-10143 -9847 10142 0
10143 -9847 -10142 0
10143 9847 10142 0
-10144 9847 0
-10144 -10142 0
10144 -9847 10142 0
-10145 -9859 10144 0
-10145 9859 -10144 0
10145 9859 10144 0
10145 -9859 -10144 0
-10146 9859 0
-10146 10144 0
10146 -9859 -10144 0
-10147 -10146 0
-10147 -10144 0
10147 10146 10144 0
-10148 -9859 0
-10148 10147 0
10148 9859 -10147 0
-10149 9871 -10148 0
-10149 -9871 10148 0
10149 -9871 -10148 0
10149 9871 10148 0
-10150 9871 0
-10150 -10148 0
10150 -9871 10148 0
-10151 -9883 10150 0
-10151 9883 -10150 0
10151 9883 10150 0
10151 -9883 -10150 0
-10152 9883 0
-10152 10150 0
10152 -9883 -10150 0
-10153 -10152 0
-10153 -10150 0
10153 10152 10150 0
-10154 -9883 0
-10154 10153 0
10154 9883 -10153 0
-10155 9895 -10154 0
-10155 -9895 10154 0
10155 -9895 -10154 0
10155 9895 10154 0
-10156 9895 0
-10156 -10154 0
10156 -9895 10154 0
-10157 -9907 10156 0
-10157 9907 -10156 0
10157 9907 10156 0
10157 -9907 -10156 0
-10158 9907 0
-10158 10156 0
10158 -9907 -10156 0
-10159 -10158 0
-10159 -10156 0
10159 10158 10156 0
-10160 -9907 0
-10160 10159 0
10160 9907 -10159 0
-10161 9919 -10160 0
-10161 -9919 10160 0
10161 -9919 -10160 0
10161 9919 10160 0
-10162 9919 0
-10162 -10160 0
10162 -9919 10160 0
-10163 -9931 10162 0
-10163 9931 -10162 0
10163 9931 10162 0
10163 -9931 -10162 0
-10164 9931 0
-10164 10162 0
10164 -9931 -10162 0
-10165 -10164 0
-10165 -10162 0
10165 10164 10162 0
-10166 -9931 0
-10166 10165 0
10166 9931 -10165 0
-10167 -9943 -10166 0
-10167 9943 10166 0
10167 9943 -10166 0
10167 -9943 10166 0
-10168 9943 0
-10168 -10166 0
10168 -9943 10166 0
-10169 -10168 0
-10169 10166 0
10169 10168 -10166 0
-10170 -9943 0
-10170 10169 0
10170 9943 -10169 0
-10171 -9955 -10170 0
-10171 9955 10170 0
10171 9955 -10170 0
10171 -9955 10170 0
-10172 9955 0
-10172 -10170 0
10172 -9955 10170 0
-10173 -10172 0
-10173 10170 0
10173 10172 -10170 0
-10174 -9955 0
-10174 10173 0
10174 9955 -10173 0
-10175 -9967 -10174 0
-10175 9967 10174 0
10175 9967 -10174 0
10175 -9967 10174 0
-10176 9967 0
-10176 -10174 0
10176 -9967 10174 0
-10177 -10176 0
-10177 10174 0
10177 10176 -10174 0
-10178 -9967 0
-10178 10177 0
10178 9967 -10177 0
-10179 9979 -10178 0
-10179 -9979 10178 0
10179 -9979 -10178 0
10179 9979 10178 0
-10180 9979 0
-10180 -10178 0
10180 -9979 10178 0
-10181 9991 10180 0
-10181 -9991 -10180 0
10181 -9991 10180 0
10181 9991 -10180 0
-10182 9991 0
-10182 10180 0
10182 -9991 -10180 0
-10183 10003 10182 0
-10183 -10003 -10182 0
10183 -10003 10182 0
10183 10003 -10182 0
-10184 10003 0
-10184 10182 0
10184 -10003 -10182 0
-10185 10015 10184 0
-10185 -10015 -10184 0
10185 -10015 10184 0
10185 10015 -10184 0
-10186 10015 0
-10186 10184 0
10186 -10015 -10184 0
-10187 10027 10186 0
-10187 -10027 -10186 0
10187 -10027 10186 0
10187 10027 -10186 0
-10188 10027 0
-10188 10186 0
10188 -10027 -10186 0
-10189 10039 10188 0
-10189 -10039 -10188 0
10189 -10039 10188 0
10189 10039 -10188 0
-10190 10039 0
-10190 10188 0
10190 -10039 -10188 0
-10191 10051 10190 0
-10191 -10051 -10190 0
10191 -10051 10190 0
10191 10051 -10190 0
-10192 10051 0
-10192 10190 0
10192 -10051 -10190 0
-10193 10063 10192 0
-10193 -10063 -10192 0
10193 -10063 10192 0
10193 10063 -10192 0
-10194 10063 0
-10194 10192 0
10194 -10063 -10192 0
-10195 -10075 10194 0
-10195 10075 -10194 0
10195 10075 10194 0
10195 -10075 -10194 0
-10196 10075 0
-10196 10194 0
10196 -10075 -10194 0
-10197 -10196 0
-10197 -10194 0
10197 10196 10194 0
-10198 -10075 0
-10198 10197 0
10198 10075 -10197 0
-10199 -10087 -10198 0
-10199 10087 10198 0
10199 10087 -10198 0
10199 -10087 10198 0
-10200 10087 0
-10200 -10198 0
10200 -10087 10198 0
-10201 -10200 0
-10201 10198 0
10201 10200 -10198 0
-10202 -10087 0
-10202 10201 0
10202 10087 -10201 0
-10203 10099 -10202 0
-10203 -10099 10202 0
10203 -10099 -10202 0
10203 10099 10202 0
-10204 10099 0
-10204 -10202 0
10204 -10099 10202 0
-10205 -10111 10204 0
-10205 10111 -10204 0
10205 10111 10204 0
10205 -10111 -10204 0
-10206 10111 0
-10206 10204 0
10206 -10111 -10204 0
-10207 -10206 0
-10207 -10204 0
10207 10206 10204 0
-10208 -10111 0
-10208 10207 0
10208 10111 -10207 0
-10209 -10123 -10208 0
-10209 10123 10208 0
10209 10123 -10208 0
10209 -10123 10208 0
-10210 10123 0
-10210 -10208 0
10210 -10123 10208 0
-10211 -10210 0
-10211 10208 0
10211 10210 -10208 0
-10212 -10123 0
-10212 10211 0
10212 10123 -10211 0
-10213 -4191 9748 0
-10213 4191 -9748 0
10213 4191 9748 0
10213 -4191 -9748 0
-10214 -4191 0
-10214 9748 0
10214 4191 -9748 0
-10215 4629 9760 0
-10215 -4629 -9760 0
10215 -4629 9760 0
10215 4629 -9760 0
-10216 10215 10214 0
-10216 -10215 -10214 0
10216 -10215 10214 0
10216 10215 -10214 0
-10217 9760 0
-10217 10214 0
10217 -9760 -10214 0
-10218 4629 0
-10218 10214 0
10218 -4629 -10214 0
-10219 -10218 0
-10219 -10217 0
10219 10218 10217 0
-10220 4629 0
-10220 9760 0
10220 -4629 -9760 0
-10221 -10220 0
-10221 10219 0
10221 10220 -10219 0
-10222 4631 9772 0
-10222 -4631 -9772 0
10222 -4631 9772 0
10222 4631 -9772 0
-10223 10222 -10221 0
-10223 -10222 10221 0
10223 -10222 -10221 0
10223 10222 10221 0
-10224 9772 0
-10224 -10221 0
10224 -9772 10221 0
-10225 4631 0
-10225 -10221 0
10225 -4631 10221 0
-10226 -10225 0
-10226 -10224 0
10226 10225 10224 0
-10227 4631 0
-10227 9772 0
10227 -4631 -9772 0
-10228 -10227 0
-10228 10226 0
10228 10227 -10226 0
-10229 4635 9784 0
-10229 -4635 -9784 0
10229 -4635 9784 0
10229 4635 -9784 0
-10230 10229 -10228 0
-10230 -10229 10228 0
10230 -10229 -10228 0
10230 10229 10228 0
-10231 9784 0
-10231 -10228 0
10231 -9784 10228 0
-10232 4635 0
-10232 -10228 0
10232 -4635 10228 0
-10233 -10232 0
-10233 -10231 0
10233 10232 10231 0
-10234 4635 0
-10234 9784 0
10234 -4635 -9784 0
-10235 -10234 0
-10235 10233 0
10235 10234 -10233 0
-10236 4639 9796 0
-10236 -4639 -9796 0
10236 -4639 9796 0
10236 4639 -9796 0
-10237 10236 -10235 0
-10237 -10236 10235 0
10237 -10236 -10235 0
10237 10236 10235 0
-10238 9796 0
-10238 -10235 0
10238 -9796 10235 0
-10239 4639 0
-10239 -10235 0
10239 -4639 10235 0
-10240 -10239 0
-10240 -10238 0
10240 10239 10238 0
-10241 4639 0
-10241 9796 0
10241 -4639 -9796 0
-10242 -10241 0
-10242 10240 0
10242 10241 -10240 0
-10243 4641 9808 0
-10243 -4641 -9808 0
10243 -4641 9808 0
10243 4641 -9808 0
-10244 10243 -10242 0
-10244 -10243 10242 0
10244 -10243 -10242 0
10244 10243 10242 0
-10245 9808 0
-10245 -10242 0
10245 -9808 10242 0
-10246 4641 0
-10246 -10242 0
10246 -4641 10242 0
-10247 -10246 0
-10247 -10245 0
10247 10246 10245 0
-10248 4641 0
-10248 9808 0
10248 -4641 -9808 0
-10249 -10248 0
-10249 10247 0
10249 10248 -10247 0
-10250 4643 9820 0
-10250 -4643 -9820 0
10250 -4643 9820 0
10250 4643 -9820 0
-10251 10250 -10249 0
-10251 -10250 10249 0
10251 -10250 -10249 0
10251 10250 10249 0
-10252 9820 0
-10252 -10249 0
10252 -9820 10249 0
-10253 4643 0
-10253 -10249 0
10253 -4643 10249 0
-10254 -10253 0
-10254 -10252 0
10254 10253 10252 0
-10255 4643 0
-10255 9820 0
10255 -4643 -9820 0
-10256 -10255 0
-10256 10254 0
10256 10255 -10254 0
-10257 4647 9832 0
-10257 -4647 -9832 0
10257 -4647 9832 0
10257 4647 -9832 0
-10258 10257 -10256 0
-10258 -10257 10256 0
10258 -10257 -10256 0
10258 10257 10256 0
-10259 9832 0
-10259 -10256 0
10259 -9832 10256 0
-10260 4647 0
-10260 -10256 0
10260 -4647 10256 0
-10261 -10260 0
-10261 -10259 0
10261 10260 10259 0
-10262 4647 0
-10262 9832 0
10262 -4647 -9832 0
-10263 -10262 0
-10263 10261 0
10263 10262 -10261 0
-10264 4652 9844 0
-10264 -4652 -9844 0
10264 -4652 9844 0
10264 4652 -9844 0
-10265 10264 -10263 0
-10265 -10264 10263 0
10265 -10264 -10263 0
10265 10264 10263 0
-10266 9844 0
-10266 -10263 0
10266 -9844 10263 0
-10267 4652 0
-10267 -10263 0
10267 -4652 10263 0
-10268 -10267 0
-10268 -10266 0
10268 10267 10266 0
-10269 4652 0
-10269 9844 0
10269 -4652 -9844 0
-10270 -10269 0
-10270 10268 0
10270 10269 -10268 0
-10271 4659 9856 0
-10271 -4659 -9856 0
10271 -4659 9856 0
10271 4659 -9856 0
-10272 10271 -10270 0
-10272 -10271 10270 0
10272 -10271 -10270 0
10272 10271 10270 0
-10273 9856 0
-10273 -10270 0
10273 -9856 10270 0
-10274 4659 0
-10274 -10270 0
10274 -4659 10270 0
-10275 -10274 0
-10275 -10273 0
10275 10274 10273 0
-10276 4659 0
-10276 9856 0
10276 -4659 -9856 0
-10277 -10276 0
-10277 10275 0
10277 10276 -10275 0
-10278 4666 9868 0
-10278 -4666 -9868 0
10278 -4666 9868 0
10278 4666 -9868 0
-10279 10278 -10277 0
-10279 -10278 10277 0
10279 -10278 -10277 0
10279 10278 10277 0
-10280 9868 0
-10280 -10277 0
10280 -9868 10277 0
-10281 4666 0
-10281 -10277 0
10281 -4666 10277 0
-10282 -10281 0
-10282 -10280 0
10282 10281 10280 0
-10283 4666 0
-10283 9868 0
10283 -4666 -9868 0
-10284 -10283 0
-10284 10282 0
10284 10283 -10282 0
-10285 4673 9880 0
-10285 -4673 -9880 0
10285 -4673 9880 0
10285 4673 -9880 0
-10286 10285 -10284 0
-10286 -10285 10284 0
10286 -10285 -10284 0
10286 10285 10284 0
-10287 9880 0
-10287 -10284 0
10287 -9880 10284 0
-10288 4673 0
-10288 -10284 0
10288 -4673 10284 0
-10289 -10288 0
-10289 -10287 0
10289 10288 10287 0
-10290 4673 0
-10290 9880 0
10290 -4673 -9880 0
-10291 -10290 0
-10291 10289 0
10291 10290 -10289 0
-10292 4680 9892 0
-10292 -4680 -9892 0
10292 -4680 9892 0
10292 4680 -9892 0
-10293 10292 -10291 0
-10293 -10292 10291 0
10293 -10292 -10291 0
10293 10292 10291 0
-10294 9892 0
-10294 -10291 0
10294 -9892 10291 0
-10295 4680 0
-10295 -10291 0
10295 -4680 10291 0
-10296 -10295 0
-10296 -10294 0
10296 10295 10294 0
-10297 4680 0
-10297 9892 0
10297 -4680 -9892 0
-10298 -10297 0
-10298 10296 0
10298 10297 -10296 0
-10299 4687 9904 0
-10299 -4687 -9904 0
10299 -4687 9904 0
10299 4687 -9904 0
-10300 10299 -10298 0
-10300 -10299 10298 0
10300 -10299 -10298 0
10300 10299 10298 0
-10301 9904 0
-10301 -10298 0
10301 -9904 10298 0
-10302 4687 0
-10302 -10298 0
10302 -4687 10298 0
-10303 -10302 0
-10303 -10301 0
10303 10302 10301 0
-10304 4687 0
-10304 9904 0
10304 -4687 -9904 0
-10305 -10304 0
-10305 10303 0
10305 10304 -10303 0
-10306 4694 9916 0
-10306 -4694 -9916 0
10306 -4694 9916 0
10306 4694 -9916 0
-10307 10306 -10305 0
-10307 -10306 10305 0
10307 -10306 -10305 0
10307 10306 10305 0
-10308 9916 0
-10308 -10305 0
10308 -9916 10305 0
-10309 4694 0
-10309 -10305 0
10309 -4694 10305 0
-10310 -10309 0
-10310 -10308 0
10310 10309 10308 0
-10311 4694 0
-10311 9916 0
10311 -4694 -9916 0
-10312 -10311 0
-10312 10310 0
10312 10311 -10310 0
-10313 4701 9928 0
-10313 -4701 -9928 0
10313 -4701 9928 0
10313 4701 -9928 0
-10314 10313 -10312 0
-10314 -10313 10312 0
10314 -10313 -10312 0
10314 10313 10312 0
-10315 9928 0
-10315 -10312 0
10315 -9928 10312 0
-10316 4701 0
-10316 -10312 0
10316 -4701 10312 0
-10317 -10316 0
-10317 -10315 0
10317 10316 10315 0
-10318 4701 0
-10318 9928 0
10318 -4701 -9928 0
-10319 -10318 0
-10319 10317 0
10319 10318 -10317 0
-10320 4708 9940 0
-10320 -4708 -9940 0
10320 -4708 9940 0
10320 4708 -9940 0
-10321 10320 -10319 0
-10321 -10320 10319 0
10321 -10320 -10319 0
10321 10320 10319 0
-10322 9940 0
-10322 -10319 0
10322 -9940 10319 0
-10323 4708 0
-10323 -10319 0
10323 -4708 10319 0
-10324 -10323 0
-10324 -10322 0
10324 10323 10322 0
-10325 4708 0
-10325 9940 0
10325 -4708 -9940 0
-10326 -10325 0
-10326 10324 0
10326 10325 -10324 0
-10327 4715 9952 0
-10327 -4715 -9952 0
10327 -4715 9952 0
10327 4715 -9952 0
-10328 10327 -10326 0
-10328 -10327 10326 0
10328 -10327 -10326 0
10328 10327 10326 0
-10329 9952 0
-10329 -10326 0
10329 -9952 10326 0
-10330 4715 0
-10330 -10326 0
10330 -4715 10326 0
-10331 -10330 0
-10331 -10329 0
10331 10330 10329 0
-10332 4715 0
-10332 9952 0
10332 -4715 -9952 0
-10333 -10332 0
-10333 10331 0
10333 10332 -10331 0
-10334 4722 9964 0
-10334 -4722 -9964 0
10334 -4722 9964 0
10334 4722 -9964 0
-10335 10334 -10333 0
-10335 -10334 10333 0
10335 -10334 -10333 0
10335 10334 10333 0
-10336 9964 0
-10336 -10333 0
10336 -9964 10333 0
-10337 4722 0
-10337 -10333 0
10337 -4722 10333 0
-10338 -10337 0
-10338 -10336 0
10338 10337 10336 0
-10339 4722 0
-10339 9964 0
10339 -4722 -9964 0
-10340 -10339 0
-10340 10338 0
10340 10339 -10338 0
-10341 4729 9976 0
-10341 -4729 -9976 0
10341 -4729 9976 0
10341 4729 -9976 0
-10342 10341 -10340 0
-10342 -10341 10340 0
10342 -10341 -10340 0
10342 10341 10340 0
-10343 9976 0
-10343 -10340 0
10343 -9976 10340 0
-10344 4729 0
-10344 -10340 0
10344 -4729 10340 0
-10345 -10344 0
-10345 -10343 0
10345 10344 10343 0
-10346 4729 0
-10346 9976 0
10346 -4729 -9976 0
-10347 -10346 0
-10347 10345 0
10347 10346 -10345 0
-10348 4736 9988 0
-10348 -4736 -9988 0
10348 -4736 9988 0
10348 4736 -9988 0
-10349 10348 -10347 0
-10349 -10348 10347 0
10349 -10348 -10347 0
10349 10348 10347 0
-10350 9988 0
-10350 -10347 0
10350 -9988 10347 0
-10351 4736 0
-10351 -10347 0
10351 -4736 10347 0
-10352 -10351 0
-10352 -10350 0
10352 10351 10350 0
-10353 4736 0
-10353 9988 0
10353 -4736 -9988 0
-10354 -10353 0
-10354 10352 0
10354 10353 -10352 0
-10355 4743 10000 0
-10355 -4743 -10000 0
10355 -4743 10000 0
10355 4743 -10000 0
-10356 10355 -10354 0
-10356 -10355 10354 0
10356 -10355 -10354 0
10356 10355 10354 0
-10357 10000 0
-10357 -10354 0
10357 -10000 10354 0
-10358 4743 0
-10358 -10354 0
10358 -4743 10354 0
-10359 -10358 0
-10359 -10357 0
10359 10358 10357 0
-10360 4743 0
-10360 10000 0
10360 -4743 -10000 0
-10361 -10360 0
-10361 10359 0
10361 10360 -10359 0
-10362 4750 10012 0
-10362 -4750 -10012 0
10362 -4750 10012 0
10362 4750 -10012 0
-10363 10362 -10361 0
-10363 -10362 10361 0
10363 -10362 -10361 0
10363 10362 10361 0
-10364 10012 0
-10364 -10361 0
10364 -10012 10361 0
-10365 4750 0
-10365 -10361 0
10365 -4750 10361 0
-10366 -10365 0
-10366 -10364 0
10366 10365 10364 0
-10367 4750 0
-10367 10012 0
10367 -4750 -10012 0
-10368 -10367 0
-10368 10366 0
10368 10367 -10366 0
-10369 4757 10024 0
-10369 -4757 -10024 0
10369 -4757 10024 0
10369 4757 -10024 0
-10370 10369 -10368 0
-10370 -10369 10368 0
10370 -10369 -10368 0
10370 10369 10368 0
-10371 10024 0
-10371 -10368 0
10371 -10024 10368 0
-10372 4757 0
-10372 -10368 0
10372 -4757 10368 0
-10373 -10372 0
-10373 -10371 0
10373 10372 10371 0
-10374 4757 0
-10374 10024 0
10374 -4757 -10024 0
-10375 -10374 0
-10375 10373 0
10375 10374 -10373 0
-10376 4764 10036 0
-10376 -4764 -10036 0
10376 -4764 10036 0
10376 4764 -10036 0
-10377 10376 -10375 0
-10377 -10376 10375 0
10377 -10376 -10375 0
10377 10376 10375 0
-10378 10036 0
-10378 -10375 0
10378 -10036 10375 0
-10379 4764 0
-10379 -10375 0
10379 -4764 10375 0
-10380 -10379 0
-10380 -10378 0
10380 10379 10378 0
-10381 4764 0
-10381 10036 0
10381 -4764 -10036 0
-10382 -10381 0
-10382 10380 0
10382 10381 -10380 0
-10383 4771 10048 0
-10383 -4771 -10048 0
10383 -4771 10048 0
10383 4771 -10048 0
-10384 10383 -10382 0
-10384 -10383 10382 0
10384 -10383 -10382 0
10384 10383 10382 0
-10385 10048 0
-10385 -10382 0
10385 -10048 10382 0
-10386 4771 0
-10386 -10382 0
10386 -4771 10382 0
-10387 -10386 0
-10387 -10385 0
10387 10386 10385 0
-10388 4771 0
-10388 10048 0
10388 -4771 -10048 0
-10389 -10388 0
-10389 10387 0
10389 10388 -10387 0
-10390 4778 10060 0
-10390 -4778 -10060 0
10390 -4778 10060 0
10390 4778 -10060 0
-10391 10390 -10389 0
-10391 -10390 10389 0
10391 -10390 -10389 0
10391 10390 10389 0
-10392 10060 0
-10392 -10389 0
10392 -10060 10389 0
-10393 4778 0
-10393 -10389 0
10393 -4778 10389 0
-10394 -10393 0
-10394 -10392 0
10394 10393 10392 0
-10395 4778 0
-10395 10060 0
10395 -4778 -10060 0
-10396 -10395 0
-10396 10394 0
10396 10395 -10394 0
-10397 4785 10072 0
-10397 -4785 -10072 0
10397 -4785 10072 0
10397 4785 -10072 0
-10398 10397 -10396 0
-10398 -10397 10396 0
10398 -10397 -10396 0
10398 10397 10396 0
-10399 10072 0
-10399 -10396 0
10399 -10072 10396 0
-10400 4785 0
-10400 -10396 0
10400 -4785 10396 0
-10401 -10400 0
-10401 -10399 0
10401 10400 10399 0
-10402 4785 0
-10402 10072 0
10402 -4785 -10072 0
-10403 -10402 0
-10403 10401 0
10403 10402 -10401 0
-10404 4792 10084 0
-10404 -4792 -10084 0
10404 -4792 10084 0
10404 4792 -10084 0
-10405 10404 -10403 0
-10405 -10404 10403 0
10405 -10404 -10403 0
10405 10404 10403 0
-10406 10084 0
-10406 -10403 0
10406 -10084 10403 0
-10407 4792 0
-10407 -10403 0
10407 -4792 10403 0
-10408 -10407 0
-10408 -10406 0
10408 10407 10406 0
-10409 4792 0
-10409 10084 0
10409 -4792 -10084 0
-10410 -10409 0
-10410 10408 0
10410 10409 -10408 0
-10411 4799 10096 0
-10411 -4799 -10096 0
10411 -4799 10096 0
10411 4799 -10096 0
-10412 10411 -10410 0
-10412 -10411 10410 0
10412 -10411 -10410 0
10412 10411 10410 0
-10413 10096 0
-10413 -10410 0
10413 -10096 10410 0
-10414 4799 0
-10414 -10410 0
10414 -4799 10410 0
-10415 -10414 0
-10415 -10413 0
10415 10414 10413 0
-10416 4799 0
-10416 10096 0
10416 -4799 -10096 0
-10417 -10416 0
-10417 10415 0
10417 10416 -10415 0
-10418 4806 10108 0
-10418 -4806 -10108 0
10418 -4806 10108 0
10418 4806 -10108 0
-10419 10418 -10417 0
-10419 -10418 10417 0
10419 -10418 -10417 0
10419 10418 10417 0
-10420 10108 0
-10420 -10417 0
10420 -10108 10417 0
-10421 4806 0
-10421 -10417 0
10421 -4806 10417 0
-10422 -10421 0
-10422 -10420 0
10422 10421 10420 0
-10423 4806 0
-10423 10108 0
10423 -4806 -10108 0
-10424 -10423 0
-10424 10422 0
10424 10423 -10422 0
-10425 4813 10120 0
-10425 -4813 -10120 0
10425 -4813 10120 0
10425 4813 -10120 0
-10426 10425 -10424 0
-10426 -10425 10424 0
10426 -10425 -10424 0
10426 10425 10424 0
-10427 10120 0
-10427 -10424 0
10427 -10120 10424 0
-10428 4813 0
-10428 -10424 0
10428 -4813 10424 0
-10429 -10428 0
-10429 -10427 0
10429 10428 10427 0
-10430 4813 0
-10430 10120 0
10430 -4813 -10120 0
-10431 -10430 0
-10431 10429 0
10431 10430 -10429 0
-10432 10213 9751 0
-10432 -10213 -9751 0
10432 -10213 9751 0
10432 10213 -9751 0
-10433 10213 0
-10433 9751 0
10433 -10213 -9751 0
-10434 10216 9763 0
-10434 -10216 -9763 0
10434 -10216 9763 0
10434 10216 -9763 0
-10435 10434 10433 0
-10435 -10434 -10433 0
10435 -10434 10433 0
10435 10434 -10433 0
-10436 9763 0
-10436 10433 0
10436 -9763 -10433 0
-10437 10216 0
-10437 10433 0
10437 -10216 -10433 0
-10438 -10437 0
-10438 -10436 0
10438 10437 10436 0
-10439 10216 0
-10439 9763 0
10439 -10216 -9763 0
-10440 -10439 0
-10440 10438 0
10440 10439 -10438 0
-10441 10223 9775 0
-10441 -10223 -9775 0
10441 -10223 9775 0
10441 10223 -9775 0
-10442 10441 -10440 0
-10442 -10441 10440 0
10442 -10441 -10440 0
10442 10441 10440 0
-10443 9775 0
-10443 -10440 0
10443 -9775 10440 0
-10444 10223 0
-10444 -10440 0
10444 -10223 10440 0
-10445 -10444 0
-10445 -10443 0
10445 10444 10443 0
-10446 10223 0
-10446 9775 0
10446 -10223 -9775 0
-10447 -10446 0
-10447 10445 0
10447 10446 -10445 0
-10448 10230 -9787 0
-10448 -10230 9787 0
10448 -10230 -9787 0
10448 10230 9787 0
-10449 10448 -10447 0
-10449 -10448 10447 0
10449 -10448 -10447 0
10449 10448 10447 0
-10450 -9787 0
-10450 -10447 0
10450 9787 10447 0
-10451 10230 0
-10451 -10447 0
10451 -10230 10447 0
-10452 -10451 0
-10452 -10450 0
10452 10451 10450 0
-10453 10230 0
-10453 -9787 0
10453 -10230 9787 0
-10454 -10453 0
-10454 10452 0
10454 10453 -10452 0
-10455 10237 10131 0
-10455 -10237 -10131 0
10455 -10237 10131 0
10455 10237 -10131 0
-10456 10455 -10454 0
-10456 -10455 10454 0
10456 -10455 -10454 0
10456 10455 10454 0
-10457 10131 0
-10457 -10454 0
10457 -10131 10454 0
-10458 10237 0
-10458 -10454 0
10458 -10237 10454 0
-10459 -10458 0
-10459 -10457 0
10459 10458 10457 0
-10460 10237 0
-10460 10131 0
10460 -10237 -10131 0
-10461 -10460 0
-10461 10459 0
10461 10460 -10459 0
-10462 10244 10135 0
-10462 -10244 -10135 0
10462 -10244 10135 0
10462 10244 -10135 0
-10463 10462 -10461 0
-10463 -10462 10461 0
10463 -10462 -10461 0
10463 10462 10461 0
-10464 10135 0
-10464 -10461 0
10464 -10135 10461 0
-10465 10244 0
-10465 -10461 0
10465 -10244 10461 0
-10466 -10465 0
-10466 -10464 0
10466 10465 10464 0
-10467 10244 0
-10467 10135 0
10467 -10244 -10135 0
-10468 -10467 0
-10468 10466 0
10468 10467 -10466 0
-10469 10251 10137 0
-10469 -10251 -10137 0
10469 -10251 10137 0
10469 10251 -10137 0
-10470 10469 -10468 0
-10470 -10469 10468 0
10470 -10469 -10468 0
10470 10469 10468 0
-10471 10137 0
-10471 -10468 0
10471 -10137 10468 0
-10472 10251 0
-10472 -10468 0
10472 -10251 10468 0
-10473 -10472 0
-10473 -10471 0
10473 10472 10471 0
-10474 10251 0
-10474 10137 0
10474 -10251 -10137 0
-10475 -10474 0
-10475 10473 0
10475 10474 -10473 0
-10476 10258 10139 0
-10476 -10258 -10139 0
10476 -10258 10139 0
10476 10258 -10139 0
-10477 10476 -10475 0
-10477 -10476 10475 0
10477 -10476 -10475 0
10477 10476 10475 0
-10478 10139 0
-10478 -10475 0
10478 -10139 10475 0
-10479 10258 0
-10479 -10475 0
10479 -10258 10475 0
-10480 -10479 0
-10480 -10478 0
10480 10479 10478 0
-10481 10258 0
-10481 10139 0
10481 -10258 -10139 0
-10482 -10481 0
-10482 10480 0
10482 10481 -10480 0
-10483 10265 10143 0
-10483 -10265 -10143 0
10483 -10265 10143 0
10483 10265 -10143 0
-10484 10483 -10482 0
-10484 -10483 10482 0
10484 -10483 -10482 0
10484 10483 10482 0
-10485 10143 0
-10485 -10482 0
10485 -10143 10482 0
-10486 10265 0
-10486 -10482 0
10486 -10265 10482 0
-10487 -10486 0
-10487 -10485 0
10487 10486 10485 0
-10488 10265 0
-10488 10143 0
10488 -10265 -10143 0
-10489 -10488 0
-10489 10487 0
10489 10488 -10487 0
-10490 10272 10145 0
-10490 -10272 -10145 0
10490 -10272 10145 0
10490 10272 -10145 0
-10491 10490 -10489 0
-10491 -10490 10489 0
10491 -10490 -10489 0
10491 10490 10489 0
-10492 10145 0
-10492 -10489 0
10492 -10145 10489 0
-10493 10272 0
-10493 -10489 0
10493 -10272 10489 0
-10494 -10493 0
-10494 -10492 0
10494 10493 10492 0
-10495 10272 0
-10495 10145 0
10495 -10272 -10145 0
-10496 -10495 0
-10496 10494 0
10496 10495 -10494 0
-10497 10279 10149 0
-10497 -10279 -10149 0
10497 -10279 10149 0
10497 10279 -10149 0
-10498 10497 -10496 0
-10498 -10497 10496 0
10498 -10497 -10496 0
10498 10497 10496 0
-10499 10149 0
-10499 -10496 0
10499 -10149 10496 0
-10500 10279 0
-10500 -10496 0
10500 -10279 10496 0
-10501 -10500 0
-10501 -10499 0
10501 10500 10499 0
-10502 10279 0
-10502 10149 0
10502 -10279 -10149 0
-10503 -10502 0
-10503 10501 0
10503 10502 -10501 0
-10504 10286 10151 0
-10504 -10286 -10151 0
10504 -10286 10151 0
10504 10286 -10151 0
-10505 10504 -10503 0
-10505 -10504 10503 0
10505 -10504 -10503 0
10505 10504 10503 0
-10506 10151 0
-10506 -10503 0
10506 -10151 10503 0
-10507 10286 0
-10507 -10503 0
10507 -10286 10503 0
-10508 -10507 0
-10508 -10506 0
10508 10507 10506 0
-10509 10286 0
-10509 10151 0
10509 -10286 -10151 0
-10510 -10509 0
-10510 10508 0
10510 10509 -10508 0
-10511 10293 10155 0
-10511 -10293 -10155 0
10511 -10293 10155 0
10511 10293 -10155 0
-10512 10511 -10510 0
-10512 -10511 10510 0
10512 -10511 -10510 0
10512 10511 10510 0
-10513 10155 0
-10513 -10510 0
10513 -10155 10510 0
-10514 10293 0
-10514 -10510 0
10514 -10293 10510 0
-10515 -10514 0
-10515 -10513 0
10515 10514 10513 0
-10516 10293 0
-10516 10155 0
10516 -10293 -10155 0
-10517 -10516 0
-10517 10515 0
10517 10516 -10515 0
-10518 10300 10157 0
-10518 -10300 -10157 0
10518 -10300 10157 0
10518 10300 -10157 0
-10519 10518 -10517 0
-10519 -10518 10517 0
10519 -10518 -10517 0
10519 10518 10517 0
-10520 10157 0
-10520 -10517 0
10520 -10157 10517 0
-10521 10300 0
-10521 -10517 0
10521 -10300 10517 0
-10522 -10521 0
-10522 -10520 0
10522 10521 10520 0
-10523 10300 0
-10523 10157 0
10523 -10300 -10157 0
-10524 -10523 0
-10524 10522 0
10524 10523 -10522 0
-10525 10307 10161 0
-10525 -10307 -10161 0
10525 -10307 10161 0
10525 10307 -10161 0
-10526 10525 -10524 0
-10526 -10525 10524 0
10526 -10525 -10524 0
10526 10525 10524 0
-10527 10161 0
-10527 -10524 0
10527 -10161 10524 0
-10528 10307 0
-10528 -10524 0
10528 -10307 10524 0
-10529 -10528 0
-10529 -10527 0
10529 10528 10527 0
-10530 10307 0
-10530 10161 0
10530 -10307 -10161 0
-10531 -10530 0
-10531 10529 0
10531 10530 -10529 0
-10532 10314 10163 0
-10532 -10314 -10163 0
10532 -10314 10163 0
10532 10314 -10163 0
-10533 10532 -10531 0
-10533 -10532 10531 0
10533 -10532 -10531 0
10533 10532 10531 0
-10534 10163 0
-10534 -10531 0
10534 -10163 10531 0
-10535 10314 0
-10535 -10531 0
10535 -10314 10531 0
-10536 -10535 0
-10536 -10534 0
10536 10535 10534 0
-10537 10314 0
-10537 10163 0
10537 -10314 -10163 0
-10538 -10537 0
-10538 10536 0
10538 10537 -10536 0
-10539 10321 10167 0
-10539 -10321 -10167 0
10539 -10321 10167 0
10539 10321 -10167 0
-10540 10539 -10538 0
-10540 -10539 10538 0
10540 -10539 -10538 0
10540 10539 10538 0
-10541 10167 0
-10541 -10538 0
10541 -10167 10538 0
-10542 10321 0
-10542 -10538 0
10542 -10321 10538 0
-10543 -10542 0
-10543 -10541 0
10543 10542 10541 0
-10544 10321 0
-10544 10167 0
10544 -10321 -10167 0
-10545 -10544 0
-10545 10543 0
10545 10544 -10543 0
-10546 10328 10171 0
-10546 -10328 -10171 0
10546 -10328 10171 0
10546 10328 -10171 0
-10547 10546 -10545 0
-10547 -10546 10545 0
10547 -10546 -10545 0
10547 10546 10545 0
-10548 10171 0
-10548 -10545 0
10548 -10171 10545 0
-10549 10328 0
-10549 -10545 0
10549 -10328 10545 0
-10550 -10549 0
-10550 -10548 0
10550 10549 10548 0
-10551 10328 0
-10551 10171 0
10551 -10328 -10171 0
-10552 -10551 0
-10552 10550 0
10552 10551 -10550 0
-10553 10335 10175 0
-10553 -10335 -10175 0
10553 -10335 10175 0
10553 10335 -10175 0
-10554 10553 -10552 0
-10554 -10553 10552 0
10554 -10553 -10552 0
10554 10553 10552 0
-10555 10175 0
-10555 -10552 0
10555 -10175 10552 0
-10556 10335 0
-10556 -10552 0
10556 -10335 10552 0
-10557 -10556 0
-10557 -10555 0
10557 10556 10555 0
-10558 10335 0
-10558 10175 0
10558 -10335 -10175 0
-10559 -10558 0
-10559 10557 0
10559 10558 -10557 0
-10560 10342 10179 0
-10560 -10342 -10179 0
10560 -10342 10179 0
10560 10342 -10179 0
-10561 10560 -10559 0
-10561 -10560 10559 0
10561 -10560 -10559 0
10561 10560 10559 0
-10562 10179 0
-10562 -10559 0
10562 -10179 10559 0
-10563 10342 0
-10563 -10559 0
10563 -10342 10559 0
-10564 -10563 0
-10564 -10562 0
10564 10563 10562 0
-10565 10342 0
-10565 10179 0
10565 -10342 -10179 0
-10566 -10565 0
-10566 10564 0
10566 10565 -10564 0
-10567 10349 10181 0
-10567 -10349 -10181 0
10567 -10349 10181 0
10567 10349 -10181 0
-10568 10567 -10566 0
-10568 -10567 10566 0
10568 -10567 -10566 0
10568 10567 10566 0
-10569 10181 0
-10569 -10566 0
10569 -10181 10566 0
-10570 10349 0
-10570 -10566 0
10570 -10349 10566 0
-10571 -10570 0
-10571 -10569 0
10571 10570 10569 0
-10572 10349 0
-10572 10181 0
10572 -10349 -10181 0
-10573 -10572 0
-10573 10571 0
10573 10572 -10571 0
-10574 10356 10183 0
-10574 -10356 -10183 0
10574 -10356 10183 0
10574 10356 -10183 0
-10575 10574 -10573 0
-10575 -10574 10573 0
10575 -10574 -10573 0
10575 10574 10573 0
-10576 10183 0
-10576 -10573 0
10576 -10183 10573 0
-10577 10356 0
-10577 -10573 0
10577 -10356 10573 0
-10578 -10577 0
-10578 -10576 0
10578 10577 10576 0
-10579 10356 0
-10579 10183 0
10579 -10356 -10183 0
-10580 -10579 0
-10580 10578 0
10580 10579 -10578 0
-10581 10363 10185 0
-10581 -10363 -10185 0
10581 -10363 10185 0
10581 10363 -10185 0
-10582 10581 -10580 0
-10582 -10581 10580 0
10582 -10581 -10580 0
10582 10581 10580 0
-10583 10185 0
-10583 -10580 0
10583 -10185 10580 0
-10584 10363 0
-10584 -10580 0
10584 -10363 10580 0
-10585 -10584 0
-10585 -10583 0
10585 10584 10583 0
-10586 10363 0
-10586 10185 0
10586 -10363 -10185 0
-10587 -10586 0
-10587 10585 0
10587 10586 -10585 0
-10588 10370 10187 0
-10588 -10370 -10187 0
10588 -10370 10187 0
10588 10370 -10187 0
-10589 10588 -10587 0
-10589 -10588 10587 0
10589 -10588 -10587 0
10589 10588 10587 0
-10590 10187 0
-10590 -10587 0
10590 -10187 10587 0
-10591 10370 0
-10591 -10587 0
10591 -10370 10587 0
-10592 -10591 0
-10592 -10590 0
10592 10591 10590 0
-10593 10370 0
-10593 10187 0
10593 -10370 -10187 0
-10594 -10593 0
-10594 10592 0
10594 10593 -10592 0
-10595 10377 10189 0
-10595 -10377 -10189 0
10595 -10377 10189 0
10595 10377 -10189 0
-10596 10595 -10594 0
-10596 -10595 10594 0
10596 -10595 -10594 0
10596 10595 10594 0
-10597 10189 0
-10597 -10594 0
10597 -10189 10594 0
-10598 10377 0
-10598 -10594 0
10598 -10377 10594 0
-10599 -10598 0
-10599 -10597 0
10599 10598 10597 0
-10600 10377 0
-10600 10189 0
10600 -10377 -10189 0
-10601 -10600 0
-10601 10599 0
10601 10600 -10599 0
-10602 10384 10191 0
-10602 -10384 -10191 0
10602 -10384 10191 0
10602 10384 -10191 0
-10603 10602 -10601 0
-10603 -10602 10601 0
10603 -10602 -10601 0
10603 10602 10601 0
-10604 10191 0
-10604 -10601 0
10604 -10191 10601 0
-10605 10384 0
-10605 -10601 0
10605 -10384 10601 0
-10606 -10605 0
-10606 -10604 0
10606 10605 10604 0
-10607 10384 0
-10607 10191 0
10607 -10384 -10191 0
-10608 -10607 0
-10608 10606 0
10608 10607 -10606 0
-10609 10391 10193 0
-10609 -10391 -10193 0
10609 -10391 10193 0
10609 10391 -10193 0
-10610 10609 -10608 0
-10610 -10609 10608 0
10610 -10609 -10608 0
10610 10609 10608 0
-10611 10193 0
-10611 -10608 0
10611 -10193 10608 0
-10612 10391 0
-10612 -10608 0
10612 -10391 10608 0
-10613 -10612 0
-10613 -10611 0
10613 10612 10611 0
-10614 10391 0
-10614 10193 0
10614 -10391 -10193 0
-10615 -10614 0
-10615 10613 0
10615 10614 -10613 0
-10616 10398 10195 0
-10616 -10398 -10195 0
10616 -10398 10195 0
10616 10398 -10195 0
-10617 10616 -10615 0
-10617 -10616 10615 0
10617 -10616 -10615 0
10617 10616 10615 0
-10618 10195 0
-10618 -10615 0
10618 -10195 10615 0
-10619 10398 0
-10619 -10615 0
10619 -10398 10615 0
-10620 -10619 0
-10620 -10618 0
10620 10619 10618 0
-10621 10398 0
-10621 10195 0
10621 -10398 -10195 0
-10622 -10621 0
-10622 10620 0
10622 10621 -10620 0
-10623 10405 10199 0
-10623 -10405 -10199 0
10623 -10405 10199 0
10623 10405 -10199 0
-10624 10623 -10622 0
-10624 -10623 10622 0
10624 -10623 -10622 0
10624 10623 10622 0
-10625 10199 0
-10625 -10622 0
10625 -10199 10622 0
-10626 10405 0
-10626 -10622 0
10626 -10405 10622 0
-10627 -10626 0
-10627 -10625 0
10627 10626 10625 0
-10628 10405 0
-10628 10199 0
10628 -10405 -10199 0
-10629 -10628 0
-10629 10627 0
10629 10628 -10627 0
-10630 10412 10203 0
-10630 -10412 -10203 0
10630 -10412 10203 0
10630 10412 -10203 0
-10631 10630 -10629 0
-10631 -10630 10629 0
10631 -10630 -10629 0
10631 10630 10629 0
-10632 10203 0
-10632 -10629 0
10632 -10203 10629 0
-10633 10412 0
-10633 -10629 0
10633 -10412 10629 0
-10634 -10633 0
-10634 -10632 0
10634 10633 10632 0
-10635 10412 0
-10635 10203 0
10635 -10412 -10203 0
-10636 -10635 0
-10636 10634 0
10636 10635 -10634 0
-10637 10419 10205 0
-10637 -10419 -10205 0
10637 -10419 10205 0
10637 10419 -10205 0
-10638 10637 -10636 0
-10638 -10637 10636 0
10638 -10637 -10636 0
10638 10637 10636 0
-10639 10205 0
-10639 -10636 0
10639 -10205 10636 0
-10640 10419 0
-10640 -10636 0
10640 -10419 10636 0
-10641 -10640 0
-10641 -10639 0
10641 10640 10639 0
-10642 10419 0
-10642 10205 0
10642 -10419 -10205 0
-10643 -10642 0
-10643 10641 0
10643 10642 -10641 0
-10644 10426 10209 0
-10644 -10426 -10209 0
10644 -10426 10209 0
10644 10426 -10209 0
-10645 10644 -10643 0
-10645 -10644 10643 0
10645 -10644 -10643 0
10645 10644 10643 0
-10646 10209 0
-10646 -10643 0
10646 -10209 10643 0
-10647 10426 0
-10647 -10643 0
10647 -10426 10643 0
-10648 -10647 0
-10648 -10646 0
10648 10647 10646 0
-10649 10426 0
-10649 10209 0
10649 -10426 -10209 0
-10650 -10649 0
-10650 10648 0
10650 10649 -10648 0
-10651 9753 -9758 0
-10651 -9753 9758 0
10651 -9753 -9758 0
10651 9753 9758 0
-10652 9753 0
-10652 -9758 0
10652 -9753 9758 0
-10653 9765 -9770 0
-10653 -9765 9770 0
10653 -9765 -9770 0
10653 9765 9770 0
-10654 10653 10652 0
-10654 -10653 -10652 0
10654 -10653 10652 0
10654 10653 -10652 0
-10655 -9770 0
-10655 10652 0
10655 9770 -10652 0
-10656 9765 0
-10656 10652 0
10656 -9765 -10652 0
-10657 -10656 0
-10657 -10655 0
10657 10656 10655 0
-10658 9765 0
-10658 -9770 0
10658 -9765 9770 0
-10659 -10658 0
-10659 10657 0
10659 10658 -10657 0
-10660 9777 -9782 0
-10660 -9777 9782 0
10660 -9777 -9782 0
10660 9777 9782 0
-10661 10660 -10659 0
-10661 -10660 10659 0
10661 -10660 -10659 0
10661 10660 10659 0
-10662 -9782 0
-10662 -10659 0
10662 9782 10659 0
-10663 9777 0
-10663 -10659 0
10663 -9777 10659 0
-10664 -10663 0
-10664 -10662 0
10664 10663 10662 0
-10665 9777 0
-10665 -9782 0
10665 -9777 9782 0
-10666 -10665 0
-10666 10664 0
10666 10665 -10664 0
-10667 9789 -9794 0
-10667 -9789 9794 0
10667 -9789 -9794 0
10667 9789 9794 0
-10668 10667 -10666 0
-10668 -10667 10666 0
10668 -10667 -10666 0
10668 10667 10666 0
-10669 -9794 0
-10669 -10666 0
10669 9794 10666 0
-10670 9789 0
-10670 -10666 0
10670 -9789 10666 0
-10671 -10670 0
-10671 -10669 0
10671 10670 10669 0
-10672 9789 0
-10672 -9794 0
10672 -9789 9794 0
-10673 -10672 0
-10673 10671 0
10673 10672 -10671 0
-10674 9801 -9806 0
-10674 -9801 9806 0
10674 -9801 -9806 0
10674 9801 9806 0
-10675 10674 -10673 0
-10675 -10674 10673 0
10675 -10674 -10673 0
10675 10674 10673 0
-10676 -9806 0
-10676 -10673 0
10676 9806 10673 0
-10677 9801 0
-10677 -10673 0
10677 -9801 10673 0
-10678 -10677 0
-10678 -10676 0
10678 10677 10676 0
-10679 9801 0
-10679 -9806 0
10679 -9801 9806 0
-10680 -10679 0
-10680 10678 0
10680 10679 -10678 0
-10681 9813 -9818 0
-10681 -9813 9818 0
10681 -9813 -9818 0
10681 9813 9818 0
-10682 10681 -10680 0
-10682 -10681 10680 0
10682 -10681 -10680 0
10682 10681 10680 0
-10683 -9818 0
-10683 -10680 0
10683 9818 10680 0
-10684 9813 0
-10684 -10680 0
10684 -9813 10680 0
-10685 -10684 0
-10685 -10683 0
10685 10684 10683 0
-10686 9813 0
-10686 -9818 0
10686 -9813 9818 0
-10687 -10686 0
-10687 10685 0
10687 10686 -10685 0
-10688 9825 -9830 0
-10688 -9825 9830 0
10688 -9825 -9830 0
10688 9825 9830 0
-10689 10688 -10687 0
-10689 -10688 10687 0
10689 -10688 -10687 0
10689 10688 10687 0
-10690 -9830 0
-10690 -10687 0
10690 9830 10687 0
-10691 9825 0
-10691 -10687 0
10691 -9825 10687 0
-10692 -10691 0
-10692 -10690 0
10692 10691 10690 0
-10693 9825 0
-10693 -9830 0
10693 -9825 9830 0
-10694 -10693 0
-10694 10692 0
10694 10693 -10692 0
-10695 9837 -9842 0
-10695 -9837 9842 0
10695 -9837 -9842 0
10695 9837 9842 0
-10696 10695 -10694 0
-10696 -10695 10694 0
10696 -10695 -10694 0
10696 10695 10694 0
-10697 -9842 0
-10697 -10694 0
10697 9842 10694 0
-10698 9837 0
-10698 -10694 0
10698 -9837 10694 0
-10699 -10698 0
-10699 -10697 0
10699 10698 10697 0
-10700 9837 0
-10700 -9842 0
10700 -9837 9842 0
-10701 -10700 0
-10701 10699 0
10701 10700 -10699 0
-10702 9849 -9854 0
-10702 -9849 9854 0
10702 -9849 -9854 0
10702 9849 9854 0
-10703 10702 -10701 0
-10703 -10702 10701 0
10703 -10702 -10701 0
10703 10702 10701 0
-10704 -9854 0
-10704 -10701 0
10704 9854 10701 0
-10705 9849 0
-10705 -10701 0
10705 -9849 10701 0
-10706 -10705 0
-10706 -10704 0
10706 10705 10704 0
-10707 9849 0
-10707 -9854 0
10707 -9849 9854 0
-10708 -10707 0
-10708 10706 0
10708 10707 -10706 0
-10709 9861 -9866 0
-10709 -9861 9866 0
10709 -9861 -9866 0
10709 9861 9866 0
-10710 10709 -10708 0
-10710 -10709 10708 0
10710 -10709 -10708 0
10710 10709 10708 0
-10711 -9866 0
-10711 -10708 0
10711 9866 10708 0
-10712 9861 0
-10712 -10708 0
10712 -9861 10708 0
-10713 -10712 0
-10713 -10711 0
10713 10712 10711 0
-10714 9861 0
-10714 -9866 0
10714 -9861 9866 0
-10715 -10714 0
-10715 10713 0
10715 10714 -10713 0
-10716 9873 -9878 0
-10716 -9873 9878 0
10716 -9873 -9878 0
10716 9873 9878 0
-10717 10716 -10715 0
-10717 -10716 10715 0
10717 -10716 -10715 0
10717 10716 10715 0
-10718 -9878 0
-10718 -10715 0
10718 9878 10715 0
-10719 9873 0
-10719 -10715 0
10719 -9873 10715 0
-10720 -10719 0
-10720 -10718 0
10720 10719 10718 0
-10721 9873 0
-10721 -9878 0
10721 -9873 9878 0
-10722 -10721 0
-10722 10720 0
10722 10721 -10720 0
-10723 9885 -9890 0
-10723 -9885 9890 0
10723 -9885 -9890 0
10723 9885 9890 0
-10724 10723 -10722 0
-10724 -10723 10722 0
10724 -10723 -10722 0
10724 10723 10722 0
-10725 -9890 0
-10725 -10722 0
10725 9890 10722 0
-10726 9885 0
-10726 -10722 0
10726 -9885 10722 0
-10727 -10726 0
-10727 -10725 0
10727 10726 10725 0
-10728 9885 0
-10728 -9890 0
10728 -9885 9890 0
-10729 -10728 0
-10729 10727 0
10729 10728 -10727 0
-10730 9897 -9902 0
-10730 -9897 9902 0
10730 -9897 -9902 0
10730 9897 9902 0
-10731 10730 -10729 0
-10731 -10730 10729 0
10731 -10730 -10729 0
10731 10730 10729 0
-10732 -9902 0
-10732 -10729 0
10732 9902 10729 0
-10733 9897 0
-10733 -10729 0
10733 -9897 10729 0
-10734 -10733 0
-10734 -10732 0
10734 10733 10732 0
-10735 9897 0
-10735 -9902 0
10735 -9897 9902 0
-10736 -10735 0
-10736 10734 0
10736 10735 -10734 0
-10737 9909 -9914 0
-10737 -9909 9914 0
10737 -9909 -9914 0
10737 9909 9914 0
-10738 10737 -10736 0
-10738 -10737 10736 0
10738 -10737 -10736 0
10738 10737 10736 0
-10739 -9914 0
-10739 -10736 0
10739 9914 10736 0
-10740 9909 0
-10740 -10736 0
10740 -9909 10736 0
-10741 -10740 0
-10741 -10739 0
10741 10740 10739 0
-10742 9909 0
-10742 -9914 0
10742 -9909 9914 0
-10743 -10742 0
-10743 10741 0
10743 10742 -10741 0
-10744 9921 -9926 0
-10744 -9921 9926 0
10744 -9921 -9926 0
10744 9921 9926 0
-10745 10744 -10743 0
-10745 -10744 10743 0
10745 -10744 -10743 0
10745 10744 10743 0
-10746 -9926 0
-10746 -10743 0
10746 9926 10743 0
-10747 9921 0
-10747 -10743 0
10747 -9921 10743 0
-10748 -10747 0
-10748 -10746 0
10748 10747 10746 0
-10749 9921 0
-10749 -9926 0
10749 -9921 9926 0
-10750 -10749 0
-10750 10748 0
10750 10749 -10748 0
-10751 9933 -9938 0
-10751 -9933 9938 0
10751 -9933 -9938 0
10751 9933 9938 0
-10752 10751 -10750 0
-10752 -10751 10750 0
10752 -10751 -10750 0
10752 10751 10750 0
-10753 -9938 0
-10753 -10750 0
10753 9938 10750 0
-10754 9933 0
-10754 -10750 0
10754 -9933 10750 0
-10755 -10754 0
-10755 -10753 0
10755 10754 10753 0
-10756 9933 0
-10756 -9938 0
10756 -9933 9938 0
-10757 -10756 0
-10757 10755 0
10757 10756 -10755 0
-10758 9945 -9950 0
-10758 -9945 9950 0
10758 -9945 -9950 0
10758 9945 9950 0
-10759 10758 -10757 0
-10759 -10758 10757 0
10759 -10758 -10757 0
10759 10758 10757 0
-10760 -9950 0
-10760 -10757 0
10760 9950 10757 0
-10761 9945 0
-10761 -10757 0
10761 -9945 10757 0
-10762 -10761 0
-10762 -10760 0
10762 10761 10760 0
-10763 9945 0
-10763 -9950 0
10763 -9945 9950 0
-10764 -10763 0
-10764 10762 0
10764 10763 -10762 0
-10765 9957 -9962 0
-10765 -9957 9962 0
10765 -9957 -9962 0
10765 9957 9962 0
-10766 10765 -10764 0
-10766 -10765 10764 0
10766 -10765 -10764 0
10766 10765 10764 0
-10767 -9962 0
-10767 -10764 0
10767 9962 10764 0
-10768 9957 0
-10768 -10764 0
10768 -9957 10764 0
-10769 -10768 0
-10769 -10767 0
10769 10768 10767 0
-10770 9957 0
-10770 -9962 0
10770 -9957 9962 0
-10771 -10770 0
-10771 10769 0
10771 10770 -10769 0
-10772 9969 -9974 0
-10772 -9969 9974 0
10772 -9969 -9974 0
10772 9969 9974 0
-10773 10772 -10771 0
-10773 -10772 10771 0
10773 -10772 -10771 0
10773 10772 10771 0
-10774 -9974 0
-10774 -10771 0
10774 9974 10771 0
-10775 9969 0
-10775 -10771 0
10775 -9969 10771 0
-10776 -10775 0
-10776 -10774 0
10776 10775 10774 0
-10777 9969 0
-10777 -9974 0
10777 -9969 9974 0
-10778 -10777 0
-10778 10776 0
10778 10777 -10776 0
-10779 9981 -9986 0
-10779 -9981 9986 0
10779 -9981 -9986 0
10779 9981 9986 0
-10780 10779 -10778 0
-10780 -10779 10778 0
10780 -10779 -10778 0
10780 10779 10778 0
-10781 -9986 0
-10781 -10778 0
10781 9986 10778 0
-10782 9981 0
-10782 -10778 0
10782 -9981 10778 0
-10783 -10782 0
-10783 -10781 0
10783 10782 10781 0
-10784 9981 0
-10784 -9986 0
10784 -9981 9986 0
-10785 -10784 0
-10785 10783 0
10785 10784 -10783 0
-10786 9993 -9998 0
-10786 -9993 9998 0
10786 -9993 -9998 0
10786 9993 9998 0
-10787 10786 -10785 0
-10787 -10786 10785 0
10787 -10786 -10785 0
10787 10786 10785 0
-10788 -9998 0
-10788 -10785 0
10788 9998 10785 0
-10789 9993 0
-10789 -10785 0
10789 -9993 10785 0
-10790 -10789 0
-10790 -10788 0
10790 10789 10788 0
-10791 9993 0
-10791 -9998 0
10791 -9993 9998 0
-10792 -10791 0
-10792 10790 0
10792 10791 -10790 0
-10793 10005 -10010 0
-10793 -10005 10010 0
10793 -10005 -10010 0
10793 10005 10010 0
-10794 10793 -10792 0
-10794 -10793 10792 0
10794 -10793 -10792 0
10794 10793 10792 0
-10795 -10010 0
-10795 -10792 0
10795 10010 10792 0
-10796 10005 0
-10796 -10792 0
10796 -10005 10792 0
-10797 -10796 0
-10797 -10795 0
10797 10796 10795 0
-10798 10005 0
-10798 -10010 0
10798 -10005 10010 0
-10799 -10798 0
-10799 10797 0
10799 10798 -10797 0
-10800 10017 -10022 0
-10800 -10017 10022 0
10800 -10017 -10022 0
10800 10017 10022 0
-10801 10800 -10799 0
-10801 -10800 10799 0
10801 -10800 -10799 0
10801 10800 10799 0
-10802 -10022 0
-10802 -10799 0
10802 10022 10799 0
-10803 10017 0
-10803 -10799 0
10803 -10017 10799 0
-10804 -10803 0
-10804 -10802 0
10804 10803 10802 0
-10805 10017 0
-10805 -10022 0
10805 -10017 10022 0
-10806 -10805 0
-10806 10804 0
10806 10805 -10804 0
-10807 10029 -10034 0
-10807 -10029 10034 0
10807 -10029 -10034 0
10807 10029 10034 0
-10808 10807 -10806 0
-10808 -10807 10806 0
10808 -10807 -10806 0
10808 10807 10806 0
-10809 -10034 0
-10809 -10806 0
10809 10034 10806 0
-10810 10029 0
-10810 -10806 0
10810 -10029 10806 0
-10811 -10810 0
-10811 -10809 0
10811 10810 10809 0
-10812 10029 0
-10812 -10034 0
10812 -10029 10034 0
-10813 -10812 0
-10813 10811 0
10813 10812 -10811 0
-10814 10041 -10046 0
-10814 -10041 10046 0
10814 -10041 -10046 0
10814 10041 10046 0
-10815 10814 -10813 0
-10815 -10814 10813 0
10815 -10814 -10813 0
10815 10814 10813 0
-10816 -10046 0
-10816 -10813 0
10816 10046 10813 0
-10817 10041 0
-10817 -10813 0
10817 -10041 10813 0
-10818 -10817 0
-10818 -10816 0
10818 10817 10816 0
-10819 10041 0
-10819 -10046 0
10819 -10041 10046 0
-10820 -10819 0
-10820 10818 0
10820 10819 -10818 0
-10821 10053 -10058 0
-10821 -10053 10058 0
10821 -10053 -10058 0
10821 10053 10058 0
-10822 10821 -10820 0
-10822 -10821 10820 0
10822 -10821 -10820 0
10822 10821 10820 0
-10823 -10058 0
-10823 -10820 0
10823 10058 10820 0
-10824 10053 0
-10824 -10820 0
10824 -10053 10820 0
-10825 -10824 0
-10825 -10823 0
10825 10824 10823 0
-10826 10053 0
-10826 -10058 0
10826 -10053 10058 0
-10827 -10826 0
-10827 10825 0
10827 10826 -10825 0
-10828 10065 -10070 0
-10828 -10065 10070 0
10828 -10065 -10070 0
10828 10065 10070 0
-10829 10828 -10827 0
-10829 -10828 10827 0
10829 -10828 -10827 0
10829 10828 10827 0
-10830 -10070 0
-10830 -10827 0
10830 10070 10827 0
-10831 10065 0
-10831 -10827 0
10831 -10065 10827 0
-10832 -10831 0
-10832 -10830 0
10832 10831 10830 0
-10833 10065 0
-10833 -10070 0
10833 -10065 10070 0
-10834 -10833 0
-10834 10832 0
10834 10833 -10832 0
-10835 10077 -10082 0
-10835 -10077 10082 0
10835 -10077 -10082 0
10835 10077 10082 0
-10836 10835 -10834 0
-10836 -10835 10834 0
10836 -10835 -10834 0
10836 10835 10834 0
-10837 -10082 0
-10837 -10834 0
10837 10082 10834 0
-10838 10077 0
-10838 -10834 0
10838 -10077 10834 0
-10839 -10838 0
-10839 -10837 0
10839 10838 10837 0
-10840 10077 0
-10840 -10082 0
10840 -10077 10082 0
-10841 -10840 0
-10841 10839 0
10841 10840 -10839 0
-10842 10089 -10094 0
-10842 -10089 10094 0
10842 -10089 -10094 0
10842 10089 10094 0
-10843 10842 -10841 0
-10843 -10842 10841 0
10843 -10842 -10841 0
10843 10842 10841 0
-10844 -10094 0
-10844 -10841 0
10844 10094 10841 0
-10845 10089 0
-10845 -10841 0
10845 -10089 10841 0
-10846 -10845 0
-10846 -10844 0
10846 10845 10844 0
-10847 10089 0
-10847 -10094 0
10847 -10089 10094 0
-10848 -10847 0
-10848 10846 0
10848 10847 -10846 0
-10849 10101 -10106 0
-10849 -10101 10106 0
10849 -10101 -10106 0
10849 10101 10106 0
-10850 10849 -10848 0
-10850 -10849 10848 0
10850 -10849 -10848 0
10850 10849 10848 0
-10851 -10106 0
-10851 -10848 0
10851 10106 10848 0
-10852 10101 0
-10852 -10848 0
10852 -10101 10848 0
-10853 -10852 0
-10853 -10851 0
10853 10852 10851 0
-10854 10101 0
-10854 -10106 0
10854 -10101 10106 0
-10855 -10854 0
-10855 10853 0
10855 10854 -10853 0
-10856 10113 -10118 0
-10856 -10113 10118 0
10856 -10113 -10118 0
10856 10113 10118 0
-10857 10856 -10855 0
-10857 -10856 10855 0
10857 -10856 -10855 0
10857 10856 10855 0
-10858 -10118 0
-10858 -10855 0
10858 10118 10855 0
-10859 10113 0
-10859 -10855 0
10859 -10113 10855 0
-10860 -10859 0
-10860 -10858 0
10860 10859 10858 0
-10861 10113 0
-10861 -10118 0
10861 -10113 10118 0
-10862 -10861 0
-10862 10860 0
10862 10861 -10860 0
-10863 10125 -10130 0
-10863 -10125 10130 0
10863 -10125 -10130 0
10863 10125 10130 0
-10864 10863 -10862 0
-10864 -10863 10862 0
10864 -10863 -10862 0
10864 10863 10862 0
-10865 -10130 0
-10865 -10862 0
10865 10130 10862 0
-10866 10125 0
-10866 -10862 0
10866 -10125 10862 0
-10867 -10866 0
-10867 -10865 0
10867 10866 10865 0
-10868 10125 0
-10868 -10130 0
10868 -10125 10130 0
-10869 -10868 0
-10869 10867 0
10869 10868 -10867 0
-10870 4819 10432 0
-10870 -4819 -10432 0
10870 -4819 10432 0
10870 4819 -10432 0
-10871 4819 0
-10871 10432 0
10871 -4819 -10432 0
-10872 4822 10435 0
-10872 -4822 -10435 0
10872 -4822 10435 0
10872 4822 -10435 0
-10873 10872 10871 0
-10873 -10872 -10871 0
10873 -10872 10871 0
10873 10872 -10871 0
-10874 10435 0
-10874 10871 0
10874 -10435 -10871 0
-10875 4822 0
-10875 10871 0
10875 -4822 -10871 0
-10876 -10875 0
-10876 -10874 0
10876 10875 10874 0
-10877 4822 0
-10877 10435 0
10877 -4822 -10435 0
-10878 -10877 0
-10878 10876 0
10878 10877 -10876 0
-10879 4829 10442 0
-10879 -4829 -10442 0
10879 -4829 10442 0
10879 4829 -10442 0
-10880 10879 -10878 0
-10880 -10879 10878 0
10880 -10879 -10878 0
10880 10879 10878 0
-10881 10442 0
-10881 -10878 0
10881 -10442 10878 0
-10882 4829 0
-10882 -10878 0
10882 -4829 10878 0
-10883 -10882 0
-10883 -10881 0
10883 10882 10881 0
-10884 4829 0
-10884 10442 0
10884 -4829 -10442 0
-10885 -10884 0
-10885 10883 0
10885 10884 -10883 0
-10886 4836 10449 0
-10886 -4836 -10449 0
10886 -4836 10449 0
10886 4836 -10449 0
-10887 10886 -10885 0
-10887 -10886 10885 0
10887 -10886 -10885 0
10887 10886 10885 0
-10888 10449 0
-10888 -10885 0
10888 -10449 10885 0
-10889 4836 0
-10889 -10885 0
10889 -4836 10885 0
-10890 -10889 0
-10890 -10888 0
10890 10889 10888 0
-10891 4836 0
-10891 10449 0
10891 -4836 -10449 0
-10892 -10891 0
-10892 10890 0
10892 10891 -10890 0
-10893 4843 10456 0
-10893 -4843 -10456 0
10893 -4843 10456 0
10893 4843 -10456 0
-10894 10893 -10892 0
-10894 -10893 10892 0
10894 -10893 -10892 0
10894 10893 10892 0
-10895 10456 0
-10895 -10892 0
10895 -10456 10892 0
-10896 4843 0
-10896 -10892 0
10896 -4843 10892 0
-10897 -10896 0
-10897 -10895 0
10897 10896 10895 0
-10898 4843 0
-10898 10456 0
10898 -4843 -10456 0
-10899 -10898 0
-10899 10897 0
10899 10898 -10897 0
-10900 4850 10463 0
-10900 -4850 -10463 0
10900 -4850 10463 0
10900 4850 -10463 0
-10901 10900 -10899 0
-10901 -10900 10899 0
10901 -10900 -10899 0
10901 10900 10899 0
-10902 10463 0
-10902 -10899 0
10902 -10463 10899 0
-10903 4850 0
-10903 -10899 0
10903 -4850 10899 0
-10904 -10903 0
-10904 -10902 0
10904 10903 10902 0
-10905 4850 0
-10905 10463 0
10905 -4850 -10463 0
-10906 -10905 0
-10906 10904 0
10906 10905 -10904 0
-10907 4857 10470 0
-10907 -4857 -10470 0
10907 -4857 10470 0
10907 4857 -10470 0
-10908 10907 -10906 0
-10908 -10907 10906 0
10908 -10907 -10906 0
10908 10907 10906 0
-10909 10470 0
-10909 -10906 0
10909 -10470 10906 0
-10910 4857 0
-10910 -10906 0
10910 -4857 10906 0
-10911 -10910 0
-10911 -10909 0
10911 10910 10909 0
-10912 4857 0
-10912 10470 0
10912 -4857 -10470 0
-10913 -10912 0
-10913 10911 0
10913 10912 -10911 0
-10914 4864 10477 0
-10914 -4864 -10477 0
10914 -4864 10477 0
10914 4864 -10477 0
-10915 10914 -10913 0
-10915 -10914 10913 0
10915 -10914 -10913 0
10915 10914 10913 0
-10916 10477 0
-10916 -10913 0
10916 -10477 10913 0
-10917 4864 0
-10917 -10913 0
10917 -4864 10913 0
-10918 -10917 0
-10918 -10916 0
10918 10917 10916 0
-10919 4864 0
-10919 10477 0
10919 -4864 -10477 0
-10920 -10919 0
-10920 10918 0
10920 10919 -10918 0
-10921 4871 10484 0
-10921 -4871 -10484 0
10921 -4871 10484 0
10921 4871 -10484 0
-10922 10921 -10920 0
-10922 -10921 10920 0
10922 -10921 -10920 0
10922 10921 10920 0
-10923 10484 0
-10923 -10920 0
10923 -10484 10920 0
-10924 4871 0
-10924 -10920 0
10924 -4871 10920 0
-10925 -10924 0
-10925 -10923 0
10925 10924 10923 0
-10926 4871 0
-10926 10484 0
10926 -4871 -10484 0
-10927 -10926 0
-10927 10925 0
10927 10926 -10925 0
-10928 4878 10491 0
-10928 -4878 -10491 0
10928 -4878 10491 0
10928 4878 -10491 0
-10929 10928 -10927 0
-10929 -10928 10927 0
10929 -10928 -10927 0
10929 10928 10927 0
-10930 10491 0
-10930 -10927 0
10930 -10491 10927 0
-10931 4878 0
-10931 -10927 0
10931 -4878 10927 0
-10932 -10931 0
-10932 -10930 0
10932 10931 10930 0
-10933 4878 0
-10933 10491 0
10933 -4878 -10491 0
-10934 -10933 0
-10934 10932 0
10934 10933 -10932 0
-10935 4885 10498 0
-10935 -4885 -10498 0
10935 -4885 10498 0
10935 4885 -10498 0
-10936 10935 -10934 0
-10936 -10935 10934 0
10936 -10935 -10934 0
10936 10935 10934 0
-10937 10498 0
-10937 -10934 0
10937 -10498 10934 0
-10938 4885 0
-10938 -10934 0
10938 -4885 10934 0
-10939 -10938 0
-10939 -10937 0
10939 10938 10937 0
-10940 4885 0
-10940 10498 0
10940 -4885 -10498 0
-10941 -10940 0
-10941 10939 0
10941 10940 -10939 0
-10942 4892 10505 0
-10942 -4892 -10505 0
10942 -4892 10505 0
10942 4892 -10505 0
-10943 10942 -10941 0
-10943 -10942 10941 0
10943 -10942 -10941 0
10943 10942 10941 0
-10944 10505 0
-10944 -10941 0
10944 -10505 10941 0
-10945 4892 0
-10945 -10941 0
10945 -4892 10941 0
-10946 -10945 0
-10946 -10944 0
10946 10945 10944 0
-10947 4892 0
-10947 10505 0
10947 -4892 -10505 0
-10948 -10947 0
-10948 10946 0
10948 10947 -10946 0
-10949 4899 10512 0
-10949 -4899 -10512 0
10949 -4899 10512 0
10949 4899 -10512 0
-10950 10949 -10948 0
-10950 -10949 10948 0
10950 -10949 -10948 0
10950 10949 10948 0
-10951 10512 0
-10951 -10948 0
10951 -10512 10948 0
-10952 4899 0
-10952 -10948 0
10952 -4899 10948 0
-10953 -10952 0
-10953 -10951 0
10953 10952 10951 0
-10954 4899 0
-10954 10512 0
10954 -4899 -10512 0
-10955 -10954 0
-10955 10953 0
10955 10954 -10953 0
-10956 4906 10519 0
-10956 -4906 -10519 0
10956 -4906 10519 0
10956 4906 -10519 0
-10957 10956 -10955 0
-10957 -10956 10955 0
10957 -10956 -10955 0
10957 10956 10955 0
-10958 10519 0
-10958 -10955 0
10958 -10519 10955 0
-10959 4906 0
-10959 -10955 0
10959 -4906 10955 0
-10960 -10959 0
-10960 -10958 0
10960 10959 10958 0
-10961 4906 0
-10961 10519 0
10961 -4906 -10519 0
-10962 -10961 0
-10962 10960 0
10962 10961 -10960 0
-10963 4913 10526 0
-10963 -4913 -10526 0
10963 -4913 10526 0
10963 4913 -10526 0
-10964 10963 -10962 0
-10964 -10963 10962 0
10964 -10963 -10962 0
10964 10963 10962 0
-10965 10526 0
-10965 -10962 0
10965 -10526 10962 0
-10966 4913 0
-10966 -10962 0
10966 -4913 10962 0
-10967 -10966 0
-10967 -10965 0
10967 10966 10965 0
-10968 4913 0
-10968 10526 0
10968 -4913 -10526 0
-10969 -10968 0
-10969 10967 0
10969 10968 -10967 0
-10970 4920 10533 0
-10970 -4920 -10533 0
10970 -4920 10533 0
10970 4920 -10533 0
-10971 10970 -10969 0
-10971 -10970 10969 0
10971 -10970 -10969 0
10971 10970 10969 0
-10972 10533 0
-10972 -10969 0
10972 -10533 10969 0
-10973 4920 0
-10973 -10969 0
10973 -4920 10969 0
-10974 -10973 0
-10974 -10972 0
10974 10973 10972 0
-10975 4920 0
-10975 10533 0
10975 -4920 -10533 0
-10976 -10975 0
-10976 10974 0
10976 10975 -10974 0
-10977 4927 10540 0
-10977 -4927 -10540 0
10977 -4927 10540 0
10977 4927 -10540 0
-10978 10977 -10976 0
-10978 -10977 10976 0
10978 -10977 -10976 0
10978 10977 10976 0
-10979 10540 0
-10979 -10976 0
10979 -10540 10976 0
-10980 4927 0
-10980 -10976 0
10980 -4927 10976 0
-10981 -10980 0
-10981 -10979 0
10981 10980 10979 0
-10982 4927 0
-10982 10540 0
10982 -4927 -10540 0
-10983 -10982 0
-10983 10981 0
10983 10982 -10981 0
-10984 4934 10547 0
-10984 -4934 -10547 0
10984 -4934 10547 0
10984 4934 -10547 0
-10985 10984 -10983 0
-10985 -10984 10983 0
10985 -10984 -10983 0
10985 10984 10983 0
-10986 10547 0
-10986 -10983 0
10986 -10547 10983 0
-10987 4934 0
-10987 -10983 0
10987 -4934 10983 0
-10988 -10987 0
-10988 -10986 0
10988 10987 10986 0
-10989 4934 0
-10989 10547 0
10989 -4934 -10547 0
-10990 -10989 0
-10990 10988 0
10990 10989 -10988 0
-10991 4941 10554 0
-10991 -4941 -10554 0
10991 -4941 10554 0
10991 4941 -10554 0
-10992 10991 -10990 0
-10992 -10991 10990 0
10992 -10991 -10990 0
10992 10991 10990 0
-10993 10554 0
-10993 -10990 0
10993 -10554 10990 0
-10994 4941 0
-10994 -10990 0
10994 -4941 10990 0
-10995 -10994 0
-10995 -10993 0
10995 10994 10993 0
-10996 4941 0
-10996 10554 0
10996 -4941 -10554 0
-10997 -10996 0
-10997 10995 0
10997 10996 -10995 0
-10998 4948 10561 0
-10998 -4948 -10561 0
10998 -4948 10561 0
10998 4948 -10561 0
-10999 10998 -10997 0
-10999 -10998 10997 0
10999 -10998 -10997 0
10999 10998 10997 0
-11000 10561 0
-11000 -10997 0
11000 -10561 10997 0
-11001 4948 0
-11001 -10997 0
11001 -4948 10997 0
-11002 -11001 0
-11002 -11000 0
11002 11001 11000 0
-11003 4948 0
-11003 10561 0
11003 -4948 -10561 0
-11004 -11003 0
-11004 11002 0
11004 11003 -11002 0
-11005 4955 10568 0
-11005 -4955 -10568 0
11005 -4955 10568 0
11005 4955 -10568 0
-11006 11005 -11004 0
-11006 -11005 11004 0
11006 -11005 -11004 0
11006 11005 11004 0
-11007 10568 0
-11007 -11004 0
11007 -10568 11004 0
-11008 4955 0
-11008 -11004 0
11008 -4955 11004 0
-11009 -11008 0
-11009 -11007 0
11009 11008 11007 0
-11010 4955 0
-11010 10568 0
11010 -4955 -10568 0
-11011 -11010 0
-11011 11009 0
11011 11010 -11009 0
-11012 4962 10575 0
-11012 -4962 -10575 0
11012 -4962 10575 0
11012 4962 -10575 0
-11013 11012 -11011 0
-11013 -11012 11011 0
11013 -11012 -11011 0
11013 11012 11011 0
-11014 10575 0
-11014 -11011 0
11014 -10575 11011 0
-11015 4962 0
-11015 -11011 0
11015 -4962 11011 0
-11016 -11015 0
-11016 -11014 0
11016 11015 11014 0
-11017 4962 0
-11017 10575 0
11017 -4962 -10575 0
-11018 -11017 0
-11018 11016 0
11018 11017 -11016 0
-11019 4969 10582 0
-11019 -4969 -10582 0
11019 -4969 10582 0
11019 4969 -10582 0
-11020 11019 -11018 0
-11020 -11019 11018 0
11020 -11019 -11018 0
11020 11019 11018 0
-11021 10582 0
-11021 -11018 0
11021 -10582 11018 0
-11022 4969 0
-11022 -11018 0
11022 -4969 11018 0
-11023 -11022 0
-11023 -11021 0
11023 11022 11021 0
-11024 4969 0
-11024 10582 0
11024 -4969 -10582 0
-11025 -11024 0
-11025 11023 0
11025 11024 -11023 0
-11026 4976 10589 0
-11026 -4976 -10589 0
11026 -4976 10589 0
11026 4976 -10589 0
-11027 11026 -11025 0
-11027 -11026 11025 0
11027 -11026 -11025 0
11027 11026 11025 0
-11028 10589 0
-11028 -11025 0
11028 -10589 11025 0
-11029 4976 0
-11029 -11025 0
11029 -4976 11025 0
-11030 -11029 0
-11030 -11028 0
11030 11029 11028 0
-11031 4976 0
-11031 10589 0
11031 -4976 -10589 0
-11032 -11031 0
-11032 11030 0
11032 11031 -11030 0
-11033 4983 10596 0
-11033 -4983 -10596 0
11033 -4983 10596 0
11033 4983 -10596 0
-11034 11033 -11032 0
-11034 -11033 11032 0
11034 -11033 -11032 0
11034 11033 11032 0
-11035 10596 0
-11035 -11032 0
11035 -10596 11032 0
-11036 4983 0
-11036 -11032 0
11036 -4983 11032 0
-11037 -11036 0
-11037 -11035 0
11037 11036 11035 0
-11038 4983 0
-11038 10596 0
11038 -4983 -10596 0
-11039 -11038 0
-11039 11037 0
11039 11038 -11037 0
-11040 4990 10603 0
-11040 -4990 -10603 0
11040 -4990 10603 0
11040 4990 -10603 0
-11041 11040 -11039 0
-11041 -11040 11039 0
11041 -11040 -11039 0
11041 11040 11039 0
-11042 10603 0
-11042 -11039 0
11042 -10603 11039 0
-11043 4990 0
-11043 -11039 0
11043 -4990 11039 0
-11044 -11043 0
-11044 -11042 0
11044 11043 11042 0
-11045 4990 0
-11045 10603 0
11045 -4990 -10603 0
-11046 -11045 0
-11046 11044 0
11046 11045 -11044 0
-11047 4997 10610 0
-11047 -4997 -10610 0
11047 -4997 10610 0
11047 4997 -10610 0
-11048 11047 -11046 0
-11048 -11047 11046 0
11048 -11047 -11046 0
11048 11047 11046 0
-11049 10610 0
-11049 -11046 0
11049 -10610 11046 0
-11050 4997 0
-11050 -11046 0
11050 -4997 11046 0
-11051 -11050 0
-11051 -11049 0
11051 11050 11049 0
-11052 4997 0
-11052 10610 0
11052 -4997 -10610 0
-11053 -11052 0
-11053 11051 0
11053 11052 -11051 0
-11054 5004 10617 0
-11054 -5004 -10617 0
11054 -5004 10617 0
11054 5004 -10617 0
-11055 11054 -11053 0
-11055 -11054 11053 0
11055 -11054 -11053 0
11055 11054 11053 0
-11056 10617 0
-11056 -11053 0
11056 -10617 11053 0
-11057 5004 0
-11057 -11053 0
11057 -5004 11053 0
-11058 -11057 0
-11058 -11056 0
11058 11057 11056 0
-11059 5004 0
-11059 10617 0
11059 -5004 -10617 0
-11060 -11059 0
-11060 11058 0
11060 11059 -11058 0
-11061 5011 10624 0
-11061 -5011 -10624 0
11061 -5011 10624 0
11061 5011 -10624 0
-11062 11061 -11060 0
-11062 -11061 11060 0
11062 -11061 -11060 0
11062 11061 11060 0
-11063 10624 0
-11063 -11060 0
11063 -10624 11060 0
-11064 5011 0
-11064 -11060 0
11064 -5011 11060 0
-11065 -11064 0
-11065 -11063 0
11065 11064 11063 0
-11066 5011 0
-11066 10624 0
11066 -5011 -10624 0
-11067 -11066 0
-11067 11065 0
11067 11066 -11065 0
-11068 5018 10631 0
-11068 -5018 -10631 0
11068 -5018 10631 0
11068 5018 -10631 0
-11069 11068 -11067 0
-11069 -11068 11067 0
11069 -11068 -11067 0
11069 11068 11067 0
-11070 10631 0
-11070 -11067 0
11070 -10631 11067 0
-11071 5018 0
-11071 -11067 0
11071 -5018 11067 0
-11072 -11071 0
-11072 -11070 0
11072 11071 11070 0
-11073 5018 0
-11073 10631 0
11073 -5018 -10631 0
-11074 -11073 0
-11074 11072 0
11074 11073 -11072 0
-11075 5025 10638 0
-11075 -5025 -10638 0
11075 -5025 10638 0
11075 5025 -10638 0
-11076 11075 -11074 0
-11076 -11075 11074 0
11076 -11075 -11074 0
11076 11075 11074 0
-11077 10638 0
-11077 -11074 0
11077 -10638 11074 0
-11078 5025 0
-11078 -11074 0
11078 -5025 11074 0
-11079 -11078 0
-11079 -11077 0
11079 11078 11077 0
-11080 5025 0
-11080 10638 0
11080 -5025 -10638 0
-11081 -11080 0
-11081 11079 0
11081 11080 -11079 0
-11082 5032 10645 0
-11082 -5032 -10645 0
11082 -5032 10645 0
11082 5032 -10645 0
-11083 11082 -11081 0
-11083 -11082 11081 0
11083 -11082 -11081 0
11083 11082 11081 0
-11084 10645 0
-11084 -11081 0
11084 -10645 11081 0
-11085 5032 0
-11085 -11081 0
11085 -5032 11081 0
-11086 -11085 0
-11086 -11084 0
11086 11085 11084 0
-11087 5032 0
-11087 10645 0
11087 -5032 -10645 0
-11088 -11087 0
-11088 11086 0
11088 11087 -11086 0
-11089 10432 10651 0
-11089 -10432 -10651 0
11089 -10432 10651 0
11089 10432 -10651 0
-11090 10432 0
-11090 10651 0
11090 -10432 -10651 0
-11091 10435 10654 0
-11091 -10435 -10654 0
11091 -10435 10654 0
11091 10435 -10654 0
-11092 11091 11090 0
-11092 -11091 -11090 0
11092 -11091 11090 0
11092 11091 -11090 0
-11093 10654 0
-11093 11090 0
11093 -10654 -11090 0
-11094 10435 0
-11094 11090 0
11094 -10435 -11090 0
-11095 -11094 0
-11095 -11093 0
11095 11094 11093 0
-11096 10435 0
-11096 10654 0
11096 -10435 -10654 0
-11097 -11096 0
-11097 11095 0
11097 11096 -11095 0
-11098 10442 10661 0
-11098 -10442 -10661 0
11098 -10442 10661 0
11098 10442 -10661 0
-11099 11098 -11097 0
-11099 -11098 11097 0
11099 -11098 -11097 0
11099 11098 11097 0
-11100 10661 0
-11100 -11097 0
11100 -10661 11097 0
-11101 10442 0
-11101 -11097 0
11101 -10442 11097 0
-11102 -11101 0
-11102 -11100 0
11102 11101 11100 0
-11103 10442 0
-11103 10661 0
11103 -10442 -10661 0
-11104 -11103 0
-11104 11102 0
11104 11103 -11102 0
-11105 10449 10668 0
-11105 -10449 -10668 0
11105 -10449 10668 0
11105 10449 -10668 0
-11106 11105 -11104 0
-11106 -11105 11104 0
11106 -11105 -11104 0
11106 11105 11104 0
-11107 10668 0
-11107 -11104 0
11107 -10668 11104 0
-11108 10449 0
-11108 -11104 0
11108 -10449 11104 0
-11109 -11108 0
-11109 -11107 0
11109 11108 11107 0
-11110 10449 0
-11110 10668 0
11110 -10449 -10668 0
-11111 -11110 0
-11111 11109 0
11111 11110 -11109 0
-11112 10456 10675 0
-11112 -10456 -10675 0
11112 -10456 10675 0
11112 10456 -10675 0
-11113 11112 -11111 0
-11113 -11112 11111 0
11113 -11112 -11111 0
11113 11112 11111 0
-11114 10675 0
-11114 -11111 0
11114 -10675 11111 0
-11115 10456 0
-11115 -11111 0
11115 -10456 11111 0
-11116 -11115 0
-11116 -11114 0
11116 11115 11114 0
-11117 10456 0
-11117 10675 0
11117 -10456 -10675 0
-11118 -11117 0
-11118 11116 0
11118 11117 -11116 0
-11119 10463 10682 0
-11119 -10463 -10682 0
11119 -10463 10682 0
11119 10463 -10682 0
-11120 11119 -11118 0
-11120 -11119 11118 0
11120 -11119 -11118 0
11120 11119 11118 0
-11121 10682 0
-11121 -11118 0
11121 -10682 11118 0
-11122 10463 0
-11122 -11118 0
11122 -10463 11118 0
-11123 -11122 0
-11123 -11121 0
11123 11122 11121 0
-11124 10463 0
-11124 10682 0
11124 -10463 -10682 0
-11125 -11124 0
-11125 11123 0
11125 11124 -11123 0
-11126 10470 10689 0
-11126 -10470 -10689 0
11126 -10470 10689 0
11126 10470 -10689 0
-11127 11126 -11125 0
-11127 -11126 11125 0
11127 -11126 -11125 0
11127 11126 11125 0
-11128 10689 0
-11128 -11125 0
11128 -10689 11125 0
-11129 10470 0
-11129 -11125 0
11129 -10470 11125 0
-11130 -11129 0
-11130 -11128 0
11130 11129 11128 0
-11131 10470 0
-11131 10689 0
11131 -10470 -10689 0
-11132 -11131 0
-11132 11130 0
11132 11131 -11130 0
-11133 10477 10696 0
-11133 -10477 -10696 0
11133 -10477 10696 0
11133 10477 -10696 0
-11134 11133 -11132 0
-11134 -11133 11132 0
11134 -11133 -11132 0
11134 11133 11132 0
-11135 10696 0
-11135 -11132 0
11135 -10696 11132 0
-11136 10477 0
-11136 -11132 0
11136 -10477 11132 0
-11137 -11136 0
-11137 -11135 0
11137 11136 11135 0
-11138 10477 0
-11138 10696 0
11138 -10477 -10696 0
-11139 -11138 0
-11139 11137 0
11139 11138 -11137 0
-11140 10484 10703 0
-11140 -10484 -10703 0
11140 -10484 10703 0
11140 10484 -10703 0
-11141 11140 -11139 0
-11141 -11140 11139 0
11141 -11140 -11139 0
11141 11140 11139 0
-11142 10703 0
-11142 -11139 0
11142 -10703 11139 0
-11143 10484 0
-11143 -11139 0
11143 -10484 11139 0
-11144 -11143 0
-11144 -11142 0
11144 11143 11142 0
-11145 10484 0
-11145 10703 0
11145 -10484 -10703 0
-11146 -11145 0
-11146 11144 0
11146 11145 -11144 0
-11147 10491 10710 0
-11147 -10491 -10710 0
11147 -10491 10710 0
11147 10491 -10710 0
-11148 11147 -11146 0
-11148 -11147 11146 0
11148 -11147 -11146 0
11148 11147 11146 0
-11149 10710 0
-11149 -11146 0
11149 -10710 11146 0
-11150 10491 0
-11150 -11146 0
11150 -10491 11146 0
-11151 -11150 0
-11151 -11149 0
11151 11150 11149 0
-11152 10491 0
-11152 10710 0
11152 -10491 -10710 0
-11153 -11152 0
-11153 11151 0
11153 11152 -11151 0
-11154 10498 10717 0
-11154 -10498 -10717 0
11154 -10498 10717 0
11154 10498 -10717 0
-11155 11154 -11153 0
-11155 -11154 11153 0
11155 -11154 -11153 0
11155 11154 11153 0
-11156 10717 0
-11156 -11153 0
11156 -10717 11153 0
-11157 10498 0
-11157 -11153 0
11157 -10498 11153 0
-11158 -11157 0
-11158 -11156 0
11158 11157 11156 0
-11159 10498 0
-11159 10717 0
11159 -10498 -10717 0
-11160 -11159 0
-11160 11158 0
11160 11159 -11158 0
-11161 10505 10724 0
-11161 -10505 -10724 0
11161 -10505 10724 0
11161 10505 -10724 0
-11162 11161 -11160 0
-11162 -11161 11160 0
11162 -11161 -11160 0
11162 11161 11160 0
-11163 10724 0
-11163 -11160 0
11163 -10724 11160 0
-11164 10505 0
-11164 -11160 0
11164 -10505 11160 0
-11165 -11164 0
-11165 -11163 0
11165 11164 11163 0
-11166 10505 0
-11166 10724 0
11166 -10505 -10724 0
-11167 -11166 0
-11167 11165 0
11167 11166 -11165 0
-11168 10512 10731 0
-11168 -10512 -10731 0
11168 -10512 10731 0
11168 10512 -10731 0
-11169 11168 -11167 0
-11169 -11168 11167 0
11169 -11168 -11167 0
11169 11168 11167 0
-11170 10731 0
-11170 -11167 0
11170 -10731 11167 0
-11171 10512 0
-11171 -11167 0
11171 -10512 11167 0
-11172 -11171 0
-11172 -11170 0
11172 11171 11170 0
-11173 10512 0
-11173 10731 0
11173 -10512 -10731 0
-11174 -11173 0
-11174 11172 0
11174 11173 -11172 0
-11175 10519 10738 0
-11175 -10519 -10738 0
11175 -10519 10738 0
11175 10519 -10738 0
-11176 11175 -11174 0
-11176 -11175 11174 0
11176 -11175 -11174 0
11176 11175 11174 0
-11177 10738 0
-11177 -11174 0
11177 -10738 11174 0
-11178 10519 0
-11178 -11174 0
11178 -10519 11174 0
-11179 -11178 0
-11179 -11177 0
11179 11178 11177 0
-11180 10519 0
-11180 10738 0
11180 -10519 -10738 0
-11181 -11180 0
-11181 11179 0
11181 11180 -11179 0
-11182 10526 10745 0
-11182 -10526 -10745 0
11182 -10526 10745 0
11182 10526 -10745 0
-11183 11182 -11181 0
-11183 -11182 11181 0
11183 -11182 -11181 0
11183 11182 11181 0
-11184 10745 0
-11184 -11181 0
11184 -10745 11181 0
-11185 10526 0
-11185 -11181 0
11185 -10526 11181 0
-11186 -11185 0
-11186 -11184 0
11186 11185 11184 0
-11187 10526 0
-11187 10745 0
11187 -10526 -10745 0
-11188 -11187 0
-11188 11186 0
11188 11187 -11186 0
-11189 10533 10752 0
-11189 -10533 -10752 0
11189 -10533 10752 0
11189 10533 -10752 0
-11190 11189 -11188 0
-11190 -11189 11188 0
11190 -11189 -11188 0
11190 11189 11188 0
-11191 10752 0
-11191 -11188 0
11191 -10752 11188 0
-11192 10533 0
-11192 -11188 0
11192 -10533 11188 0
-11193 -11192 0
-11193 -11191 0
11193 11192 11191 0
-11194 10533 0
-11194 10752 0
11194 -10533 -10752 0
-11195 -11194 0
-11195 11193 0
11195 11194 -11193 0
-11196 10540 10759 0
-11196 -10540 -10759 0
11196 -10540 10759 0
11196 10540 -10759 0
-11197 11196 -11195 0
-11197 -11196 11195 0
11197 -11196 -11195 0
11197 11196 11195 0
-11198 10759 0
-11198 -11195 0
11198 -10759 11195 0
-11199 10540 0
-11199 -11195 0
11199 -10540 11195 0
-11200 -11199 0
-11200 -11198 0
11200 11199 11198 0
-11201 10540 0
-11201 10759 0
11201 -10540 -10759 0
-11202 -11201 0
-11202 11200 0
11202 11201 -11200 0
-11203 10547 10766 0
-11203 -10547 -10766 0
11203 -10547 10766 0
11203 10547 -10766 0
-11204 11203 -11202 0
-11204 -11203 11202 0
11204 -11203 -11202 0
11204 11203 11202 0
-11205 10766 0
-11205 -11202 0
11205 -10766 11202 0
-11206 10547 0
-11206 -11202 0
11206 -10547 11202 0
-11207 -11206 0
-11207 -11205 0
11207 11206 11205 0
-11208 10547 0
-11208 10766 0
11208 -10547 -10766 0
-11209 -11208 0
-11209 11207 0
11209 11208 -11207 0
-11210 10554 10773 0
-11210 -10554 -10773 0
11210 -10554 10773 0
11210 10554 -10773 0
-11211 11210 -11209 0
-11211 -11210 11209 0
11211 -11210 -11209 0
11211 11210 11209 0
-11212 10773 0
-11212 -11209 0
11212 -10773 11209 0
-11213 10554 0
-11213 -11209 0
11213 -10554 11209 0
-11214 -11213 0
-11214 -11212 0
11214 11213 11212 0
-11215 10554 0
-11215 10773 0
11215 -10554 -10773 0
-11216 -11215 0
-11216 11214 0
11216 11215 -11214 0
-11217 10561 10780 0
-11217 -10561 -10780 0
11217 -10561 10780 0
11217 10561 -10780 0
-11218 11217 -11216 0
-11218 -11217 11216 0
11218 -11217 -11216 0
11218 11217 11216 0
-11219 10780 0
-11219 -11216 0
11219 -10780 11216 0
-11220 10561 0
-11220 -11216 0
11220 -10561 11216 0
-11221 -11220 0
-11221 -11219 0
11221 11220 11219 0
-11222 10561 0
-11222 10780 0
11222 -10561 -10780 0
-11223 -11222 0
-11223 11221 0
11223 11222 -11221 0
-11224 10568 10787 0
-11224 -10568 -10787 0
11224 -10568 10787 0
11224 10568 -10787 0
-11225 11224 -11223 0
-11225 -11224 11223 0
11225 -11224 -11223 0
11225 11224 11223 0
-11226 10787 0
-11226 -11223 0
11226 -10787 11223 0
-11227 10568 0
-11227 -11223 0
11227 -10568 11223 0
-11228 -11227 0
-11228 -11226 0
11228 11227 11226 0
-11229 10568 0
-11229 10787 0
11229 -10568 -10787 0
-11230 -11229 0
-11230 11228 0
11230 11229 -11228 0
-11231 10575 10794 0
-11231 -10575 -10794 0
11231 -10575 10794 0
11231 10575 -10794 0
-11232 11231 -11230 0
-11232 -11231 11230 0
11232 -11231 -11230 0
11232 11231 11230 0
-11233 10794 0
-11233 -11230 0
11233 -10794 11230 0
-11234 10575 0
-11234 -11230 0
11234 -10575 11230 0
-11235 -11234 0
-11235 -11233 0
11235 11234 11233 0
-11236 10575 0
-11236 10794 0
11236 -10575 -10794 0
-11237 -11236 0
-11237 11235 0
11237 11236 -11235 0
-11238 10582 10801 0
-11238 -10582 -10801 0
11238 -10582 10801 0
11238 10582 -10801 0
-11239 11238 -11237 0
-11239 -11238 11237 0
11239 -11238 -11237 0
11239 11238 11237 0
-11240 10801 0
-11240 -11237 0
11240 -10801 11237 0
-11241 10582 0
-11241 -11237 0
11241 -10582 11237 0
-11242 -11241 0
-11242 -11240 0
11242 11241 11240 0
-11243 10582 0
-11243 10801 0
11243 -10582 -10801 0
-11244 -11243 0
-11244 11242 0
11244 11243 -11242 0
-11245 10589 10808 0
-11245 -10589 -10808 0
11245 -10589 10808 0
11245 10589 -10808 0
-11246 11245 -11244 0
-11246 -11245 11244 0
11246 -11245 -11244 0
11246 11245 11244 0
-11247 10808 0
-11247 -11244 0
11247 -10808 11244 0
-11248 10589 0
-11248 -11244 0
11248 -10589 11244 0
-11249 -11248 0
-11249 -11247 0
11249 11248 11247 0
-11250 10589 0
-11250 10808 0
11250 -10589 -10808 0
-11251 -11250 0
-11251 11249 0
11251 11250 -11249 0
-11252 10596 10815 0
-11252 -10596 -10815 0
11252 -10596 10815 0
11252 10596 -10815 0
-11253 11252 -11251 0
-11253 -11252 11251 0
11253 -11252 -11251 0
11253 11252 11251 0
-11254 10815 0
-11254 -11251 0
11254 -10815 11251 0
-11255 10596 0
-11255 -11251 0
11255 -10596 11251 0
-11256 -11255 0
-11256 -11254 0
11256 11255 11254 0
-11257 10596 0
-11257 10815 0
11257 -10596 -10815 0
-11258 -11257 0
-11258 11256 0
11258 11257 -11256 0
-11259 10603 10822 0
-11259 -10603 -10822 0
11259 -10603 10822 0
11259 10603 -10822 0
-11260 11259 -11258 0
-11260 -11259 11258 0
11260 -11259 -11258 0
11260 11259 11258 0
-11261 10822 0
-11261 -11258 0
11261 -10822 11258 0
-11262 10603 0
-11262 -11258 0
11262 -10603 11258 0
-11263 -11262 0
-11263 -11261 0
11263 11262 11261 0
-11264 10603 0
-11264 10822 0
11264 -10603 -10822 0
-11265 -11264 0
-11265 11263 0
11265 11264 -11263 0
-11266 10610 10829 0
-11266 -10610 -10829 0
11266 -10610 10829 0
11266 10610 -10829 0
-11267 11266 -11265 0
-11267 -11266 11265 0
11267 -11266 -11265 0
11267 11266 11265 0
-11268 10829 0
-11268 -11265 0
11268 -10829 11265 0
-11269 10610 0
-11269 -11265 0
11269 -10610 11265 0
-11270 -11269 0
-11270 -11268 0
11270 11269 11268 0
-11271 10610 0
-11271 10829 0
11271 -10610 -10829 0
-11272 -11271 0
-11272 11270 0
11272 11271 -11270 0
-11273 10617 10836 0
-11273 -10617 -10836 0
11273 -10617 10836 0
11273 10617 -10836 0
-11274 11273 -11272 0
-11274 -11273 11272 0
11274 -11273 -11272 0
11274 11273 11272 0
-11275 10836 0
-11275 -11272 0
11275 -10836 11272 0
-11276 10617 0
-11276 -11272 0
11276 -10617 11272 0
-11277 -11276 0
-11277 -11275 0
11277 11276 11275 0
-11278 10617 0
-11278 10836 0
11278 -10617 -10836 0
-11279 -11278 0
-11279 11277 0
11279 11278 -11277 0
-11280 10624 10843 0
-11280 -10624 -10843 0
11280 -10624 10843 0
11280 10624 -10843 0
-11281 11280 -11279 0
-11281 -11280 11279 0
11281 -11280 -11279 0
11281 11280 11279 0
-11282 10843 0
-11282 -11279 0
11282 -10843 11279 0
-11283 10624 0
-11283 -11279 0
11283 -10624 11279 0
-11284 -11283 0
-11284 -11282 0
11284 11283 11282 0
-11285 10624 0
-11285 10843 0
11285 -10624 -10843 0
-11286 -11285 0
-11286 11284 0
11286 11285 -11284 0
-11287 10631 10850 0
-11287 -10631 -10850 0
11287 -10631 10850 0
11287 10631 -10850 0
-11288 11287 -11286 0
-11288 -11287 11286 0
11288 -11287 -11286 0
11288 11287 11286 0
-11289 10850 0
-11289 -11286 0
11289 -10850 11286 0
-11290 10631 0
-11290 -11286 0
11290 -10631 11286 0
-11291 -11290 0
-11291 -11289 0
11291 11290 11289 0
-11292 10631 0
-11292 10850 0
11292 -10631 -10850 0
-11293 -11292 0
-11293 11291 0
11293 11292 -11291 0
-11294 10638 10857 0
-11294 -10638 -10857 0
11294 -10638 10857 0
11294 10638 -10857 0
-11295 11294 -11293 0
-11295 -11294 11293 0
11295 -11294 -11293 0
11295 11294 11293 0
-11296 10857 0
-11296 -11293 0
11296 -10857 11293 0
-11297 10638 0
-11297 -11293 0
11297 -10638 11293 0
-11298 -11297 0
-11298 -11296 0
11298 11297 11296 0
-11299 10638 0
-11299 10857 0
11299 -10638 -10857 0
-11300 -11299 0
-11300 11298 0
11300 11299 -11298 0
-11301 10645 10864 0
-11301 -10645 -10864 0
11301 -10645 10864 0
11301 10645 -10864 0
-11302 11301 -11300 0
-11302 -11301 11300 0
11302 -11301 -11300 0
11302 11301 11300 0
-11303 10864 0
-11303 -11300 0
11303 -10864 11300 0
-11304 10645 0
-11304 -11300 0
11304 -10645 11300 0
-11305 -11304 0
-11305 -11303 0
11305 11304 11303 0
-11306 10645 0
-11306 10864 0
11306 -10645 -10864 0
-11307 -11306 0
-11307 11305 0
11307 11306 -11305 0
-11308 10908 10943 0
-11308 -10908 -10943 0
11308 -10908 10943 0
11308 10908 -10943 0
-11309 11308 11041 0
-11309 -11308 -11041 0
11309 -11308 11041 0
11309 11308 -11041 0
-11310 -10870 0
-11310 7734 0
11310 10870 -7734 0
-11311 10870 0
-11311 9309 0
11311 -10870 -9309 0
-11312 11311 11310 0
-11312 -11311 -11310 0
11312 -11311 11310 0
11312 11311 -11310 0
-11313 11099 11176 0
-11313 -11099 -11176 0
11313 -11099 11176 0
11313 11099 -11176 0
-11314 11313 11239 0
-11314 -11313 -11239 0
11314 -11313 11239 0
11314 11313 -11239 0
-11315 9528 0
-11315 7953 0
11315 -9528 -7953 0
-11316 11089 0
-11316 7953 0
11316 -11089 -7953 0
-11317 -11316 0
-11317 -11315 0
11317 11316 11315 0
-11318 11089 0
-11318 9528 0
11318 -11089 -9528 0
-11319 -11318 0
-11319 11317 0
11319 11318 -11317 0
-11320 10915 10950 0
-11320 -10915 -10950 0
11320 -10915 10950 0
11320 10915 -10950 0
-11321 11320 11048 0
-11321 -11320 -11048 0
11321 -11320 11048 0
11321 11320 -11048 0
-11322 -10873 0
-11322 7737 0
11322 10873 -7737 0
-11323 10873 0
-11323 9312 0
11323 -10873 -9312 0
-11324 11323 11322 0
-11324 -11323 -11322 0
11324 -11323 11322 0
11324 11323 -11322 0
-11325 11106 11183 0
-11325 -11106 -11183 0
11325 -11106 11183 0
11325 11106 -11183 0
-11326 11325 11246 0
-11326 -11325 -11246 0
11326 -11325 11246 0
11326 11325 -11246 0
-11327 9531 0
-11327 7956 0
11327 -9531 -7956 0
-11328 11092 0
-11328 7956 0
11328 -11092 -7956 0
-11329 -11328 0
-11329 -11327 0
11329 11328 11327 0
-11330 11092 0
-11330 9531 0
11330 -11092 -9531 0
-11331 -11330 0
-11331 11329 0
11331 11330 -11329 0
-11332 10922 10957 0
-11332 -10922 -10957 0
11332 -10922 10957 0
11332 10922 -10957 0
-11333 11332 11055 0
-11333 -11332 -11055 0
11333 -11332 11055 0
11333 11332 -11055 0
-11334 -10880 0
-11334 7744 0
11334 10880 -7744 0
-11335 10880 0
-11335 9319 0
11335 -10880 -9319 0
-11336 11335 11334 0
-11336 -11335 -11334 0
11336 -11335 11334 0
11336 11335 -11334 0
-11337 11113 11190 0
-11337 -11113 -11190 0
11337 -11113 11190 0
11337 11113 -11190 0
-11338 11337 11253 0
-11338 -11337 -11253 0
11338 -11337 11253 0
11338 11337 -11253 0
-11339 9538 0
-11339 7963 0
11339 -9538 -7963 0
-11340 11099 0
-11340 7963 0
11340 -11099 -7963 0
-11341 -11340 0
-11341 -11339 0
11341 11340 11339 0
-11342 11099 0
-11342 9538 0
11342 -11099 -9538 0
-11343 -11342 0
-11343 11341 0
11343 11342 -11341 0
-11344 10929 10964 0
-11344 -10929 -10964 0
11344 -10929 10964 0
11344 10929 -10964 0
-11345 11344 11062 0
-11345 -11344 -11062 0
11345 -11344 11062 0
11345 11344 -11062 0
-11346 -10887 0
-11346 7751 0
11346 10887 -7751 0
-11347 10887 0
-11347 9326 0
11347 -10887 -9326 0
-11348 11347 11346 0
-11348 -11347 -11346 0
11348 -11347 11346 0
11348 11347 -11346 0
-11349 11120 11197 0
-11349 -11120 -11197 0
11349 -11120 11197 0
11349 11120 -11197 0
-11350 11349 11260 0
-11350 -11349 -11260 0
11350 -11349 11260 0
11350 11349 -11260 0
-11351 9545 0
-11351 7970 0
11351 -9545 -7970 0
-11352 11106 0
-11352 7970 0
11352 -11106 -7970 0
-11353 -11352 0
-11353 -11351 0
11353 11352 11351 0
-11354 11106 0
-11354 9545 0
11354 -11106 -9545 0
-11355 -11354 0
-11355 11353 0
11355 11354 -11353 0
-11356 10936 10971 0
-11356 -10936 -10971 0
11356 -10936 10971 0
11356 10936 -10971 0
-11357 11356 11069 0
-11357 -11356 -11069 0
11357 -11356 11069 0
11357 11356 -11069 0
-11358 -10894 0
-11358 7758 0
11358 10894 -7758 0
-11359 10894 0
-11359 9333 0
11359 -10894 -9333 0
-11360 11359 11358 0
-11360 -11359 -11358 0
11360 -11359 11358 0
11360 11359 -11358 0
-11361 11127 11204 0
-11361 -11127 -11204 0
11361 -11127 11204 0
11361 11127 -11204 0
-11362 11361 11267 0
-11362 -11361 -11267 0
11362 -11361 11267 0
11362 11361 -11267 0
-11363 9552 0
-11363 7977 0
11363 -9552 -7977 0
-11364 11113 0
-11364 7977 0
11364 -11113 -7977 0
-11365 -11364 0
-11365 -11363 0
11365 11364 11363 0
-11366 11113 0
-11366 9552 0
11366 -11113 -9552 0
-11367 -11366 0
-11367 11365 0
11367 11366 -11365 0
-11368 10943 10978 0
-11368 -10943 -10978 0
11368 -10943 10978 0
11368 10943 -10978 0
-11369 11368 11076 0
-11369 -11368 -11076 0
11369 -11368 11076 0
11369 11368 -11076 0
-11370 -10901 0
-11370 7765 0
11370 10901 -7765 0
-11371 10901 0
-11371 9340 0
11371 -10901 -9340 0
-11372 11371 11370 0
-11372 -11371 -11370 0
11372 -11371 11370 0
11372 11371 -11370 0
-11373 11134 11211 0
-11373 -11134 -11211 0
11373 -11134 11211 0
11373 11134 -11211 0
-11374 11373 11274 0
-11374 -11373 -11274 0
11374 -11373 11274 0
11374 11373 -11274 0
-11375 9559 0
-11375 7984 0
11375 -9559 -7984 0
-11376 11120 0
-11376 7984 0
11376 -11120 -7984 0
-11377 -11376 0
-11377 -11375 0
11377 11376 11375 0
-11378 11120 0
-11378 9559 0
11378 -11120 -9559 0
-11379 -11378 0
-11379 11377 0
11379 11378 -11377 0
-11380 10950 10985 0
-11380 -10950 -10985 0
11380 -10950 10985 0
11380 10950 -10985 0
-11381 11380 11083 0
-11381 -11380 -11083 0
11381 -11380 11083 0
11381 11380 -11083 0
-11382 -10908 0
-11382 7772 0
11382 10908 -7772 0
-11383 10908 0
-11383 9347 0
11383 -10908 -9347 0
-11384 11383 11382 0
-11384 -11383 -11382 0
11384 -11383 11382 0
11384 11383 -11382 0
-11385 11141 11218 0
-11385 -11141 -11218 0
11385 -11141 11218 0
11385 11141 -11218 0
-11386 11385 11281 0
-11386 -11385 -11281 0
11386 -11385 11281 0
11386 11385 -11281 0
-11387 9566 0
-11387 7991 0
11387 -9566 -7991 0
-11388 11127 0
-11388 7991 0
11388 -11127 -7991 0
-11389 -11388 0
-11389 -11387 0
11389 11388 11387 0
-11390 11127 0
-11390 9566 0
11390 -11127 -9566 0
-11391 -11390 0
-11391 11389 0
11391 11390 -11389 0
-11392 10957 10992 0
-11392 -10957 -10992 0
11392 -10957 10992 0
11392 10957 -10992 0
-11393 11392 10870 0
-11393 -11392 -10870 0
11393 -11392 10870 0
11393 11392 -10870 0
-11394 -10915 0
-11394 7779 0
11394 10915 -7779 0
-11395 10915 0
-11395 9354 0
11395 -10915 -9354 0
-11396 11395 11394 0
-11396 -11395 -11394 0
11396 -11395 11394 0
11396 11395 -11394 0
-11397 11148 11225 0
-11397 -11148 -11225 0
11397 -11148 11225 0
11397 11148 -11225 0
-11398 11397 11288 0
-11398 -11397 -11288 0
11398 -11397 11288 0
11398 11397 -11288 0
-11399 9573 0
-11399 7998 0
11399 -9573 -7998 0
-11400 11134 0
-11400 7998 0
11400 -11134 -7998 0
-11401 -11400 0
-11401 -11399 0
11401 11400 11399 0
-11402 11134 0
-11402 9573 0
11402 -11134 -9573 0
-11403 -11402 0
-11403 11401 0
11403 11402 -11401 0
-11404 10964 10999 0
-11404 -10964 -10999 0
11404 -10964 10999 0
11404 10964 -10999 0
-11405 11404 10873 0
-11405 -11404 -10873 0
11405 -11404 10873 0
11405 11404 -10873 0
-11406 -10922 0
-11406 7786 0
11406 10922 -7786 0
-11407 10922 0
-11407 9361 0
11407 -10922 -9361 0
-11408 11407 11406 0
-11408 -11407 -11406 0
11408 -11407 11406 0
11408 11407 -11406 0
-11409 11155 11232 0
-11409 -11155 -11232 0
11409 -11155 11232 0
11409 11155 -11232 0
-11410 11409 11295 0
-11410 -11409 -11295 0
11410 -11409 11295 0
11410 11409 -11295 0
-11411 9580 0
-11411 8005 0
11411 -9580 -8005 0
-11412 11141 0
-11412 8005 0
11412 -11141 -8005 0
-11413 -11412 0
-11413 -11411 0
11413 11412 11411 0
-11414 11141 0
-11414 9580 0
11414 -11141 -9580 0
-11415 -11414 0
-11415 11413 0
11415 11414 -11413 0
-11416 10971 11006 0
-11416 -10971 -11006 0
11416 -10971 11006 0
11416 10971 -11006 0
-11417 11416 10880 0
-11417 -11416 -10880 0
11417 -11416 10880 0
11417 11416 -10880 0
-11418 -10929 0
-11418 7793 0
11418 10929 -7793 0
-11419 10929 0
-11419 9368 0
11419 -10929 -9368 0
-11420 11419 11418 0
-11420 -11419 -11418 0
11420 -11419 11418 0
11420 11419 -11418 0
-11421 11162 11239 0
-11421 -11162 -11239 0
11421 -11162 11239 0
11421 11162 -11239 0
-11422 11421 11302 0
-11422 -11421 -11302 0
11422 -11421 11302 0
11422 11421 -11302 0
-11423 9587 0
-11423 8012 0
11423 -9587 -8012 0
-11424 11148 0
-11424 8012 0
11424 -11148 -8012 0
-11425 -11424 0
-11425 -11423 0
11425 11424 11423 0
-11426 11148 0
-11426 9587 0
11426 -11148 -9587 0
-11427 -11426 0
-11427 11425 0
11427 11426 -11425 0
-11428 10978 11013 0
-11428 -10978 -11013 0
11428 -10978 11013 0
11428 10978 -11013 0
-11429 11428 10887 0
-11429 -11428 -10887 0
11429 -11428 10887 0
11429 11428 -10887 0
-11430 -10936 0
-11430 7800 0
11430 10936 -7800 0
-11431 10936 0
-11431 9375 0
11431 -10936 -9375 0
-11432 11431 11430 0
-11432 -11431 -11430 0
11432 -11431 11430 0
11432 11431 -11430 0
-11433 11169 11246 0
-11433 -11169 -11246 0
11433 -11169 11246 0
11433 11169 -11246 0
-11434 11433 11089 0
-11434 -11433 -11089 0
11434 -11433 11089 0
11434 11433 -11089 0
-11435 9594 0
-11435 8019 0
11435 -9594 -8019 0
-11436 11155 0
-11436 8019 0
11436 -11155 -8019 0
-11437 -11436 0
-11437 -11435 0
11437 11436 11435 0
-11438 11155 0
-11438 9594 0
11438 -11155 -9594 0
-11439 -11438 0
-11439 11437 0
11439 11438 -11437 0
-11440 10985 11020 0
-11440 -10985 -11020 0
11440 -10985 11020 0
11440 10985 -11020 0
-11441 11440 10894 0
-11441 -11440 -10894 0
11441 -11440 10894 0
11441 11440 -10894 0
-11442 -10943 0
-11442 7807 0
11442 10943 -7807 0
-11443 10943 0
-11443 9382 0
11443 -10943 -9382 0
-11444 11443 11442 0
-11444 -11443 -11442 0
11444 -11443 11442 0
11444 11443 -11442 0
-11445 11176 11253 0
-11445 -11176 -11253 0
11445 -11176 11253 0
11445 11176 -11253 0
-11446 11445 11092 0
-11446 -11445 -11092 0
11446 -11445 11092 0
11446 11445 -11092 0
-11447 9601 0
-11447 8026 0
11447 -9601 -8026 0
-11448 11162 0
-11448 8026 0
11448 -11162 -8026 0
-11449 -11448 0
-11449 -11447 0
11449 11448 11447 0
-11450 11162 0
-11450 9601 0
11450 -11162 -9601 0
-11451 -11450 0
-11451 11449 0
11451 11450 -11449 0
-11452 10992 11027 0
-11452 -10992 -11027 0
11452 -10992 11027 0
11452 10992 -11027 0
-11453 11452 10901 0
-11453 -11452 -10901 0
11453 -11452 10901 0
11453 11452 -10901 0
-11454 -10950 0
-11454 7814 0
11454 10950 -7814 0
-11455 10950 0
-11455 9389 0
11455 -10950 -9389 0
-11456 11455 11454 0
-11456 -11455 -11454 0
11456 -11455 11454 0
11456 11455 -11454 0
-11457 11183 11260 0
-11457 -11183 -11260 0
11457 -11183 11260 0
11457 11183 -11260 0
-11458 11457 11099 0
-11458 -11457 -11099 0
11458 -11457 11099 0
11458 11457 -11099 0
-11459 9608 0
-11459 8033 0
11459 -9608 -8033 0
-11460 11169 0
-11460 8033 0
11460 -11169 -8033 0
-11461 -11460 0
-11461 -11459 0
11461 11460 11459 0
-11462 11169 0
-11462 9608 0
11462 -11169 -9608 0
-11463 -11462 0
-11463 11461 0
11463 11462 -11461 0
-11464 10999 11034 0
-11464 -10999 -11034 0
11464 -10999 11034 0
11464 10999 -11034 0
-11465 11464 10908 0
-11465 -11464 -10908 0
11465 -11464 10908 0
11465 11464 -10908 0
-11466 -10957 0
-11466 7821 0
11466 10957 -7821 0
-11467 10957 0
-11467 9396 0
11467 -10957 -9396 0
-11468 11467 11466 0
-11468 -11467 -11466 0
11468 -11467 11466 0
11468 11467 -11466 0
-11469 11190 11267 0
-11469 -11190 -11267 0
11469 -11190 11267 0
11469 11190 -11267 0
-11470 11469 11106 0
-11470 -11469 -11106 0
11470 -11469 11106 0
11470 11469 -11106 0
-11471 9615 0
-11471 8040 0
11471 -9615 -8040 0
-11472 11176 0
-11472 8040 0
11472 -11176 -8040 0
-11473 -11472 0
-11473 -11471 0
11473 11472 11471 0
-11474 11176 0
-11474 9615 0
11474 -11176 -9615 0
-11475 -11474 0
-11475 11473 0
11475 11474 -11473 0
-11476 11006 11041 0
-11476 -11006 -11041 0
11476 -11006 11041 0
11476 11006 -11041 0
-11477 11476 10915 0
-11477 -11476 -10915 0
11477 -11476 10915 0
11477 11476 -10915 0
-11478 -10964 0
-11478 7828 0
11478 10964 -7828 0
-11479 10964 0
-11479 9403 0
11479 -10964 -9403 0
-11480 11479 11478 0
-11480 -11479 -11478 0
11480 -11479 11478 0
11480 11479 -11478 0
-11481 11197 11274 0
-11481 -11197 -11274 0
11481 -11197 11274 0
11481 11197 -11274 0
-11482 11481 11113 0
-11482 -11481 -11113 0
11482 -11481 11113 0
11482 11481 -11113 0
-11483 9622 0
-11483 8047 0
11483 -9622 -8047 0
-11484 11183 0
-11484 8047 0
11484 -11183 -8047 0
-11485 -11484 0
-11485 -11483 0
11485 11484 11483 0
-11486 11183 0
-11486 9622 0
11486 -11183 -9622 0
-11487 -11486 0
-11487 11485 0
11487 11486 -11485 0
-11488 11013 11048 0
-11488 -11013 -11048 0
11488 -11013 11048 0
11488 11013 -11048 0
-11489 11488 10922 0
-11489 -11488 -10922 0
11489 -11488 10922 0
11489 11488 -10922 0
-11490 -10971 0
-11490 7835 0
11490 10971 -7835 0
-11491 10971 0
-11491 9410 0
11491 -10971 -9410 0
-11492 11491 11490 0
-11492 -11491 -11490 0
11492 -11491 11490 0
11492 11491 -11490 0
-11493 11204 11281 0
-11493 -11204 -11281 0
11493 -11204 11281 0
11493 11204 -11281 0
-11494 11493 11120 0
-11494 -11493 -11120 0
11494 -11493 11120 0
11494 11493 -11120 0
-11495 9629 0
-11495 8054 0
11495 -9629 -8054 0
-11496 11190 0
-11496 8054 0
11496 -11190 -8054 0
-11497 -11496 0
-11497 -11495 0
11497 11496 11495 0
-11498 11190 0
-11498 9629 0
11498 -11190 -9629 0
-11499 -11498 0
-11499 11497 0
11499 11498 -11497 0
-11500 11020 11055 0
-11500 -11020 -11055 0
11500 -11020 11055 0
11500 11020 -11055 0
-11501 11500 10929 0
-11501 -11500 -10929 0
11501 -11500 10929 0
11501 11500 -10929 0
-11502 -10978 0
-11502 7842 0
11502 10978 -7842 0
-11503 10978 0
-11503 9417 0
11503 -10978 -9417 0
-11504 11503 11502 0
-11504 -11503 -11502 0
11504 -11503 11502 0
11504 11503 -11502 0
-11505 11211 11288 0
-11505 -11211 -11288 0
11505 -11211 11288 0
11505 11211 -11288 0
-11506 11505 11127 0
-11506 -11505 -11127 0
11506 -11505 11127 0
11506 11505 -11127 0
-11507 9636 0
-11507 8061 0
11507 -9636 -8061 0
-11508 11197 0
-11508 8061 0
11508 -11197 -8061 0
-11509 -11508 0
-11509 -11507 0
11509 11508 11507 0
-11510 11197 0
-11510 9636 0
11510 -11197 -9636 0
-11511 -11510 0
-11511 11509 0
11511 11510 -11509 0
-11512 11027 11062 0
-11512 -11027 -11062 0
11512 -11027 11062 0
11512 11027 -11062 0
-11513 11512 10936 0
-11513 -11512 -10936 0
11513 -11512 10936 0
11513 11512 -10936 0
-11514 -10985 0
-11514 7849 0
11514 10985 -7849 0
-11515 10985 0
-11515 9424 0
11515 -10985 -9424 0
-11516 11515 11514 0
-11516 -11515 -11514 0
11516 -11515 11514 0
11516 11515 -11514 0
-11517 11218 11295 0
-11517 -11218 -11295 0
11517 -11218 11295 0
11517 11218 -11295 0
-11518 11517 11134 0
-11518 -11517 -11134 0
11518 -11517 11134 0
11518 11517 -11134 0
-11519 9643 0
-11519 8068 0
11519 -9643 -8068 0
-11520 11204 0
-11520 8068 0
11520 -11204 -8068 0
-11521 -11520 0
-11521 -11519 0
11521 11520 11519 0
-11522 11204 0
-11522 9643 0
11522 -11204 -9643 0
-11523 -11522 0
-11523 11521 0
11523 11522 -11521 0
-11524 11034 11069 0
-11524 -11034 -11069 0
11524 -11034 11069 0
11524 11034 -11069 0
-11525 11524 10943 0
-11525 -11524 -10943 0
11525 -11524 10943 0
11525 11524 -10943 0
-11526 -10992 0
-11526 7856 0
11526 10992 -7856 0
-11527 10992 0
-11527 9431 0
11527 -10992 -9431 0
-11528 11527 11526 0
-11528 -11527 -11526 0
11528 -11527 11526 0
11528 11527 -11526 0
-11529 11225 11302 0
-11529 -11225 -11302 0
11529 -11225 11302 0
11529 11225 -11302 0
-11530 11529 11141 0
-11530 -11529 -11141 0
11530 -11529 11141 0
11530 11529 -11141 0
-11531 9650 0
-11531 8075 0
11531 -9650 -8075 0
-11532 11211 0
-11532 8075 0
11532 -11211 -8075 0
-11533 -11532 0
-11533 -11531 0
11533 11532 11531 0
-11534 11211 0
-11534 9650 0
11534 -11211 -9650 0
-11535 -11534 0
-11535 11533 0
11535 11534 -11533 0
-11536 11041 11076 0
-11536 -11041 -11076 0
11536 -11041 11076 0
11536 11041 -11076 0
-11537 11536 10950 0
-11537 -11536 -10950 0
11537 -11536 10950 0
11537 11536 -10950 0
-11538 -10999 0
-11538 7863 0
11538 10999 -7863 0
-11539 10999 0
-11539 9438 0
11539 -10999 -9438 0
-11540 11539 11538 0
-11540 -11539 -11538 0
11540 -11539 11538 0
11540 11539 -11538 0
-11541 11232 11089 0
-11541 -11232 -11089 0
11541 -11232 11089 0
11541 11232 -11089 0
-11542 11541 11148 0
-11542 -11541 -11148 0
11542 -11541 11148 0
11542 11541 -11148 0
-11543 9657 0
-11543 8082 0
11543 -9657 -8082 0
-11544 11218 0
-11544 8082 0
11544 -11218 -8082 0
-11545 -11544 0
-11545 -11543 0
11545 11544 11543 0
-11546 11218 0
-11546 9657 0
11546 -11218 -9657 0
-11547 -11546 0
-11547 11545 0
11547 11546 -11545 0
-11548 11048 11083 0
-11548 -11048 -11083 0
11548 -11048 11083 0
11548 11048 -11083 0
-11549 11548 10957 0
-11549 -11548 -10957 0
11549 -11548 10957 0
11549 11548 -10957 0
-11550 -11006 0
-11550 7870 0
11550 11006 -7870 0
-11551 11006 0
-11551 9445 0
11551 -11006 -9445 0
-11552 11551 11550 0
-11552 -11551 -11550 0
11552 -11551 11550 0
11552 11551 -11550 0
-11553 11239 11092 0
-11553 -11239 -11092 0
11553 -11239 11092 0
11553 11239 -11092 0
-11554 11553 11155 0
-11554 -11553 -11155 0
11554 -11553 11155 0
11554 11553 -11155 0
-11555 9664 0
-11555 8089 0
11555 -9664 -8089 0
-11556 11225 0
-11556 8089 0
11556 -11225 -8089 0
-11557 -11556 0
-11557 -11555 0
11557 11556 11555 0
-11558 11225 0
-11558 9664 0
11558 -11225 -9664 0
-11559 -11558 0
-11559 11557 0
11559 11558 -11557 0
-11560 11055 10870 0
-11560 -11055 -10870 0
11560 -11055 10870 0
11560 11055 -10870 0
-11561 11560 10964 0
-11561 -11560 -10964 0
11561 -11560 10964 0
11561 11560 -10964 0
-11562 -11013 0
-11562 7877 0
11562 11013 -7877 0
-11563 11013 0
-11563 9452 0
11563 -11013 -9452 0
-11564 11563 11562 0
-11564 -11563 -11562 0
11564 -11563 11562 0
11564 11563 -11562 0
-11565 11246 11099 0
-11565 -11246 -11099 0
11565 -11246 11099 0
11565 11246 -11099 0
-11566 11565 11162 0
-11566 -11565 -11162 0
11566 -11565 11162 0
11566 11565 -11162 0
-11567 9671 0
-11567 8096 0
11567 -9671 -8096 0
-11568 11232 0
-11568 8096 0
11568 -11232 -8096 0
-11569 -11568 0
-11569 -11567 0
11569 11568 11567 0
-11570 11232 0
-11570 9671 0
11570 -11232 -9671 0
-11571 -11570 0
-11571 11569 0
11571 11570 -11569 0
-11572 11062 10873 0
-11572 -11062 -10873 0
11572 -11062 10873 0
11572 11062 -10873 0
-11573 11572 10971 0
-11573 -11572 -10971 0
11573 -11572 10971 0
11573 11572 -10971 0
-11574 -11020 0
-11574 7884 0
11574 11020 -7884 0
-11575 11020 0
-11575 9459 0
11575 -11020 -9459 0
-11576 11575 11574 0
-11576 -11575 -11574 0
11576 -11575 11574 0
11576 11575 -11574 0
-11577 11253 11106 0
-11577 -11253 -11106 0
11577 -11253 11106 0
11577 11253 -11106 0
-11578 11577 11169 0
-11578 -11577 -11169 0
11578 -11577 11169 0
11578 11577 -11169 0
-11579 9678 0
-11579 8103 0
11579 -9678 -8103 0
-11580 11239 0
-11580 8103 0
11580 -11239 -8103 0
-11581 -11580 0
-11581 -11579 0
11581 11580 11579 0
-11582 11239 0
-11582 9678 0
11582 -11239 -9678 0
-11583 -11582 0
-11583 11581 0
11583 11582 -11581 0
-11584 11069 10880 0
-11584 -11069 -10880 0
11584 -11069 10880 0
11584 11069 -10880 0
-11585 11584 10978 0
-11585 -11584 -10978 0
11585 -11584 10978 0
11585 11584 -10978 0
-11586 -11027 0
-11586 7891 0
11586 11027 -7891 0
-11587 11027 0
-11587 9466 0
11587 -11027 -9466 0
-11588 11587 11586 0
-11588 -11587 -11586 0
11588 -11587 11586 0
11588 11587 -11586 0
-11589 11260 11113 0
-11589 -11260 -11113 0
11589 -11260 11113 0
11589 11260 -11113 0
-11590 11589 11176 0
-11590 -11589 -11176 0
11590 -11589 11176 0
11590 11589 -11176 0
-11591 9685 0
-11591 8110 0
11591 -9685 -8110 0
-11592 11246 0
-11592 8110 0
11592 -11246 -8110 0
-11593 -11592 0
-11593 -11591 0
11593 11592 11591 0
-11594 11246 0
-11594 9685 0
11594 -11246 -9685 0
-11595 -11594 0
-11595 11593 0
11595 11594 -11593 0
-11596 11076 10887 0
-11596 -11076 -10887 0
11596 -11076 10887 0
11596 11076 -10887 0
-11597 11596 10985 0
-11597 -11596 -10985 0
11597 -11596 10985 0
11597 11596 -10985 0
-11598 -11034 0
-11598 7898 0
11598 11034 -7898 0
-11599 11034 0
-11599 9473 0
11599 -11034 -9473 0
-11600 11599 11598 0
-11600 -11599 -11598 0
11600 -11599 11598 0
11600 11599 -11598 0
-11601 11267 11120 0
-11601 -11267 -11120 0
11601 -11267 11120 0
11601 11267 -11120 0
-11602 11601 11183 0
-11602 -11601 -11183 0
11602 -11601 11183 0
11602 11601 -11183 0
-11603 9692 0
-11603 8117 0
11603 -9692 -8117 0
-11604 11253 0
-11604 8117 0
11604 -11253 -8117 0
-11605 -11604 0
-11605 -11603 0
11605 11604 11603 0
-11606 11253 0
-11606 9692 0
11606 -11253 -9692 0
-11607 -11606 0
-11607 11605 0
11607 11606 -11605 0
-11608 11083 10894 0
-11608 -11083 -10894 0
11608 -11083 10894 0
11608 11083 -10894 0
-11609 11608 10992 0
-11609 -11608 -10992 0
11609 -11608 10992 0
11609 11608 -10992 0
-11610 -11041 0
-11610 7905 0
11610 11041 -7905 0
-11611 11041 0
-11611 9480 0
11611 -11041 -9480 0
-11612 11611 11610 0
-11612 -11611 -11610 0
11612 -11611 11610 0
11612 11611 -11610 0
-11613 11274 11127 0
-11613 -11274 -11127 0
11613 -11274 11127 0
11613 11274 -11127 0
-11614 11613 11190 0
-11614 -11613 -11190 0
11614 -11613 11190 0
11614 11613 -11190 0
-11615 9699 0
-11615 8124 0
11615 -9699 -8124 0
-11616 11260 0
-11616 8124 0
11616 -11260 -8124 0
-11617 -11616 0
-11617 -11615 0
11617 11616 11615 0
-11618 11260 0
-11618 9699 0
11618 -11260 -9699 0
-11619 -11618 0
-11619 11617 0
11619 11618 -11617 0
-11620 10870 10901 0
-11620 -10870 -10901 0
11620 -10870 10901 0
11620 10870 -10901 0
-11621 11620 10999 0
-11621 -11620 -10999 0
11621 -11620 10999 0
11621 11620 -10999 0
-11622 -11048 0
-11622 7912 0
11622 11048 -7912 0
-11623 11048 0
-11623 9487 0
11623 -11048 -9487 0
-11624 11623 11622 0
-11624 -11623 -11622 0
11624 -11623 11622 0
11624 11623 -11622 0
-11625 11281 11134 0
-11625 -11281 -11134 0
11625 -11281 11134 0
11625 11281 -11134 0
-11626 11625 11197 0
-11626 -11625 -11197 0
11626 -11625 11197 0
11626 11625 -11197 0
-11627 9706 0
-11627 8131 0
11627 -9706 -8131 0
-11628 11267 0
-11628 8131 0
11628 -11267 -8131 0
-11629 -11628 0
-11629 -11627 0
11629 11628 11627 0
-11630 11267 0
-11630 9706 0
11630 -11267 -9706 0
-11631 -11630 0
-11631 11629 0
11631 11630 -11629 0
-11632 10873 10908 0
-11632 -10873 -10908 0
11632 -10873 10908 0
11632 10873 -10908 0
-11633 11632 11006 0
-11633 -11632 -11006 0
11633 -11632 11006 0
11633 11632 -11006 0
-11634 -11055 0
-11634 7919 0
11634 11055 -7919 0
-11635 11055 0
-11635 9494 0
11635 -11055 -9494 0
-11636 11635 11634 0
-11636 -11635 -11634 0
11636 -11635 11634 0
11636 11635 -11634 0
-11637 11288 11141 0
-11637 -11288 -11141 0
11637 -11288 11141 0
11637 11288 -11141 0
-11638 11637 11204 0
-11638 -11637 -11204 0
11638 -11637 11204 0
11638 11637 -11204 0
-11639 9713 0
-11639 8138 0
11639 -9713 -8138 0
-11640 11274 0
-11640 8138 0
11640 -11274 -8138 0
-11641 -11640 0
-11641 -11639 0
11641 11640 11639 0
-11642 11274 0
-11642 9713 0
11642 -11274 -9713 0
-11643 -11642 0
-11643 11641 0
11643 11642 -11641 0
-11644 10880 10915 0
-11644 -10880 -10915 0
11644 -10880 10915 0
11644 10880 -10915 0
-11645 11644 11013 0
-11645 -11644 -11013 0
11645 -11644 11013 0
11645 11644 -11013 0
-11646 -11062 0
-11646 7926 0
11646 11062 -7926 0
-11647 11062 0
-11647 9501 0
11647 -11062 -9501 0
-11648 11647 11646 0
-11648 -11647 -11646 0
11648 -11647 11646 0
11648 11647 -11646 0
-11649 11295 11148 0
-11649 -11295 -11148 0
11649 -11295 11148 0
11649 11295 -11148 0
-11650 11649 11211 0
-11650 -11649 -11211 0
11650 -11649 11211 0
11650 11649 -11211 0
-11651 9720 0
-11651 8145 0
11651 -9720 -8145 0
-11652 11281 0
-11652 8145 0
11652 -11281 -8145 0
-11653 -11652 0
-11653 -11651 0
11653 11652 11651 0
-11654 11281 0
-11654 9720 0
11654 -11281 -9720 0
-11655 -11654 0
-11655 11653 0
11655 11654 -11653 0
-11656 10887 10922 0
-11656 -10887 -10922 0
11656 -10887 10922 0
11656 10887 -10922 0
-11657 11656 11020 0
-11657 -11656 -11020 0
11657 -11656 11020 0
11657 11656 -11020 0
-11658 -11069 0
-11658 7933 0
11658 11069 -7933 0
-11659 11069 0
-11659 9508 0
11659 -11069 -9508 0
-11660 11659 11658 0
-11660 -11659 -11658 0
11660 -11659 11658 0
11660 11659 -11658 0
-11661 11302 11155 0
-11661 -11302 -11155 0
11661 -11302 11155 0
11661 11302 -11155 0
-11662 11661 11218 0
-11662 -11661 -11218 0
11662 -11661 11218 0
11662 11661 -11218 0
-11663 9727 0
-11663 8152 0
11663 -9727 -8152 0
-11664 11288 0
-11664 8152 0
11664 -11288 -8152 0
-11665 -11664 0
-11665 -11663 0
11665 11664 11663 0
-11666 11288 0
-11666 9727 0
11666 -11288 -9727 0
-11667 -11666 0
-11667 11665 0
11667 11666 -11665 0
-11668 10894 10929 0
-11668 -10894 -10929 0
11668 -10894 10929 0
11668 10894 -10929 0
-11669 11668 11027 0
-11669 -11668 -11027 0
11669 -11668 11027 0
11669 11668 -11027 0
-11670 -11076 0
-11670 7940 0
11670 11076 -7940 0
-11671 11076 0
-11671 9515 0
11671 -11076 -9515 0
-11672 11671 11670 0
-11672 -11671 -11670 0
11672 -11671 11670 0
11672 11671 -11670 0
-11673 11089 11162 0
-11673 -11089 -11162 0
11673 -11089 11162 0
11673 11089 -11162 0
-11674 11673 11225 0
-11674 -11673 -11225 0
11674 -11673 11225 0
11674 11673 -11225 0
-11675 9734 0
-11675 8159 0
11675 -9734 -8159 0
-11676 11295 0
-11676 8159 0
11676 -11295 -8159 0
-11677 -11676 0
-11677 -11675 0
11677 11676 11675 0
-11678 11295 0
-11678 9734 0
11678 -11295 -9734 0
-11679 -11678 0
-11679 11677 0
11679 11678 -11677 0
-11680 10901 10936 0
-11680 -10901 -10936 0
11680 -10901 10936 0
11680 10901 -10936 0
-11681 11680 11034 0
-11681 -11680 -11034 0
11681 -11680 11034 0
11681 11680 -11034 0
-11682 -11083 0
-11682 7947 0
11682 11083 -7947 0
-11683 11083 0
-11683 9522 0
11683 -11083 -9522 0
-11684 11683 11682 0
-11684 -11683 -11682 0
11684 -11683 11682 0
11684 11683 -11682 0
-11685 11092 11169 0
-11685 -11092 -11169 0
11685 -11092 11169 0
11685 11092 -11169 0
-11686 11685 11232 0
-11686 -11685 -11232 0
11686 -11685 11232 0
11686 11685 -11232 0
-11687 9741 0
-11687 8166 0
11687 -9741 -8166 0
-11688 11302 0
-11688 8166 0
11688 -11302 -8166 0
-11689 -11688 0
-11689 -11687 0
11689 11688 11687 0
-11690 11302 0
-11690 9741 0
11690 -11302 -9741 0
-11691 -11690 0
-11691 11689 0
11691 11690 -11689 0
-11692 11324 11312 0
-11692 -11324 -11312 0
11692 -11324 11312 0
11692 11324 -11312 0
-11693 11324 0
-11693 11312 0
11693 -11324 -11312 0
-11694 11336 11693 0
-11694 -11336 -11693 0
11694 -11336 11693 0
11694 11336 -11693 0
-11695 11336 0
-11695 11693 0
11695 -11336 -11693 0
-11696 11348 11695 0
-11696 -11348 -11695 0
11696 -11348 11695 0
11696 11348 -11695 0
-11697 11348 0
-11697 11695 0
11697 -11348 -11695 0
-11698 11360 11697 0
-11698 -11360 -11697 0
11698 -11360 11697 0
11698 11360 -11697 0
-11699 11360 0
-11699 11697 0
11699 -11360 -11697 0
-11700 11372 11699 0
-11700 -11372 -11699 0
11700 -11372 11699 0
11700 11372 -11699 0
-11701 11372 0
-11701 11699 0
11701 -11372 -11699 0
-11702 11384 11701 0
-11702 -11384 -11701 0
11702 -11384 11701 0
11702 11384 -11701 0
-11703 11384 0
-11703 11701 0
11703 -11384 -11701 0
-11704 11396 11703 0
-11704 -11396 -11703 0
11704 -11396 11703 0
11704 11396 -11703 0
-11705 11396 0
-11705 11703 0
11705 -11396 -11703 0
-11706 -11408 11705 0
-11706 11408 -11705 0
11706 11408 11705 0
11706 -11408 -11705 0
-11707 11408 0
-11707 11705 0
11707 -11408 -11705 0
-11708 -11707 0
-11708 -11705 0
11708 11707 11705 0
-11709 -11408 0
-11709 11708 0
11709 11408 -11708 0
-11710 -11420 -11709 0
-11710 11420 11709 0
11710 11420 -11709 0
11710 -11420 11709 0
-11711 11420 0
-11711 -11709 0
11711 -11420 11709 0
-11712 -11711 0
-11712 11709 0
11712 11711 -11709 0
-11713 -11420 0
-11713 11712 0
11713 11420 -11712 0
-11714 11432 -11713 0
-11714 -11432 11713 0
11714 -11432 -11713 0
11714 11432 11713 0
-11715 11432 0
-11715 -11713 0
11715 -11432 11713 0
-11716 -11444 11715 0
-11716 11444 -11715 0
11716 11444 11715 0
11716 -11444 -11715 0
-11717 11444 0
-11717 11715 0
11717 -11444 -11715 0
-11718 -11717 0
-11718 -11715 0
11718 11717 11715 0
-11719 -11444 0
-11719 11718 0
11719 11444 -11718 0
-11720 -11456 -11719 0
-11720 11456 11719 0
11720 11456 -11719 0
11720 -11456 11719 0
-11721 11456 0
-11721 -11719 0
11721 -11456 11719 0
-11722 -11721 0
-11722 11719 0
11722 11721 -11719 0
-11723 -11456 0
-11723 11722 0
11723 11456 -11722 0
-11724 11468 -11723 0
-11724 -11468 11723 0
11724 -11468 -11723 0
11724 11468 11723 0
-11725 11468 0
-11725 -11723 0
11725 -11468 11723 0
-11726 -11480 11725 0
-11726 11480 -11725 0
11726 11480 11725 0
11726 -11480 -11725 0
-11727 11480 0
-11727 11725 0
11727 -11480 -11725 0
-11728 -11727 0
-11728 -11725 0
11728 11727 11725 0
-11729 -11480 0
-11729 11728 0
11729 11480 -11728 0
-11730 11492 -11729 0
-11730 -11492 11729 0
11730 -11492 -11729 0
11730 11492 11729 0
-11731 11492 0
-11731 -11729 0
11731 -11492 11729 0
-11732 -11504 11731 0
-11732 11504 -11731 0
11732 11504 11731 0
11732 -11504 -11731 0
-11733 11504 0
-11733 11731 0
11733 -11504 -11731 0
-11734 -11733 0
-11734 -11731 0
11734 11733 11731 0
-11735 -11504 0
-11735 11734 0
11735 11504 -11734 0
-11736 -11516 -11735 0
-11736 11516 11735 0
11736 11516 -11735 0
11736 -11516 11735 0
-11737 11516 0
-11737 -11735 0
11737 -11516 11735 0
-11738 -11737 0
-11738 11735 0
11738 11737 -11735 0
-11739 -11516 0
-11739 11738 0
11739 11516 -11738 0
-11740 11528 -11739 0
-11740 -11528 11739 0
11740 -11528 -11739 0
11740 11528 11739 0
-11741 11528 0
-11741 -11739 0
11741 -11528 11739 0
-11742 11540 11741 0
-11742 -11540 -11741 0
11742 -11540 11741 0
11742 11540 -11741 0
-11743 11540 0
-11743 11741 0
11743 -11540 -11741 0
-11744 11552 11743 0
-11744 -11552 -11743 0
11744 -11552 11743 0
11744 11552 -11743 0
-11745 11552 0
-11745 11743 0
11745 -11552 -11743 0
-11746 11564 11745 0
-11746 -11564 -11745 0
11746 -11564 11745 0
11746 11564 -11745 0
-11747 11564 0
-11747 11745 0
11747 -11564 -11745 0
-11748 11576 11747 0
-11748 -11576 -11747 0
11748 -11576 11747 0
11748 11576 -11747 0
-11749 11576 0
-11749 11747 0
11749 -11576 -11747 0
-11750 -11588 11749 0
-11750 11588 -11749 0
11750 11588 11749 0
11750 -11588 -11749 0
-11751 11588 0
-11751 11749 0
11751 -11588 -11749 0
-11752 -11751 0
-11752 -11749 0
11752 11751 11749 0
-11753 -11588 0
-11753 11752 0
11753 11588 -11752 0
-11754 11600 -11753 0
-11754 -11600 11753 0
11754 -11600 -11753 0
11754 11600 11753 0
-11755 11600 0
-11755 -11753 0
11755 -11600 11753 0
-11756 -11612 11755 0
-11756 11612 -11755 0
11756 11612 11755 0
11756 -11612 -11755 0
-11757 11612 0
-11757 11755 0
11757 -11612 -11755 0
-11758 -11757 0
-11758 -11755 0
11758 11757 11755 0
-11759 -11612 0
-11759 11758 0
11759 11612 -11758 0
-11760 11624 -11759 0
-11760 -11624 11759 0
11760 -11624 -11759 0
11760 11624 11759 0
-11761 11624 0
-11761 -11759 0
11761 -11624 11759 0
-11762 11636 11761 0
-11762 -11636 -11761 0
11762 -11636 11761 0
11762 11636 -11761 0
-11763 11636 0
-11763 11761 0
11763 -11636 -11761 0
-11764 -11648 11763 0
-11764 11648 -11763 0
11764 11648 11763 0
11764 -11648 -11763 0
-11765 11648 0
-11765 11763 0
11765 -11648 -11763 0
-11766 -11765 0
-11766 -11763 0
11766 11765 11763 0
-11767 -11648 0
-11767 11766 0
11767 11648 -11766 0
-11768 11660 -11767 0
-11768 -11660 11767 0
11768 -11660 -11767 0
11768 11660 11767 0
-11769 11660 0
-11769 -11767 0
11769 -11660 11767 0
-11770 11672 11769 0
-11770 -11672 -11769 0
11770 -11672 11769 0
11770 11672 -11769 0
-11771 11672 0
-11771 11769 0
11771 -11672 -11769 0
-11772 11684 11771 0
-11772 -11684 -11771 0
11772 -11684 11771 0
11772 11684 -11771 0
-11773 11684 0
-11773 11771 0
11773 -11684 -11771 0
-11774 6171 11309 0
-11774 -6171 -11309 0
11774 -6171 11309 0
11774 6171 -11309 0
-11775 6171 0
-11775 11309 0
11775 -6171 -11309 0
-11776 6174 11321 0
-11776 -6174 -11321 0
11776 -6174 11321 0
11776 6174 -11321 0
-11777 11776 11775 0
-11777 -11776 -11775 0
11777 -11776 11775 0
11777 11776 -11775 0
-11778 11321 0
-11778 11775 0
11778 -11321 -11775 0
-11779 6174 0
-11779 11775 0
11779 -6174 -11775 0
-11780 -11779 0
-11780 -11778 0
11780 11779 11778 0
-11781 6174 0
-11781 11321 0
11781 -6174 -11321 0
-11782 -11781 0
-11782 11780 0
11782 11781 -11780 0
-11783 6181 11333 0
-11783 -6181 -11333 0
11783 -6181 11333 0
11783 6181 -11333 0
-11784 11783 -11782 0
-11784 -11783 11782 0
11784 -11783 -11782 0
11784 11783 11782 0
-11785 11333 0
-11785 -11782 0
11785 -11333 11782 0
-11786 6181 0
-11786 -11782 0
11786 -6181 11782 0
-11787 -11786 0
-11787 -11785 0
11787 11786 11785 0
-11788 6181 0
-11788 11333 0
11788 -6181 -11333 0
-11789 -11788 0
-11789 11787 0
11789 11788 -11787 0
-11790 6188 11345 0
-11790 -6188 -11345 0
11790 -6188 11345 0
11790 6188 -11345 0
-11791 11790 -11789 0
-11791 -11790 11789 0
11791 -11790 -11789 0
11791 11790 11789 0
-11792 11345 0
-11792 -11789 0
11792 -11345 11789 0
-11793 6188 0
-11793 -11789 0
11793 -6188 11789 0
-11794 -11793 0
-11794 -11792 0
11794 11793 11792 0
-11795 6188 0
-11795 11345 0
11795 -6188 -11345 0
-11796 -11795 0
-11796 11794 0
11796 11795 -11794 0
-11797 6195 11357 0
-11797 -6195 -11357 0
11797 -6195 11357 0
11797 6195 -11357 0
-11798 11797 -11796 0
-11798 -11797 11796 0
11798 -11797 -11796 0
11798 11797 11796 0
-11799 11357 0
-11799 -11796 0
11799 -11357 11796 0
-11800 6195 0
-11800 -11796 0
11800 -6195 11796 0
-11801 -11800 0
-11801 -11799 0
11801 11800 11799 0
-11802 6195 0
-11802 11357 0
11802 -6195 -11357 0
-11803 -11802 0
-11803 11801 0
11803 11802 -11801 0
-11804 6202 11369 0
-11804 -6202 -11369 0
11804 -6202 11369 0
11804 6202 -11369 0
-11805 11804 -11803 0
-11805 -11804 11803 0
11805 -11804 -11803 0
11805 11804 11803 0
-11806 11369 0
-11806 -11803 0
11806 -11369 11803 0
-11807 6202 0
-11807 -11803 0
11807 -6202 11803 0
-11808 -11807 0
-11808 -11806 0
11808 11807 11806 0
-11809 6202 0
-11809 11369 0
11809 -6202 -11369 0
-11810 -11809 0
-11810 11808 0
11810 11809 -11808 0
-11811 6209 11381 0
-11811 -6209 -11381 0
11811 -6209 11381 0
11811 6209 -11381 0
-11812 11811 -11810 0
-11812 -11811 11810 0
11812 -11811 -11810 0
11812 11811 11810 0
-11813 11381 0
-11813 -11810 0
11813 -11381 11810 0
-11814 6209 0
-11814 -11810 0
11814 -6209 11810 0
-11815 -11814 0
-11815 -11813 0
11815 11814 11813 0
-11816 6209 0
-11816 11381 0
11816 -6209 -11381 0
-11817 -11816 0
-11817 11815 0
11817 11816 -11815 0
-11818 6216 11393 0
-11818 -6216 -11393 0
11818 -6216 11393 0
11818 6216 -11393 0
-11819 11818 -11817 0
-11819 -11818 11817 0
11819 -11818 -11817 0
11819 11818 11817 0
-11820 11393 0
-11820 -11817 0
11820 -11393 11817 0
-11821 6216 0
-11821 -11817 0
11821 -6216 11817 0
-11822 -11821 0
-11822 -11820 0
11822 11821 11820 0
-11823 6216 0
-11823 11393 0
11823 -6216 -11393 0
-11824 -11823 0
-11824 11822 0
11824 11823 -11822 0
-11825 6223 11405 0
-11825 -6223 -11405 0
11825 -6223 11405 0
11825 6223 -11405 0
-11826 11825 -11824 0
-11826 -11825 11824 0
11826 -11825 -11824 0
11826 11825 11824 0
-11827 11405 0
-11827 -11824 0
11827 -11405 11824 0
-11828 6223 0
-11828 -11824 0
11828 -6223 11824 0
-11829 -11828 0
-11829 -11827 0
11829 11828 11827 0
-11830 6223 0
-11830 11405 0
11830 -6223 -11405 0
-11831 -11830 0
-11831 11829 0
11831 11830 -11829 0
-11832 6230 11417 0
-11832 -6230 -11417 0
11832 -6230 11417 0
11832 6230 -11417 0
-11833 11832 -11831 0
-11833 -11832 11831 0
11833 -11832 -11831 0
11833 11832 11831 0
-11834 11417 0
-11834 -11831 0
11834 -11417 11831 0
-11835 6230 0
-11835 -11831 0
11835 -6230 11831 0
-11836 -11835 0
-11836 -11834 0
11836 11835 11834 0
-11837 6230 0
-11837 11417 0
11837 -6230 -11417 0
-11838 -11837 0
-11838 11836 0
11838 11837 -11836 0
-11839 6237 11429 0
-11839 -6237 -11429 0
11839 -6237 11429 0
11839 6237 -11429 0
-11840 11839 -11838 0
-11840 -11839 11838 0
11840 -11839 -11838 0
11840 11839 11838 0
-11841 11429 0
-11841 -11838 0
11841 -11429 11838 0
-11842 6237 0
-11842 -11838 0
11842 -6237 11838 0
-11843 -11842 0
-11843 -11841 0
11843 11842 11841 0
-11844 6237 0
-11844 11429 0
11844 -6237 -11429 0
-11845 -11844 0
-11845 11843 0
11845 11844 -11843 0
-11846 6244 11441 0
-11846 -6244 -11441 0
11846 -6244 11441 0
11846 6244 -11441 0
-11847 11846 -11845 0
-11847 -11846 11845 0
11847 -11846 -11845 0
11847 11846 11845 0
-11848 11441 0
-11848 -11845 0
11848 -11441 11845 0
-11849 6244 0
-11849 -11845 0
11849 -6244 11845 0
-11850 -11849 0
-11850 -11848 0
11850 11849 11848 0
-11851 6244 0
-11851 11441 0
11851 -6244 -11441 0
-11852 -11851 0
-11852 11850 0
11852 11851 -11850 0
-11853 6251 11453 0
-11853 -6251 -11453 0
11853 -6251 11453 0
11853 6251 -11453 0
-11854 11853 -11852 0
-11854 -11853 11852 0
11854 -11853 -11852 0
11854 11853 11852 0
-11855 11453 0
-11855 -11852 0
11855 -11453 11852 0
-11856 6251 0
-11856 -11852 0
11856 -6251 11852 0
-11857 -11856 0
-11857 -11855 0
11857 11856 11855 0
-11858 6251 0
-11858 11453 0
11858 -6251 -11453 0
-11859 -11858 0
-11859 11857 0
11859 11858 -11857 0
-11860 6258 11465 0
-11860 -6258 -11465 0
11860 -6258 11465 0
11860 6258 -11465 0
-11861 11860 -11859 0
-11861 -11860 11859 0
11861 -11860 -11859 0
11861 11860 11859 0
-11862 11465 0
-11862 -11859 0
11862 -11465 11859 0
-11863 6258 0
-11863 -11859 0
11863 -6258 11859 0
-11864 -11863 0
-11864 -11862 0
11864 11863 11862 0
-11865 6258 0
-11865 11465 0
11865 -6258 -11465 0
-11866 -11865 0
-11866 11864 0
11866 11865 -11864 0
-11867 6265 11477 0
-11867 -6265 -11477 0
11867 -6265 11477 0
11867 6265 -11477 0
-11868 11867 -11866 0
-11868 -11867 11866 0
11868 -11867 -11866 0
11868 11867 11866 0
-11869 11477 0
-11869 -11866 0
11869 -11477 11866 0
-11870 6265 0
-11870 -11866 0
11870 -6265 11866 0
-11871 -11870 0
-11871 -11869 0
11871 11870 11869 0
-11872 6265 0
-11872 11477 0
11872 -6265 -11477 0
-11873 -11872 0
-11873 11871 0
11873 11872 -11871 0
-11874 6272 11489 0
-11874 -6272 -11489 0
11874 -6272 11489 0
11874 6272 -11489 0
-11875 11874 -11873 0
-11875 -11874 11873 0
11875 -11874 -11873 0
11875 11874 11873 0
-11876 11489 0
-11876 -11873 0
11876 -11489 11873 0
-11877 6272 0
-11877 -11873 0
11877 -6272 11873 0
-11878 -11877 0
-11878 -11876 0
11878 11877 11876 0
-11879 6272 0
-11879 11489 0
11879 -6272 -11489 0
-11880 -11879 0
-11880 11878 0
11880 11879 -11878 0
-11881 6279 11501 0
-11881 -6279 -11501 0
11881 -6279 11501 0
11881 6279 -11501 0
-11882 11881 -11880 0
-11882 -11881 11880 0
11882 -11881 -11880 0
11882 11881 11880 0
-11883 11501 0
-11883 -11880 0
11883 -11501 11880 0
-11884 6279 0
-11884 -11880 0
11884 -6279 11880 0
-11885 -11884 0
-11885 -11883 0
11885 11884 11883 0
-11886 6279 0
-11886 11501 0
11886 -6279 -11501 0
-11887 -11886 0
-11887 11885 0
11887 11886 -11885 0
-11888 6286 11513 0
-11888 -6286 -11513 0
11888 -6286 11513 0
11888 6286 -11513 0
-11889 11888 -11887 0
-11889 -11888 11887 0
11889 -11888 -11887 0
11889 11888 11887 0
-11890 11513 0
-11890 -11887 0
11890 -11513 11887 0
-11891 6286 0
-11891 -11887 0
11891 -6286 11887 0
-11892 -11891 0
-11892 -11890 0
11892 11891 11890 0
-11893 6286 0
-11893 11513 0
11893 -6286 -11513 0
-11894 -11893 0
-11894 11892 0
11894 11893 -11892 0
-11895 6293 11525 0
-11895 -6293 -11525 0
11895 -6293 11525 0
11895 6293 -11525 0
-11896 11895 -11894 0
-11896 -11895 11894 0
11896 -11895 -11894 0
11896 11895 11894 0
-11897 11525 0
-11897 -11894 0
11897 -11525 11894 0
-11898 6293 0
-11898 -11894 0
11898 -6293 11894 0
-11899 -11898 0
-11899 -11897 0
11899 11898 11897 0
-11900 6293 0
-11900 11525 0
11900 -6293 -11525 0
-11901 -11900 0
-11901 11899 0
11901 11900 -11899 0
-11902 6300 11537 0
-11902 -6300 -11537 0
11902 -6300 11537 0
11902 6300 -11537 0
-11903 11902 -11901 0
-11903 -11902 11901 0
11903 -11902 -11901 0
11903 11902 11901 0
-11904 11537 0
-11904 -11901 0
11904 -11537 11901 0
-11905 6300 0
-11905 -11901 0
11905 -6300 11901 0
-11906 -11905 0
-11906 -11904 0
11906 11905 11904 0
-11907 6300 0
-11907 11537 0
11907 -6300 -11537 0
-11908 -11907 0
-11908 11906 0
11908 11907 -11906 0
-11909 6307 11549 0
-11909 -6307 -11549 0
11909 -6307 11549 0
11909 6307 -11549 0
-11910 11909 -11908 0
-11910 -11909 11908 0
11910 -11909 -11908 0
11910 11909 11908 0
-11911 11549 0
-11911 -11908 0
11911 -11549 11908 0
-11912 6307 0
-11912 -11908 0
11912 -6307 11908 0
-11913 -11912 0
-11913 -11911 0
11913 11912 11911 0
-11914 6307 0
-11914 11549 0
11914 -6307 -11549 0
-11915 -11914 0
-11915 11913 0
11915 11914 -11913 0
-11916 6314 11561 0
-11916 -6314 -11561 0
11916 -6314 11561 0
11916 6314 -11561 0
-11917 11916 -11915 0
-11917 -11916 11915 0
11917 -11916 -11915 0
11917 11916 11915 0
-11918 11561 0
-11918 -11915 0
11918 -11561 11915 0
-11919 6314 0
-11919 -11915 0
11919 -6314 11915 0
-11920 -11919 0
-11920 -11918 0
11920 11919 11918 0
-11921 6314 0
-11921 11561 0
11921 -6314 -11561 0
-11922 -11921 0
-11922 11920 0
11922 11921 -11920 0
-11923 6321 11573 0
-11923 -6321 -11573 0
11923 -6321 11573 0
11923 6321 -11573 0
-11924 11923 -11922 0
-11924 -11923 11922 0
11924 -11923 -11922 0
11924 11923 11922 0
-11925 11573 0
-11925 -11922 0
11925 -11573 11922 0
-11926 6321 0
-11926 -11922 0
11926 -6321 11922 0
-11927 -11926 0
-11927 -11925 0
11927 11926 11925 0
-11928 6321 0
-11928 11573 0
11928 -6321 -11573 0
-11929 -11928 0
-11929 11927 0
11929 11928 -11927 0
-11930 6328 11585 0
-11930 -6328 -11585 0
11930 -6328 11585 0
11930 6328 -11585 0
-11931 11930 -11929 0
-11931 -11930 11929 0
11931 -11930 -11929 0
11931 11930 11929 0
-11932 11585 0
-11932 -11929 0
11932 -11585 11929 0
-11933 6328 0
-11933 -11929 0
11933 -6328 11929 0
-11934 -11933 0
-11934 -11932 0
11934 11933 11932 0
-11935 6328 0
-11935 11585 0
11935 -6328 -11585 0
-11936 -11935 0
-11936 11934 0
11936 11935 -11934 0
-11937 6335 11597 0
-11937 -6335 -11597 0
11937 -6335 11597 0
11937 6335 -11597 0
-11938 11937 -11936 0
-11938 -11937 11936 0
11938 -11937 -11936 0
11938 11937 11936 0
-11939 11597 0
-11939 -11936 0
11939 -11597 11936 0
-11940 6335 0
-11940 -11936 0
11940 -6335 11936 0
-11941 -11940 0
-11941 -11939 0
11941 11940 11939 0
-11942 6335 0
-11942 11597 0
11942 -6335 -11597 0
-11943 -11942 0
-11943 11941 0
11943 11942 -11941 0
-11944 6342 11609 0
-11944 -6342 -11609 0
11944 -6342 11609 0
11944 6342 -11609 0
-11945 11944 -11943 0
-11945 -11944 11943 0
11945 -11944 -11943 0
11945 11944 11943 0
-11946 11609 0
-11946 -11943 0
11946 -11609 11943 0
-11947 6342 0
-11947 -11943 0
11947 -6342 11943 0
-11948 -11947 0
-11948 -11946 0
11948 11947 11946 0
-11949 6342 0
-11949 11609 0
11949 -6342 -11609 0
-11950 -11949 0
-11950 11948 0
11950 11949 -11948 0
-11951 6349 11621 0
-11951 -6349 -11621 0
11951 -6349 11621 0
11951 6349 -11621 0
-11952 11951 -11950 0
-11952 -11951 11950 0
11952 -11951 -11950 0
11952 11951 11950 0
-11953 11621 0
-11953 -11950 0
11953 -11621 11950 0
-11954 6349 0
-11954 -11950 0
11954 -6349 11950 0
-11955 -11954 0
-11955 -11953 0
11955 11954 11953 0
-11956 6349 0
-11956 11621 0
11956 -6349 -11621 0
-11957 -11956 0
-11957 11955 0
11957 11956 -11955 0
-11958 6356 11633 0
-11958 -6356 -11633 0
11958 -6356 11633 0
11958 6356 -11633 0
-11959 11958 -11957 0
-11959 -11958 11957 0
11959 -11958 -11957 0
11959 11958 11957 0
-11960 11633 0
-11960 -11957 0
11960 -11633 11957 0
-11961 6356 0
-11961 -11957 0
11961 -6356 11957 0
-11962 -11961 0
-11962 -11960 0
11962 11961 11960 0
-11963 6356 0
-11963 11633 0
11963 -6356 -11633 0
-11964 -11963 0
-11964 11962 0
11964 11963 -11962 0
-11965 6363 11645 0
-11965 -6363 -11645 0
11965 -6363 11645 0
11965 6363 -11645 0
-11966 11965 -11964 0
-11966 -11965 11964 0
11966 -11965 -11964 0
11966 11965 11964 0
-11967 11645 0
-11967 -11964 0
11967 -11645 11964 0
-11968 6363 0
-11968 -11964 0
11968 -6363 11964 0
-11969 -11968 0
-11969 -11967 0
11969 11968 11967 0
-11970 6363 0
-11970 11645 0
11970 -6363 -11645 0
-11971 -11970 0
-11971 11969 0
11971 11970 -11969 0
-11972 6370 11657 0
-11972 -6370 -11657 0
11972 -6370 11657 0
11972 6370 -11657 0
-11973 11972 -11971 0
-11973 -11972 11971 0
11973 -11972 -11971 0
11973 11972 11971 0
-11974 11657 0
-11974 -11971 0
11974 -11657 11971 0
-11975 6370 0
-11975 -11971 0
11975 -6370 11971 0
-11976 -11975 0
-11976 -11974 0
11976 11975 11974 0
-11977 6370 0
-11977 11657 0
11977 -6370 -11657 0
-11978 -11977 0
-11978 11976 0
11978 11977 -11976 0
-11979 6377 11669 0
-11979 -6377 -11669 0
11979 -6377 11669 0
11979 6377 -11669 0
-11980 11979 -11978 0
-11980 -11979 11978 0
11980 -11979 -11978 0
11980 11979 11978 0
-11981 11669 0
-11981 -11978 0
11981 -11669 11978 0
-11982 6377 0
-11982 -11978 0
11982 -6377 11978 0
-11983 -11982 0
-11983 -11981 0
11983 11982 11981 0
-11984 6377 0
-11984 11669 0
11984 -6377 -11669 0
-11985 -11984 0
-11985 11983 0
11985 11984 -11983 0
-11986 6384 11681 0
-11986 -6384 -11681 0
11986 -6384 11681 0
11986 6384 -11681 0
-11987 11986 -11985 0
-11987 -11986 11985 0
11987 -11986 -11985 0
11987 11986 11985 0
-11988 11681 0
-11988 -11985 0
11988 -11681 11985 0
-11989 6384 0
-11989 -11985 0
11989 -6384 11985 0
-11990 -11989 0
-11990 -11988 0
11990 11989 11988 0
-11991 6384 0
-11991 11681 0
11991 -6384 -11681 0
-11992 -11991 0
-11992 11990 0
11992 11991 -11990 0
-11993 11774 -11312 0
-11993 -11774 11312 0
11993 -11774 -11312 0
11993 11774 11312 0
-11994 11774 0
-11994 -11312 0
11994 -11774 11312 0
-11995 11777 11692 0
-11995 -11777 -11692 0
11995 -11777 11692 0
11995 11777 -11692 0
-11996 11995 11994 0
-11996 -11995 -11994 0
11996 -11995 11994 0
11996 11995 -11994 0
-11997 11692 0
-11997 11994 0
11997 -11692 -11994 0
-11998 11777 0
-11998 11994 0
11998 -11777 -11994 0
-11999 -11998 0
-11999 -11997 0
11999 11998 11997 0
-12000 11777 0
-12000 11692 0
12000 -11777 -11692 0
-12001 -12000 0
-12001 11999 0
12001 12000 -11999 0
-12002 11784 11694 0
-12002 -11784 -11694 0
12002 -11784 11694 0
12002 11784 -11694 0
-12003 12002 -12001 0
-12003 -12002 12001 0
12003 -12002 -12001 0
12003 12002 12001 0
-12004 11694 0
-12004 -12001 0
12004 -11694 12001 0
-12005 11784 0
-12005 -12001 0
12005 -11784 12001 0
-12006 -12005 0
-12006 -12004 0
12006 12005 12004 0
-12007 11784 0
-12007 11694 0
12007 -11784 -11694 0
-12008 -12007 0
-12008 12006 0
12008 12007 -12006 0
-12009 11791 11696 0
-12009 -11791 -11696 0
12009 -11791 11696 0
12009 11791 -11696 0
-12010 12009 -12008 0
-12010 -12009 12008 0
12010 -12009 -12008 0
12010 12009 12008 0
-12011 11696 0
-12011 -12008 0
12011 -11696 12008 0
-12012 11791 0
-12012 -12008 0
12012 -11791 12008 0
-12013 -12012 0
-12013 -12011 0
12013 12012 12011 0
-12014 11791 0
-12014 11696 0
12014 -11791 -11696 0
-12015 -12014 0
-12015 12013 0
12015 12014 -12013 0
-12016 11798 11698 0
-12016 -11798 -11698 0
12016 -11798 11698 0
12016 11798 -11698 0
-12017 12016 -12015 0
-12017 -12016 12015 0
12017 -12016 -12015 0
12017 12016 12015 0
-12018 11698 0
-12018 -12015 0
12018 -11698 12015 0
-12019 11798 0
-12019 -12015 0
12019 -11798 12015 0
-12020 -12019 0
-12020 -12018 0
12020 12019 12018 0
-12021 11798 0
-12021 11698 0
12021 -11798 -11698 0
-12022 -12021 0
-12022 12020 0
12022 12021 -12020 0
-12023 11805 11700 0
-12023 -11805 -11700 0
12023 -11805 11700 0
12023 11805 -11700 0
-12024 12023 -12022 0
-12024 -12023 12022 0
12024 -12023 -12022 0
12024 12023 12022 0
-12025 11700 0
-12025 -12022 0
12025 -11700 12022 0
-12026 11805 0
-12026 -12022 0
12026 -11805 12022 0
-12027 -12026 0
-12027 -12025 0
12027 12026 12025 0
-12028 11805 0
-12028 11700 0
12028 -11805 -11700 0
-12029 -12028 0
-12029 12027 0
12029 12028 -12027 0
-12030 11812 11702 0
-12030 -11812 -11702 0
12030 -11812 11702 0
12030 11812 -11702 0
-12031 12030 -12029 0
-12031 -12030 12029 0
12031 -12030 -12029 0
12031 12030 12029 0
-12032 11702 0
-12032 -12029 0
12032 -11702 12029 0
-12033 11812 0
-12033 -12029 0
12033 -11812 12029 0
-12034 -12033 0
-12034 -12032 0
12034 12033 12032 0
-12035 11812 0
-12035 11702 0
12035 -11812 -11702 0
-12036 -12035 0
-12036 12034 0
12036 12035 -12034 0
-12037 11819 11704 0
-12037 -11819 -11704 0
12037 -11819 11704 0
12037 11819 -11704 0
-12038 12037 -12036 0
-12038 -12037 12036 0
12038 -12037 -12036 0
12038 12037 12036 0
-12039 11704 0
-12039 -12036 0
12039 -11704 12036 0
-12040 11819 0
-12040 -12036 0
12040 -11819 12036 0
-12041 -12040 0
-12041 -12039 0
12041 12040 12039 0
-12042 11819 0
-12042 11704 0
12042 -11819 -11704 0
-12043 -12042 0
-12043 12041 0
12043 12042 -12041 0
-12044 11826 11706 0
-12044 -11826 -11706 0
12044 -11826 11706 0
12044 11826 -11706 0
-12045 12044 -12043 0
-12045 -12044 12043 0
12045 -12044 -12043 0
12045 12044 12043 0
-12046 11706 0
-12046 -12043 0
12046 -11706 12043 0
-12047 11826 0
-12047 -12043 0
12047 -11826 12043 0
-12048 -12047 0
-12048 -12046 0
12048 12047 12046 0
-12049 11826 0
-12049 11706 0
12049 -11826 -11706 0
-12050 -12049 0
-12050 12048 0
12050 12049 -12048 0
-12051 11833 11710 0
-12051 -11833 -11710 0
12051 -11833 11710 0
12051 11833 -11710 0
-12052 12051 -12050 0
-12052 -12051 12050 0
12052 -12051 -12050 0
12052 12051 12050 0
-12053 11710 0
-12053 -12050 0
12053 -11710 12050 0
-12054 11833 0
-12054 -12050 0
12054 -11833 12050 0
-12055 -12054 0
-12055 -12053 0
12055 12054 12053 0
-12056 11833 0
-12056 11710 0
12056 -11833 -11710 0
-12057 -12056 0
-12057 12055 0
12057 12056 -12055 0
-12058 11840 11714 0
-12058 -11840 -11714 0
12058 -11840 11714 0
12058 11840 -11714 0
-12059 12058 -12057 0
-12059 -12058 12057 0
12059 -12058 -12057 0
12059 12058 12057 0
-12060 11714 0
-12060 -12057 0
12060 -11714 12057 0
-12061 11840 0
-12061 -12057 0
12061 -11840 12057 0
-12062 -12061 0
-12062 -12060 0
12062 12061 12060 0
-12063 11840 0
-12063 11714 0
12063 -11840 -11714 0
-12064 -12063 0
-12064 12062 0
12064 12063 -12062 0
-12065 11847 11716 0
-12065 -11847 -11716 0
12065 -11847 11716 0
12065 11847 -11716 0
-12066 12065 -12064 0
-12066 -12065 12064 0
12066 -12065 -12064 0
12066 12065 12064 0
-12067 11716 0
-12067 -12064 0
12067 -11716 12064 0
-12068 11847 0
-12068 -12064 0
12068 -11847 12064 0
-12069 -12068 0
-12069 -12067 0
12069 12068 12067 0
-12070 11847 0
-12070 11716 0
12070 -11847 -11716 0
-12071 -12070 0
-12071 12069 0
12071 12070 -12069 0
-12072 11854 11720 0
-12072 -11854 -11720 0
12072 -11854 11720 0
12072 11854 -11720 0
-12073 12072 -12071 0
-12073 -12072 12071 0
12073 -12072 -12071 0
12073 12072 12071 0
-12074 11720 0
-12074 -12071 0
12074 -11720 12071 0
-12075 11854 0
-12075 -12071 0
12075 -11854 12071 0
-12076 -12075 0
-12076 -12074 0
12076 12075 12074 0
-12077 11854 0
-12077 11720 0
12077 -11854 -11720 0
-12078 -12077 0
-12078 12076 0
12078 12077 -12076 0
-12079 11861 11724 0
-12079 -11861 -11724 0
12079 -11861 11724 0
12079 11861 -11724 0
-12080 12079 -12078 0
-12080 -12079 12078 0
12080 -12079 -12078 0
12080 12079 12078 0
-12081 11724 0
-12081 -12078 0
12081 -11724 12078 0
-12082 11861 0
-12082 -12078 0
12082 -11861 12078 0
-12083 -12082 0
-12083 -12081 0
12083 12082 12081 0
-12084 11861 0
-12084 11724 0
12084 -11861 -11724 0
-12085 -12084 0
-12085 12083 0
12085 12084 -12083 0
-12086 11868 11726 0
-12086 -11868 -11726 0
12086 -11868 11726 0
12086 11868 -11726 0
-12087 12086 -12085 0
-12087 -12086 12085 0
12087 -12086 -12085 0
12087 12086 12085 0
-12088 11726 0
-12088 -12085 0
12088 -11726 12085 0
-12089 11868 0
-12089 -12085 0
12089 -11868 12085 0
-12090 -12089 0
-12090 -12088 0
12090 12089 12088 0
-12091 11868 0
-12091 11726 0
12091 -11868 -11726 0
-12092 -12091 0
-12092 12090 0
12092 12091 -12090 0
-12093 11875 11730 0
-12093 -11875 -11730 0
12093 -11875 11730 0
12093 11875 -11730 0
-12094 12093 -12092 0
-12094 -12093 12092 0
12094 -12093 -12092 0
12094 12093 12092 0
-12095 11730 0
-12095 -12092 0
12095 -11730 12092 0
-12096 11875 0
-12096 -12092 0
12096 -11875 12092 0
-12097 -12096 0
-12097 -12095 0
12097 12096 12095 0
-12098 11875 0
-12098 11730 0
12098 -11875 -11730 0
-12099 -12098 0
-12099 12097 0
12099 12098 -12097 0
-12100 11882 11732 0
-12100 -11882 -11732 0
12100 -11882 11732 0
12100 11882 -11732 0
-12101 12100 -12099 0
-12101 -12100 12099 0
12101 -12100 -12099 0
12101 12100 12099 0
-12102 11732 0
-12102 -12099 0
12102 -11732 12099 0
-12103 11882 0
-12103 -12099 0
12103 -11882 12099 0
-12104 -12103 0
-12104 -12102 0
12104 12103 12102 0
-12105 11882 0
-12105 11732 0
12105 -11882 -11732 0
-12106 -12105 0
-12106 12104 0
12106 12105 -12104 0
-12107 11889 11736 0
-12107 -11889 -11736 0
12107 -11889 11736 0
12107 11889 -11736 0
-12108 12107 -12106 0
-12108 -12107 12106 0
12108 -12107 -12106 0
12108 12107 12106 0
-12109 11736 0
-12109 -12106 0
12109 -11736 12106 0
-12110 11889 0
-12110 -12106 0
12110 -11889 12106 0
-12111 -12110 0
-12111 -12109 0
12111 12110 12109 0
-12112 11889 0
-12112 11736 0
12112 -11889 -11736 0
-12113 -12112 0
-12113 12111 0
12113 12112 -12111 0
-12114 11896 11740 0
-12114 -11896 -11740 0
12114 -11896 11740 0
12114 11896 -11740 0
-12115 12114 -12113 0
-12115 -12114 12113 0
12115 -12114 -12113 0
12115 12114 12113 0
-12116 11740 0
-12116 -12113 0
12116 -11740 12113 0
-12117 11896 0
-12117 -12113 0
12117 -11896 12113 0
-12118 -12117 0
-12118 -12116 0
12118 12117 12116 0
-12119 11896 0
-12119 11740 0
12119 -11896 -11740 0
-12120 -12119 0
-12120 12118 0
12120 12119 -12118 0
-12121 11903 11742 0
-12121 -11903 -11742 0
12121 -11903 11742 0
12121 11903 -11742 0
-12122 12121 -12120 0
-12122 -12121 12120 0
12122 -12121 -12120 0
12122 12121 12120 0
-12123 11742 0
-12123 -12120 0
12123 -11742 12120 0
-12124 11903 0
-12124 -12120 0
12124 -11903 12120 0
-12125 -12124 0
-12125 -12123 0
12125 12124 12123 0
-12126 11903 0
-12126 11742 0
12126 -11903 -11742 0
-12127 -12126 0
-12127 12125 0
12127 12126 -12125 0
-12128 11910 11744 0
-12128 -11910 -11744 0
12128 -11910 11744 0
12128 11910 -11744 0
-12129 12128 -12127 0
-12129 -12128 12127 0
12129 -12128 -12127 0
12129 12128 12127 0
-12130 11744 0
-12130 -12127 0
12130 -11744 12127 0
-12131 11910 0
-12131 -12127 0
12131 -11910 12127 0
-12132 -12131 0
-12132 -12130 0
12132 12131 12130 0
-12133 11910 0
-12133 11744 0
12133 -11910 -11744 0
-12134 -12133 0
-12134 12132 0
12134 12133 -12132 0
-12135 11917 11746 0
-12135 -11917 -11746 0
12135 -11917 11746 0
12135 11917 -11746 0
-12136 12135 -12134 0
-12136 -12135 12134 0
12136 -12135 -12134 0
12136 12135 12134 0
-12137 11746 0
-12137 -12134 0
12137 -11746 12134 0
-12138 11917 0
-12138 -12134 0
12138 -11917 12134 0
-12139 -12138 0
-12139 -12137 0
12139 12138 12137 0
-12140 11917 0
-12140 11746 0
12140 -11917 -11746 0
-12141 -12140 0
-12141 12139 0
12141 12140 -12139 0
-12142 11924 11748 0
-12142 -11924 -11748 0
12142 -11924 11748 0
12142 11924 -11748 0
-12143 12142 -12141 0
-12143 -12142 12141 0
12143 -12142 -12141 0
12143 12142 12141 0
-12144 11748 0
-12144 -12141 0
12144 -11748 12141 0
-12145 11924 0
-12145 -12141 0
12145 -11924 12141 0
-12146 -12145 0
-12146 -12144 0
12146 12145 12144 0
-12147 11924 0
-12147 11748 0
12147 -11924 -11748 0
-12148 -12147 0
-12148 12146 0
12148 12147 -12146 0
-12149 11931 11750 0
-12149 -11931 -11750 0
12149 -11931 11750 0
12149 11931 -11750 0
-12150 12149 -12148 0
-12150 -12149 12148 0
12150 -12149 -12148 0
12150 12149 12148 0
-12151 11750 0
-12151 -12148 0
12151 -11750 12148 0
-12152 11931 0
-12152 -12148 0
12152 -11931 12148 0
-12153 -12152 0
-12153 -12151 0
12153 12152 12151 0
-12154 11931 0
-12154 11750 0
12154 -11931 -11750 0
-12155 -12154 0
-12155 12153 0
12155 12154 -12153 0
-12156 11938 11754 0
-12156 -11938 -11754 0
12156 -11938 11754 0
12156 11938 -11754 0
-12157 12156 -12155 0
-12157 -12156 12155 0
12157 -12156 -12155 0
12157 12156 12155 0
-12158 11754 0
-12158 -12155 0
12158 -11754 12155 0
-12159 11938 0
-12159 -12155 0
12159 -11938 12155 0
-12160 -12159 0
-12160 -12158 0
12160 12159 12158 0
-12161 11938 0
-12161 11754 0
12161 -11938 -11754 0
-12162 -12161 0
-12162 12160 0
12162 12161 -12160 0
-12163 11945 11756 0
-12163 -11945 -11756 0
12163 -11945 11756 0
12163 11945 -11756 0
-12164 12163 -12162 0
-12164 -12163 12162 0
12164 -12163 -12162 0
12164 12163 12162 0
-12165 11756 0
-12165 -12162 0
12165 -11756 12162 0
-12166 11945 0
-12166 -12162 0
12166 -11945 12162 0
-12167 -12166 0
-12167 -12165 0
12167 12166 12165 0
-12168 11945 0
-12168 11756 0
12168 -11945 -11756 0
-12169 -12168 0
-12169 12167 0
12169 12168 -12167 0
-12170 11952 11760 0
-12170 -11952 -11760 0
12170 -11952 11760 0
12170 11952 -11760 0
-12171 12170 -12169 0
-12171 -12170 12169 0
12171 -12170 -12169 0
12171 12170 12169 0
-12172 11760 0
-12172 -12169 0
12172 -11760 12169 0
-12173 11952 0
-12173 -12169 0
12173 -11952 12169 0
-12174 -12173 0
-12174 -12172 0
12174 12173 12172 0
-12175 11952 0
-12175 11760 0
12175 -11952 -11760 0
-12176 -12175 0
-12176 12174 0
12176 12175 -12174 0
-12177 11959 11762 0
-12177 -11959 -11762 0
12177 -11959 11762 0
12177 11959 -11762 0
-12178 12177 -12176 0
-12178 -12177 12176 0
12178 -12177 -12176 0
12178 12177 12176 0
-12179 11762 0
-12179 -12176 0
12179 -11762 12176 0
-12180 11959 0
-12180 -12176 0
12180 -11959 12176 0
-12181 -12180 0
-12181 -12179 0
12181 12180 12179 0
-12182 11959 0
-12182 11762 0
12182 -11959 -11762 0
-12183 -12182 0
-12183 12181 0
12183 12182 -12181 0
-12184 11966 11764 0
-12184 -11966 -11764 0
12184 -11966 11764 0
12184 11966 -11764 0
-12185 12184 -12183 0
-12185 -12184 12183 0
12185 -12184 -12183 0
12185 12184 12183 0
-12186 11764 0
-12186 -12183 0
12186 -11764 12183 0
-12187 11966 0
-12187 -12183 0
12187 -11966 12183 0
-12188 -12187 0
-12188 -12186 0
12188 12187 12186 0
-12189 11966 0
-12189 11764 0
12189 -11966 -11764 0
-12190 -12189 0
-12190 12188 0
12190 12189 -12188 0
-12191 11973 11768 0
-12191 -11973 -11768 0
12191 -11973 11768 0
12191 11973 -11768 0
-12192 12191 -12190 0
-12192 -12191 12190 0
12192 -12191 -12190 0
12192 12191 12190 0
-12193 11768 0
-12193 -12190 0
12193 -11768 12190 0
-12194 11973 0
-12194 -12190 0
12194 -11973 12190 0
-12195 -12194 0
-12195 -12193 0
12195 12194 12193 0
-12196 11973 0
-12196 11768 0
12196 -11973 -11768 0
-12197 -12196 0
-12197 12195 0
12197 12196 -12195 0
-12198 11980 11770 0
-12198 -11980 -11770 0
12198 -11980 11770 0
12198 11980 -11770 0
-12199 12198 -12197 0
-12199 -12198 12197 0
12199 -12198 -12197 0
12199 12198 12197 0
-12200 11770 0
-12200 -12197 0
12200 -11770 12197 0
-12201 11980 0
-12201 -12197 0
12201 -11980 12197 0
-12202 -12201 0
-12202 -12200 0
12202 12201 12200 0
-12203 11980 0
-12203 11770 0
12203 -11980 -11770 0
-12204 -12203 0
-12204 12202 0
12204 12203 -12202 0
-12205 11987 11772 0
-12205 -11987 -11772 0
12205 -11987 11772 0
12205 11987 -11772 0
-12206 12205 -12204 0
-12206 -12205 12204 0
12206 -12205 -12204 0
12206 12205 12204 0
-12207 11772 0
-12207 -12204 0
12207 -11772 12204 0
-12208 11987 0
-12208 -12204 0
12208 -11987 12204 0
-12209 -12208 0
-12209 -12207 0
12209 12208 12207 0
-12210 11987 0
-12210 11772 0
12210 -11987 -11772 0
-12211 -12210 0
-12211 12209 0
12211 12210 -12209 0
-12212 11314 -11319 0
-12212 -11314 11319 0
12212 -11314 -11319 0
12212 11314 11319 0
-12213 11314 0
-12213 -11319 0
12213 -11314 11319 0
-12214 11326 -11331 0
-12214 -11326 11331 0
12214 -11326 -11331 0
12214 11326 11331 0
-12215 12214 12213 0
-12215 -12214 -12213 0
12215 -12214 12213 0
12215 12214 -12213 0
-12216 -11331 0
-12216 12213 0
12216 11331 -12213 0
-12217 11326 0
-12217 12213 0
12217 -11326 -12213 0
-12218 -12217 0
-12218 -12216 0
12218 12217 12216 0
-12219 11326 0
-12219 -11331 0
12219 -11326 11331 0
-12220 -12219 0
-12220 12218 0
12220 12219 -12218 0
-12221 11338 -11343 0
-12221 -11338 11343 0
12221 -11338 -11343 0
12221 11338 11343 0
-12222 12221 -12220 0
-12222 -12221 12220 0
12222 -12221 -12220 0
12222 12221 12220 0
-12223 -11343 0
-12223 -12220 0
12223 11343 12220 0
-12224 11338 0
-12224 -12220 0
12224 -11338 12220 0
-12225 -12224 0
-12225 -12223 0
12225 12224 12223 0
-12226 11338 0
-12226 -11343 0
12226 -11338 11343 0
-12227 -12226 0
-12227 12225 0
12227 12226 -12225 0
-12228 11350 -11355 0
-12228 -11350 11355 0
12228 -11350 -11355 0
12228 11350 11355 0
-12229 12228 -12227 0
-12229 -12228 12227 0
12229 -12228 -12227 0
12229 12228 12227 0
-12230 -11355 0
-12230 -12227 0
12230 11355 12227 0
-12231 11350 0
-12231 -12227 0
12231 -11350 12227 0
-12232 -12231 0
-12232 -12230 0
12232 12231 12230 0
-12233 11350 0
-12233 -11355 0
12233 -11350 11355 0
-12234 -12233 0
-12234 12232 0
12234 12233 -12232 0
-12235 11362 -11367 0
-12235 -11362 11367 0
12235 -11362 -11367 0
12235 11362 11367 0
-12236 12235 -12234 0
-12236 -12235 12234 0
12236 -12235 -12234 0
12236 12235 12234 0
-12237 -11367 0
-12237 -12234 0
12237 11367 12234 0
-12238 11362 0
-12238 -12234 0
12238 -11362 12234 0
-12239 -12238 0
-12239 -12237 0
12239 12238 12237 0
-12240 11362 0
-12240 -11367 0
12240 -11362 11367 0
-12241 -12240 0
-12241 12239 0
12241 12240 -12239 0
-12242 11374 -11379 0
-12242 -11374 11379 0
12242 -11374 -11379 0
12242 11374 11379 0
-12243 12242 -12241 0
-12243 -12242 12241 0
12243 -12242 -12241 0
12243 12242 12241 0
-12244 -11379 0
-12244 -12241 0
12244 11379 12241 0
-12245 11374 0
-12245 -12241 0
12245 -11374 12241 0
-12246 -12245 0
-12246 -12244 0
12246 12245 12244 0
-12247 11374 0
-12247 -11379 0
12247 -11374 11379 0
-12248 -12247 0
-12248 12246 0
12248 12247 -12246 0
-12249 11386 -11391 0
-12249 -11386 11391 0
12249 -11386 -11391 0
12249 11386 11391 0
-12250 12249 -12248 0
-12250 -12249 12248 0
12250 -12249 -12248 0
12250 12249 12248 0
-12251 -11391 0
-12251 -12248 0
12251 11391 12248 0
-12252 11386 0
-12252 -12248 0
12252 -11386 12248 0
-12253 -12252 0
-12253 -12251 0
12253 12252 12251 0
-12254 11386 0
-12254 -11391 0
12254 -11386 11391 0
-12255 -12254 0
-12255 12253 0
12255 12254 -12253 0
-12256 11398 -11403 0
-12256 -11398 11403 0
12256 -11398 -11403 0
12256 11398 11403 0
-12257 12256 -12255 0
-12257 -12256 12255 0
12257 -12256 -12255 0
12257 12256 12255 0
-12258 -11403 0
-12258 -12255 0
12258 11403 12255 0
-12259 11398 0
-12259 -12255 0
12259 -11398 12255 0
-12260 -12259 0
-12260 -12258 0
12260 12259 12258 0
-12261 11398 0
-12261 -11403 0
12261 -11398 11403 0
-12262 -12261 0
-12262 12260 0
12262 12261 -12260 0
-12263 11410 -11415 0
-12263 -11410 11415 0
12263 -11410 -11415 0
12263 11410 11415 0
-12264 12263 -12262 0
-12264 -12263 12262 0
12264 -12263 -12262 0
12264 12263 12262 0
-12265 -11415 0
-12265 -12262 0
12265 11415 12262 0
-12266 11410 0
-12266 -12262 0
12266 -11410 12262 0
-12267 -12266 0
-12267 -12265 0
12267 12266 12265 0
-12268 11410 0
-12268 -11415 0
12268 -11410 11415 0
-12269 -12268 0
-12269 12267 0
12269 12268 -12267 0
-12270 11422 -11427 0
-12270 -11422 11427 0
12270 -11422 -11427 0
12270 11422 11427 0
-12271 12270 -12269 0
-12271 -12270 12269 0
12271 -12270 -12269 0
12271 12270 12269 0
-12272 -11427 0
-12272 -12269 0
12272 11427 12269 0
-12273 11422 0
-12273 -12269 0
12273 -11422 12269 0
-12274 -12273 0
-12274 -12272 0
12274 12273 12272 0
-12275 11422 0
-12275 -11427 0
12275 -11422 11427 0
-12276 -12275 0
-12276 12274 0
12276 12275 -12274 0
-12277 11434 -11439 0
-12277 -11434 11439 0
12277 -11434 -11439 0
12277 11434 11439 0
-12278 12277 -12276 0
-12278 -12277 12276 0
12278 -12277 -12276 0
12278 12277 12276 0
-12279 -11439 0
-12279 -12276 0
12279 11439 12276 0
-12280 11434 0
-12280 -12276 0
12280 -11434 12276 0
-12281 -12280 0
-12281 -12279 0
12281 12280 12279 0
-12282 11434 0
-12282 -11439 0
12282 -11434 11439 0
-12283 -12282 0
-12283 12281 0
12283 12282 -12281 0
-12284 11446 -11451 0
-12284 -11446 11451 0
12284 -11446 -11451 0
12284 11446 11451 0
-12285 12284 -12283 0
-12285 -12284 12283 0
12285 -12284 -12283 0
12285 12284 12283 0
-12286 -11451 0
-12286 -12283 0
12286 11451 12283 0
-12287 11446 0
-12287 -12283 0
12287 -11446 12283 0
-12288 -12287 0
-12288 -12286 0
12288 12287 12286 0
-12289 11446 0
-12289 -11451 0
12289 -11446 11451 0
-12290 -12289 0
-12290 12288 0
12290 12289 -12288 0
-12291 11458 -11463 0
-12291 -11458 11463 0
12291 -11458 -11463 0
12291 11458 11463 0
-12292 12291 -12290 0
-12292 -12291 12290 0
12292 -12291 -12290 0
12292 12291 12290 0
-12293 -11463 0
-12293 -12290 0
12293 11463 12290 0
-12294 11458 0
-12294 -12290 0
12294 -11458 12290 0
-12295 -12294 0
-12295 -12293 0
12295 12294 12293 0
-12296 11458 0
-12296 -11463 0
12296 -11458 11463 0
-12297 -12296 0
-12297 12295 0
12297 12296 -12295 0
-12298 11470 -11475 0
-12298 -11470 11475 0
12298 -11470 -11475 0
12298 11470 11475 0
-12299 12298 -12297 0
-12299 -12298 12297 0
12299 -12298 -12297 0
12299 12298 12297 0
-12300 -11475 0
-12300 -12297 0
12300 11475 12297 0
-12301 11470 0
-12301 -12297 0
12301 -11470 12297 0
-12302 -12301 0
-12302 -12300 0
12302 12301 12300 0
-12303 11470 0
-12303 -11475 0
12303 -11470 11475 0
-12304 -12303 0
-12304 12302 0
12304 12303 -12302 0
-12305 11482 -11487 0
-12305 -11482 11487 0
12305 -11482 -11487 0
12305 11482 11487 0
-12306 12305 -12304 0
-12306 -12305 12304 0
12306 -12305 -12304 0
12306 12305 12304 0
-12307 -11487 0
-12307 -12304 0
12307 11487 12304 0
-12308 11482 0
-12308 -12304 0
12308 -11482 12304 0
-12309 -12308 0
-12309 -12307 0
12309 12308 12307 0
-12310 11482 0
-12310 -11487 0
12310 -11482 11487 0
-12311 -12310 0
-12311 12309 0
12311 12310 -12309 0
-12312 11494 -11499 0
-12312 -11494 11499 0
12312 -11494 -11499 0
12312 11494 11499 0
-12313 12312 -12311 0
-12313 -12312 12311 0
12313 -12312 -12311 0
12313 12312 12311 0
-12314 -11499 0
-12314 -12311 0
12314 11499 12311 0
-12315 11494 0
-12315 -12311 0
12315 -11494 12311 0
-12316 -12315 0
-12316 -12314 0
12316 12315 12314 0
-12317 11494 0
-12317 -11499 0
12317 -11494 11499 0
-12318 -12317 0
-12318 12316 0
12318 12317 -12316 0
-12319 11506 -11511 0
-12319 -11506 11511 0
12319 -11506 -11511 0
12319 11506 11511 0
-12320 12319 -12318 0
-12320 -12319 12318 0
12320 -12319 -12318 0
12320 12319 12318 0
-12321 -11511 0
-12321 -12318 0
12321 11511 12318 0
-12322 11506 0
-12322 -12318 0
12322 -11506 12318 0
-12323 -12322 0
-12323 -12321 0
12323 12322 12321 0
-12324 11506 0
-12324 -11511 0
12324 -11506 11511 0
-12325 -12324 0
-12325 12323 0
12325 12324 -12323 0
-12326 11518 -11523 0
-12326 -11518 11523 0
12326 -11518 -11523 0
12326 11518 11523 0
-12327 12326 -12325 0
-12327 -12326 12325 0
12327 -12326 -12325 0
12327 12326 12325 0
-12328 -11523 0
-12328 -12325 0
12328 11523 12325 0
-12329 11518 0
-12329 -12325 0
12329 -11518 12325 0
-12330 -12329 0
-12330 -12328 0
12330 12329 12328 0
-12331 11518 0
-12331 -11523 0
12331 -11518 11523 0
-12332 -12331 0
-12332 12330 0
12332 12331 -12330 0
-12333 11530 -11535 0
-12333 -11530 11535 0
12333 -11530 -11535 0
12333 11530 11535 0
-12334 12333 -12332 0
-12334 -12333 12332 0
12334 -12333 -12332 0
12334 12333 12332 0
-12335 -11535 0
-12335 -12332 0
12335 11535 12332 0
-12336 11530 0
-12336 -12332 0
12336 -11530 12332 0
-12337 -12336 0
-12337 -12335 0
12337 12336 12335 0
-12338 11530 0
-12338 -11535 0
12338 -11530 11535 0
-12339 -12338 0
-12339 12337 0
12339 12338 -12337 0
-12340 11542 -11547 0
-12340 -11542 11547 0
12340 -11542 -11547 0
12340 11542 11547 0
-12341 12340 -12339 0
-12341 -12340 12339 0
12341 -12340 -12339 0
12341 12340 12339 0
-12342 -11547 0
-12342 -12339 0
12342 11547 12339 0
-12343 11542 0
-12343 -12339 0
12343 -11542 12339 0
-12344 -12343 0
-12344 -12342 0
12344 12343 12342 0
-12345 11542 0
-12345 -11547 0
12345 -11542 11547 0
-12346 -12345 0
-12346 12344 0
12346 12345 -12344 0
-12347 11554 -11559 0
-12347 -11554 11559 0
12347 -11554 -11559 0
12347 11554 11559 0
-12348 12347 -12346 0
-12348 -12347 12346 0
12348 -12347 -12346 0
12348 12347 12346 0
-12349 -11559 0
-12349 -12346 0
12349 11559 12346 0
-12350 11554 0
-12350 -12346 0
12350 -11554 12346 0
-12351 -12350 0
-12351 -12349 0
12351 12350 12349 0
-12352 11554 0
-12352 -11559 0
12352 -11554 11559 0
-12353 -12352 0
-12353 12351 0
12353 12352 -12351 0
-12354 11566 -11571 0
-12354 -11566 11571 0
12354 -11566 -11571 0
12354 11566 11571 0
-12355 12354 -12353 0
-12355 -12354 12353 0
12355 -12354 -12353 0
12355 12354 12353 0
-12356 -11571 0
-12356 -12353 0
12356 11571 12353 0
-12357 11566 0
-12357 -12353 0
12357 -11566 12353 0
-12358 -12357 0
-12358 -12356 0
12358 12357 12356 0
-12359 11566 0
-12359 -11571 0
12359 -11566 11571 0
-12360 -12359 0
-12360 12358 0
12360 12359 -12358 0
-12361 11578 -11583 0
-12361 -11578 11583 0
12361 -11578 -11583 0
12361 11578 11583 0
-12362 12361 -12360 0
-12362 -12361 12360 0
12362 -12361 -12360 0
12362 12361 12360 0
-12363 -11583 0
-12363 -12360 0
12363 11583 12360 0
-12364 11578 0
-12364 -12360 0
12364 -11578 12360 0
-12365 -12364 0
-12365 -12363 0
12365 12364 12363 0
-12366 11578 0
-12366 -11583 0
12366 -11578 11583 0
-12367 -12366 0
-12367 12365 0
12367 12366 -12365 0
-12368 11590 -11595 0
-12368 -11590 11595 0
12368 -11590 -11595 0
12368 11590 11595 0
-12369 12368 -12367 0
-12369 -12368 12367 0
12369 -12368 -12367 0
12369 12368 12367 0
-12370 -11595 0
-12370 -12367 0
12370 11595 12367 0
-12371 11590 0
-12371 -12367 0
12371 -11590 12367 0
-12372 -12371 0
-12372 -12370 0
12372 12371 12370 0
-12373 11590 0
-12373 -11595 0
12373 -11590 11595 0
-12374 -12373 0
-12374 12372 0
12374 12373 -12372 0
-12375 11602 -11607 0
-12375 -11602 11607 0
12375 -11602 -11607 0
12375 11602 11607 0
-12376 12375 -12374 0
-12376 -12375 12374 0
12376 -12375 -12374 0
12376 12375 12374 0
-12377 -11607 0
-12377 -12374 0
12377 11607 12374 0
-12378 11602 0
-12378 -12374 0
12378 -11602 12374 0
-12379 -12378 0
-12379 -12377 0
12379 12378 12377 0
-12380 11602 0
-12380 -11607 0
12380 -11602 11607 0
-12381 -12380 0
-12381 12379 0
12381 12380 -12379 0
-12382 11614 -11619 0
-12382 -11614 11619 0
12382 -11614 -11619 0
12382 11614 11619 0
-12383 12382 -12381 0
-12383 -12382 12381 0
12383 -12382 -12381 0
12383 12382 12381 0
-12384 -11619 0
-12384 -12381 0
12384 11619 12381 0
-12385 11614 0
-12385 -12381 0
12385 -11614 12381 0
-12386 -12385 0
-12386 -12384 0
12386 12385 12384 0
-12387 11614 0
-12387 -11619 0
12387 -11614 11619 0
-12388 -12387 0
-12388 12386 0
12388 12387 -12386 0
-12389 11626 -11631 0
-12389 -11626 11631 0
12389 -11626 -11631 0
12389 11626 11631 0
-12390 12389 -12388 0
-12390 -12389 12388 0
12390 -12389 -12388 0
12390 12389 12388 0
-12391 -11631 0
-12391 -12388 0
12391 11631 12388 0
-12392 11626 0
-12392 -12388 0
12392 -11626 12388 0
-12393 -12392 0
-12393 -12391 0
12393 12392 12391 0
-12394 11626 0
-12394 -11631 0
12394 -11626 11631 0
-12395 -12394 0
-12395 12393 0
12395 12394 -12393 0
-12396 11638 -11643 0
-12396 -11638 11643 0
12396 -11638 -11643 0
12396 11638 11643 0
-12397 12396 -12395 0
-12397 -12396 12395 0
12397 -12396 -12395 0
12397 12396 12395 0
-12398 -11643 0
-12398 -12395 0
12398 11643 12395 0
-12399 11638 0
-12399 -12395 0
12399 -11638 12395 0
-12400 -12399 0
-12400 -12398 0
12400 12399 12398 0
-12401 11638 0
-12401 -11643 0
12401 -11638 11643 0
-12402 -12401 0
-12402 12400 0
12402 12401 -12400 0
-12403 11650 -11655 0
-12403 -11650 11655 0
12403 -11650 -11655 0
12403 11650 11655 0
-12404 12403 -12402 0
-12404 -12403 12402 0
12404 -12403 -12402 0
12404 12403 12402 0
-12405 -11655 0
-12405 -12402 0
12405 11655 12402 0
-12406 11650 0
-12406 -12402 0
12406 -11650 12402 0
-12407 -12406 0
-12407 -12405 0
12407 12406 12405 0
-12408 11650 0
-12408 -11655 0
12408 -11650 11655 0
-12409 -12408 0
-12409 12407 0
12409 12408 -12407 0
-12410 11662 -11667 0
-12410 -11662 11667 0
12410 -11662 -11667 0
12410 11662 11667 0
-12411 12410 -12409 0
-12411 -12410 12409 0
12411 -12410 -12409 0
12411 12410 12409 0
-12412 -11667 0
-12412 -12409 0
12412 11667 12409 0
-12413 11662 0
-12413 -12409 0
12413 -11662 12409 0
-12414 -12413 0
-12414 -12412 0
12414 12413 12412 0
-12415 11662 0
-12415 -11667 0
12415 -11662 11667 0
-12416 -12415 0
-12416 12414 0
12416 12415 -12414 0
-12417 11674 -11679 0
-12417 -11674 11679 0
12417 -11674 -11679 0
12417 11674 11679 0
-12418 12417 -12416 0
-12418 -12417 12416 0
12418 -12417 -12416 0
12418 12417 12416 0
-12419 -11679 0
-12419 -12416 0
12419 11679 12416 0
-12420 11674 0
-12420 -12416 0
12420 -11674 12416 0
-12421 -12420 0
-12421 -12419 0
12421 12420 12419 0
-12422 11674 0
-12422 -11679 0
12422 -11674 11679 0
-12423 -12422 0
-12423 12421 0
12423 12422 -12421 0
-12424 11686 -11691 0
-12424 -11686 11691 0
12424 -11686 -11691 0
12424 11686 11691 0
-12425 12424 -12423 0
-12425 -12424 12423 0
12425 -12424 -12423 0
12425 12424 12423 0
-12426 -11691 0
-12426 -12423 0
12426 11691 12423 0
-12427 11686 0
-12427 -12423 0
12427 -11686 12423 0
-12428 -12427 0
-12428 -12426 0
12428 12427 12426 0
-12429 11686 0
-12429 -11691 0
12429 -11686 11691 0
-12430 -12429 0
-12430 12428 0
12430 12429 -12428 0
-12431 6390 11993 0
-12431 -6390 -11993 0
12431 -6390 11993 0
12431 6390 -11993 0
-12432 6390 0
-12432 11993 0
12432 -6390 -11993 0
-12433 6393 11996 0
-12433 -6393 -11996 0
12433 -6393 11996 0
12433 6393 -11996 0
-12434 12433 12432 0
-12434 -12433 -12432 0
12434 -12433 12432 0
12434 12433 -12432 0
-12435 11996 0
-12435 12432 0
12435 -11996 -12432 0
-12436 6393 0
-12436 12432 0
12436 -6393 -12432 0
-12437 -12436 0
-12437 -12435 0
12437 12436 12435 0
-12438 6393 0
-12438 11996 0
12438 -6393 -11996 0
-12439 -12438 0
-12439 12437 0
12439 12438 -12437 0
-12440 6400 12003 0
-12440 -6400 -12003 0
12440 -6400 12003 0
12440 6400 -12003 0
-12441 12440 -12439 0
-12441 -12440 12439 0
12441 -12440 -12439 0
12441 12440 12439 0
-12442 12003 0
-12442 -12439 0
12442 -12003 12439 0
-12443 6400 0
-12443 -12439 0
12443 -6400 12439 0
-12444 -12443 0
-12444 -12442 0
12444 12443 12442 0
-12445 6400 0
-12445 12003 0
12445 -6400 -12003 0
-12446 -12445 0
-12446 12444 0
12446 12445 -12444 0
-12447 6407 12010 0
-12447 -6407 -12010 0
12447 -6407 12010 0
12447 6407 -12010 0
-12448 12447 -12446 0
-12448 -12447 12446 0
12448 -12447 -12446 0
12448 12447 12446 0
-12449 12010 0
-12449 -12446 0
12449 -12010 12446 0
-12450 6407 0
-12450 -12446 0
12450 -6407 12446 0
-12451 -12450 0
-12451 -12449 0
12451 12450 12449 0
-12452 6407 0
-12452 12010 0
12452 -6407 -12010 0
-12453 -12452 0
-12453 12451 0
12453 12452 -12451 0
-12454 6414 12017 0
-12454 -6414 -12017 0
12454 -6414 12017 0
12454 6414 -12017 0
-12455 12454 -12453 0
-12455 -12454 12453 0
12455 -12454 -12453 0
12455 12454 12453 0
-12456 12017 0
-12456 -12453 0
12456 -12017 12453 0
-12457 6414 0
-12457 -12453 0
12457 -6414 12453 0
-12458 -12457 0
-12458 -12456 0
12458 12457 12456 0
-12459 6414 0
-12459 12017 0
12459 -6414 -12017 0
-12460 -12459 0
-12460 12458 0
12460 12459 -12458 0
-12461 6421 12024 0
-12461 -6421 -12024 0
12461 -6421 12024 0
12461 6421 -12024 0
-12462 12461 -12460 0
-12462 -12461 12460 0
12462 -12461 -12460 0
12462 12461 12460 0
-12463 12024 0
-12463 -12460 0
12463 -12024 12460 0
-12464 6421 0
-12464 -12460 0
12464 -6421 12460 0
-12465 -12464 0
-12465 -12463 0
12465 12464 12463 0
-12466 6421 0
-12466 12024 0
12466 -6421 -12024 0
-12467 -12466 0
-12467 12465 0
12467 12466 -12465 0
-12468 6428 12031 0
-12468 -6428 -12031 0
12468 -6428 12031 0
12468 6428 -12031 0
-12469 12468 -12467 0
-12469 -12468 12467 0
12469 -12468 -12467 0
12469 12468 12467 0
-12470 12031 0
-12470 -12467 0
12470 -12031 12467 0
-12471 6428 0
-12471 -12467 0
12471 -6428 12467 0
-12472 -12471 0
-12472 -12470 0
12472 12471 12470 0
-12473 6428 0
-12473 12031 0
12473 -6428 -12031 0
-12474 -12473 0
-12474 12472 0
12474 12473 -12472 0
-12475 6435 12038 0
-12475 -6435 -12038 0
12475 -6435 12038 0
12475 6435 -12038 0
-12476 12475 -12474 0
-12476 -12475 12474 0
12476 -12475 -12474 0
12476 12475 12474 0
-12477 12038 0
-12477 -12474 0
12477 -12038 12474 0
-12478 6435 0
-12478 -12474 0
12478 -6435 12474 0
-12479 -12478 0
-12479 -12477 0
12479 12478 12477 0
-12480 6435 0
-12480 12038 0
12480 -6435 -12038 0
-12481 -12480 0
-12481 12479 0
12481 12480 -12479 0
-12482 6442 12045 0
-12482 -6442 -12045 0
12482 -6442 12045 0
12482 6442 -12045 0
-12483 12482 -12481 0
-12483 -12482 12481 0
12483 -12482 -12481 0
12483 12482 12481 0
-12484 12045 0
-12484 -12481 0
12484 -12045 12481 0
-12485 6442 0
-12485 -12481 0
12485 -6442 12481 0
-12486 -12485 0
-12486 -12484 0
12486 12485 12484 0
-12487 6442 0
-12487 12045 0
12487 -6442 -12045 0
-12488 -12487 0
-12488 12486 0
12488 12487 -12486 0
-12489 6449 12052 0
-12489 -6449 -12052 0
12489 -6449 12052 0
12489 6449 -12052 0
-12490 12489 -12488 0
-12490 -12489 12488 0
12490 -12489 -12488 0
12490 12489 12488 0
-12491 12052 0
-12491 -12488 0
12491 -12052 12488 0
-12492 6449 0
-12492 -12488 0
12492 -6449 12488 0
-12493 -12492 0
-12493 -12491 0
12493 12492 12491 0
-12494 6449 0
-12494 12052 0
12494 -6449 -12052 0
-12495 -12494 0
-12495 12493 0
12495 12494 -12493 0
-12496 6456 12059 0
-12496 -6456 -12059 0
12496 -6456 12059 0
12496 6456 -12059 0
-12497 12496 -12495 0
-12497 -12496 12495 0
12497 -12496 -12495 0
12497 12496 12495 0
-12498 12059 0
-12498 -12495 0
12498 -12059 12495 0
-12499 6456 0
-12499 -12495 0
12499 -6456 12495 0
-12500 -12499 0
-12500 -12498 0
12500 12499 12498 0
-12501 6456 0
-12501 12059 0
12501 -6456 -12059 0
-12502 -12501 0
-12502 12500 0
12502 12501 -12500 0
-12503 6463 12066 0
-12503 -6463 -12066 0
12503 -6463 12066 0
12503 6463 -12066 0
-12504 12503 -12502 0
-12504 -12503 12502 0
12504 -12503 -12502 0
12504 12503 12502 0
-12505 12066 0
-12505 -12502 0
12505 -12066 12502 0
-12506 6463 0
-12506 -12502 0
12506 -6463 12502 0
-12507 -12506 0
-12507 -12505 0
12507 12506 12505 0
-12508 6463 0
-12508 12066 0
12508 -6463 -12066 0
-12509 -12508 0
-12509 12507 0
12509 12508 -12507 0
-12510 6470 12073 0
-12510 -6470 -12073 0
12510 -6470 12073 0
12510 6470 -12073 0
-12511 12510 -12509 0
-12511 -12510 12509 0
12511 -12510 -12509 0
12511 12510 12509 0
-12512 12073 0
-12512 -12509 0
12512 -12073 12509 0
-12513 6470 0
-12513 -12509 0
12513 -6470 12509 0
-12514 -12513 0
-12514 -12512 0
12514 12513 12512 0
-12515 6470 0
-12515 12073 0
12515 -6470 -12073 0
-12516 -12515 0
-12516 12514 0
12516 12515 -12514 0
-12517 6477 12080 0
-12517 -6477 -12080 0
12517 -6477 12080 0
12517 6477 -12080 0
-12518 12517 -12516 0
-12518 -12517 12516 0
12518 -12517 -12516 0
12518 12517 12516 0
-12519 12080 0
-12519 -12516 0
12519 -12080 12516 0
-12520 6477 0
-12520 -12516 0
12520 -6477 12516 0
-12521 -12520 0
-12521 -12519 0
12521 12520 12519 0
-12522 6477 0
-12522 12080 0
12522 -6477 -12080 0
-12523 -12522 0
-12523 12521 0
12523 12522 -12521 0
-12524 6484 12087 0
-12524 -6484 -12087 0
12524 -6484 12087 0
12524 6484 -12087 0
-12525 12524 -12523 0
-12525 -12524 12523 0
12525 -12524 -12523 0
12525 12524 12523 0
-12526 12087 0
-12526 -12523 0
12526 -12087 12523 0
-12527 6484 0
-12527 -12523 0
12527 -6484 12523 0
-12528 -12527 0
-12528 -12526 0
12528 12527 12526 0
-12529 6484 0
-12529 12087 0
12529 -6484 -12087 0
-12530 -12529 0
-12530 12528 0
12530 12529 -12528 0
-12531 6491 12094 0
-12531 -6491 -12094 0
12531 -6491 12094 0
12531 6491 -12094 0
-12532 12531 -12530 0
-12532 -12531 12530 0
12532 -12531 -12530 0
12532 12531 12530 0
-12533 12094 0
-12533 -12530 0
12533 -12094 12530 0
-12534 6491 0
-12534 -12530 0
12534 -6491 12530 0
-12535 -12534 0
-12535 -12533 0
12535 12534 12533 0
-12536 6491 0
-12536 12094 0
12536 -6491 -12094 0
-12537 -12536 0
-12537 12535 0
12537 12536 -12535 0
-12538 6498 12101 0
-12538 -6498 -12101 0
12538 -6498 12101 0
12538 6498 -12101 0
-12539 12538 -12537 0
-12539 -12538 12537 0
12539 -12538 -12537 0
12539 12538 12537 0
-12540 12101 0
-12540 -12537 0
12540 -12101 12537 0
-12541 6498 0
-12541 -12537 0
12541 -6498 12537 0
-12542 -12541 0
-12542 -12540 0
12542 12541 12540 0
-12543 6498 0
-12543 12101 0
12543 -6498 -12101 0
-12544 -12543 0
-12544 12542 0
12544 12543 -12542 0
-12545 6505 12108 0
-12545 -6505 -12108 0
12545 -6505 12108 0
12545 6505 -12108 0
-12546 12545 -12544 0
-12546 -12545 12544 0
12546 -12545 -12544 0
12546 12545 12544 0
-12547 12108 0
-12547 -12544 0
12547 -12108 12544 0
-12548 6505 0
-12548 -12544 0
12548 -6505 12544 0
-12549 -12548 0
-12549 -12547 0
12549 12548 12547 0
-12550 6505 0
-12550 12108 0
12550 -6505 -12108 0
-12551 -12550 0
-12551 12549 0
12551 12550 -12549 0
-12552 6512 12115 0
-12552 -6512 -12115 0
12552 -6512 12115 0
12552 6512 -12115 0
-12553 12552 -12551 0
-12553 -12552 12551 0
12553 -12552 -12551 0
12553 12552 12551 0
-12554 12115 0
-12554 -12551 0
12554 -12115 12551 0
-12555 6512 0
-12555 -12551 0
12555 -6512 12551 0
-12556 -12555 0
-12556 -12554 0
12556 12555 12554 0
-12557 6512 0
-12557 12115 0
12557 -6512 -12115 0
-12558 -12557 0
-12558 12556 0
12558 12557 -12556 0
-12559 6519 12122 0
-12559 -6519 -12122 0
12559 -6519 12122 0
12559 6519 -12122 0
-12560 12559 -12558 0
-12560 -12559 12558 0
12560 -12559 -12558 0
12560 12559 12558 0
-12561 12122 0
-12561 -12558 0
12561 -12122 12558 0
-12562 6519 0
-12562 -12558 0
12562 -6519 12558 0
-12563 -12562 0
-12563 -12561 0
12563 12562 12561 0
-12564 6519 0
-12564 12122 0
12564 -6519 -12122 0
-12565 -12564 0
-12565 12563 0
12565 12564 -12563 0
-12566 6526 12129 0
-12566 -6526 -12129 0
12566 -6526 12129 0
12566 6526 -12129 0
-12567 12566 -12565 0
-12567 -12566 12565 0
12567 -12566 -12565 0
12567 12566 12565 0
-12568 12129 0
-12568 -12565 0
12568 -12129 12565 0
-12569 6526 0
-12569 -12565 0
12569 -6526 12565 0
-12570 -12569 0
-12570 -12568 0
12570 12569 12568 0
-12571 6526 0
-12571 12129 0
12571 -6526 -12129 0
-12572 -12571 0
-12572 12570 0
12572 12571 -12570 0
-12573 6533 12136 0
-12573 -6533 -12136 0
12573 -6533 12136 0
12573 6533 -12136 0
-12574 12573 -12572 0
-12574 -12573 12572 0
12574 -12573 -12572 0
12574 12573 12572 0
-12575 12136 0
-12575 -12572 0
12575 -12136 12572 0
-12576 6533 0
-12576 -12572 0
12576 -6533 12572 0
-12577 -12576 0
-12577 -12575 0
12577 12576 12575 0
-12578 6533 0
-12578 12136 0
12578 -6533 -12136 0
-12579 -12578 0
-12579 12577 0
12579 12578 -12577 0
-12580 6540 12143 0
-12580 -6540 -12143 0
12580 -6540 12143 0
12580 6540 -12143 0
-12581 12580 -12579 0
-12581 -12580 12579 0
12581 -12580 -12579 0
12581 12580 12579 0
-12582 12143 0
-12582 -12579 0
12582 -12143 12579 0
-12583 6540 0
-12583 -12579 0
12583 -6540 12579 0
-12584 -12583 0
-12584 -12582 0
12584 12583 12582 0
-12585 6540 0
-12585 12143 0
12585 -6540 -12143 0
-12586 -12585 0
-12586 12584 0
12586 12585 -12584 0
-12587 6547 12150 0
-12587 -6547 -12150 0
12587 -6547 12150 0
12587 6547 -12150 0
-12588 12587 -12586 0
-12588 -12587 12586 0
12588 -12587 -12586 0
12588 12587 12586 0
-12589 12150 0
-12589 -12586 0
12589 -12150 12586 0
-12590 6547 0
-12590 -12586 0
12590 -6547 12586 0
-12591 -12590 0
-12591 -12589 0
12591 12590 12589 0
-12592 6547 0
-12592 12150 0
12592 -6547 -12150 0
-12593 -12592 0
-12593 12591 0
12593 12592 -12591 0
-12594 6554 12157 0
-12594 -6554 -12157 0
12594 -6554 12157 0
12594 6554 -12157 0
-12595 12594 -12593 0
-12595 -12594 12593 0
12595 -12594 -12593 0
12595 12594 12593 0
-12596 12157 0
-12596 -12593 0
12596 -12157 12593 0
-12597 6554 0
-12597 -12593 0
12597 -6554 12593 0
-12598 -12597 0
-12598 -12596 0
12598 12597 12596 0
-12599 6554 0
-12599 12157 0
12599 -6554 -12157 0
-12600 -12599 0
-12600 12598 0
12600 12599 -12598 0
-12601 6561 12164 0
-12601 -6561 -12164 0
12601 -6561 12164 0
12601 6561 -12164 0
-12602 12601 -12600 0
-12602 -12601 12600 0
12602 -12601 -12600 0
12602 12601 12600 0
-12603 12164 0
-12603 -12600 0
12603 -12164 12600 0
-12604 6561 0
-12604 -12600 0
12604 -6561 12600 0
-12605 -12604 0
-12605 -12603 0
12605 12604 12603 0
-12606 6561 0
-12606 12164 0
12606 -6561 -12164 0
-12607 -12606 0
-12607 12605 0
12607 12606 -12605 0
-12608 6568 12171 0
-12608 -6568 -12171 0
12608 -6568 12171 0
12608 6568 -12171 0
-12609 12608 -12607 0
-12609 -12608 12607 0
12609 -12608 -12607 0
12609 12608 12607 0
-12610 12171 0
-12610 -12607 0
12610 -12171 12607 0
-12611 6568 0
-12611 -12607 0
12611 -6568 12607 0
-12612 -12611 0
-12612 -12610 0
12612 12611 12610 0
-12613 6568 0
-12613 12171 0
12613 -6568 -12171 0
-12614 -12613 0
-12614 12612 0
12614 12613 -12612 0
-12615 6575 12178 0
-12615 -6575 -12178 0
12615 -6575 12178 0
12615 6575 -12178 0
-12616 12615 -12614 0
-12616 -12615 12614 0
12616 -12615 -12614 0
12616 12615 12614 0
-12617 12178 0
-12617 -12614 0
12617 -12178 12614 0
-12618 6575 0
-12618 -12614 0
12618 -6575 12614 0
-12619 -12618 0
-12619 -12617 0
12619 12618 12617 0
-12620 6575 0
-12620 12178 0
12620 -6575 -12178 0
-12621 -12620 0
-12621 12619 0
12621 12620 -12619 0
-12622 6582 12185 0
-12622 -6582 -12185 0
12622 -6582 12185 0
12622 6582 -12185 0
-12623 12622 -12621 0
-12623 -12622 12621 0
12623 -12622 -12621 0
12623 12622 12621 0
-12624 12185 0
-12624 -12621 0
12624 -12185 12621 0
-12625 6582 0
-12625 -12621 0
12625 -6582 12621 0
-12626 -12625 0
-12626 -12624 0
12626 12625 12624 0
-12627 6582 0
-12627 12185 0
12627 -6582 -12185 0
-12628 -12627 0
-12628 12626 0
12628 12627 -12626 0
-12629 6589 12192 0
-12629 -6589 -12192 0
12629 -6589 12192 0
12629 6589 -12192 0
-12630 12629 -12628 0
-12630 -12629 12628 0
12630 -12629 -12628 0
12630 12629 12628 0
-12631 12192 0
-12631 -12628 0
12631 -12192 12628 0
-12632 6589 0
-12632 -12628 0
12632 -6589 12628 0
-12633 -12632 0
-12633 -12631 0
12633 12632 12631 0
-12634 6589 0
-12634 12192 0
12634 -6589 -12192 0
-12635 -12634 0
-12635 12633 0
12635 12634 -12633 0
-12636 6596 12199 0
-12636 -6596 -12199 0
12636 -6596 12199 0
12636 6596 -12199 0
-12637 12636 -12635 0
-12637 -12636 12635 0
12637 -12636 -12635 0
12637 12636 12635 0
-12638 12199 0
-12638 -12635 0
12638 -12199 12635 0
-12639 6596 0
-12639 -12635 0
12639 -6596 12635 0
-12640 -12639 0
-12640 -12638 0
12640 12639 12638 0
-12641 6596 0
-12641 12199 0
12641 -6596 -12199 0
-12642 -12641 0
-12642 12640 0
12642 12641 -12640 0
-12643 6603 12206 0
-12643 -6603 -12206 0
12643 -6603 12206 0
12643 6603 -12206 0
-12644 12643 -12642 0
-12644 -12643 12642 0
12644 -12643 -12642 0
12644 12643 12642 0
-12645 12206 0
-12645 -12642 0
12645 -12206 12642 0
-12646 6603 0
-12646 -12642 0
12646 -6603 12642 0
-12647 -12646 0
-12647 -12645 0
12647 12646 12645 0
-12648 6603 0
-12648 12206 0
12648 -6603 -12206 0
-12649 -12648 0
-12649 12647 0
12649 12648 -12647 0
-12650 11993 12212 0
-12650 -11993 -12212 0
12650 -11993 12212 0
12650 11993 -12212 0
-12651 11993 0
-12651 12212 0
12651 -11993 -12212 0
-12652 11996 12215 0
-12652 -11996 -12215 0
12652 -11996 12215 0
12652 11996 -12215 0
-12653 12652 12651 0
-12653 -12652 -12651 0
12653 -12652 12651 0
12653 12652 -12651 0
-12654 12215 0
-12654 12651 0
12654 -12215 -12651 0
-12655 11996 0
-12655 12651 0
12655 -11996 -12651 0
-12656 -12655 0
-12656 -12654 0
12656 12655 12654 0
-12657 11996 0
-12657 12215 0
12657 -11996 -12215 0
-12658 -12657 0
-12658 12656 0
12658 12657 -12656 0
-12659 12003 12222 0
-12659 -12003 -12222 0
12659 -12003 12222 0
12659 12003 -12222 0
-12660 12659 -12658 0
-12660 -12659 12658 0
12660 -12659 -12658 0
12660 12659 12658 0
-12661 12222 0
-12661 -12658 0
12661 -12222 12658 0
-12662 12003 0
-12662 -12658 0
12662 -12003 12658 0
-12663 -12662 0
-12663 -12661 0
12663 12662 12661 0
-12664 12003 0
-12664 12222 0
12664 -12003 -12222 0
-12665 -12664 0
-12665 12663 0
12665 12664 -12663 0
-12666 12010 12229 0
-12666 -12010 -12229 0
12666 -12010 12229 0
12666 12010 -12229 0
-12667 12666 -12665 0
-12667 -12666 12665 0
12667 -12666 -12665 0
12667 12666 12665 0
-12668 12229 0
-12668 -12665 0
12668 -12229 12665 0
-12669 12010 0
-12669 -12665 0
12669 -12010 12665 0
-12670 -12669 0
-12670 -12668 0
12670 12669 12668 0
-12671 12010 0
-12671 12229 0
12671 -12010 -12229 0
-12672 -12671 0
-12672 12670 0
12672 12671 -12670 0
-12673 12017 12236 0
-12673 -12017 -12236 0
12673 -12017 12236 0
12673 12017 -12236 0
-12674 12673 -12672 0
-12674 -12673 12672 0
12674 -12673 -12672 0
12674 12673 12672 0
-12675 12236 0
-12675 -12672 0
12675 -12236 12672 0
-12676 12017 0
-12676 -12672 0
12676 -12017 12672 0
-12677 -12676 0
-12677 -12675 0
12677 12676 12675 0
-12678 12017 0
-12678 12236 0
12678 -12017 -12236 0
-12679 -12678 0
-12679 12677 0
12679 12678 -12677 0
-12680 12024 12243 0
-12680 -12024 -12243 0
12680 -12024 12243 0
12680 12024 -12243 0
-12681 12680 -12679 0
-12681 -12680 12679 0
12681 -12680 -12679 0
12681 12680 12679 0
-12682 12243 0
-12682 -12679 0
12682 -12243 12679 0
-12683 12024 0
-12683 -12679 0
12683 -12024 12679 0
-12684 -12683 0
-12684 -12682 0
12684 12683 12682 0
-12685 12024 0
-12685 12243 0
12685 -12024 -12243 0
-12686 -12685 0
-12686 12684 0
12686 12685 -12684 0
-12687 12031 12250 0
-12687 -12031 -12250 0
12687 -12031 12250 0
12687 12031 -12250 0
-12688 12687 -12686 0
-12688 -12687 12686 0
12688 -12687 -12686 0
12688 12687 12686 0
-12689 12250 0
-12689 -12686 0
12689 -12250 12686 0
-12690 12031 0
-12690 -12686 0
12690 -12031 12686 0
-12691 -12690 0
-12691 -12689 0
12691 12690 12689 0
-12692 12031 0
-12692 12250 0
12692 -12031 -12250 0
-12693 -12692 0
-12693 12691 0
12693 12692 -12691 0
-12694 12038 12257 0
-12694 -12038 -12257 0
12694 -12038 12257 0
12694 12038 -12257 0
-12695 12694 -12693 0
-12695 -12694 12693 0
12695 -12694 -12693 0
12695 12694 12693 0
-12696 12257 0
-12696 -12693 0
12696 -12257 12693 0
-12697 12038 0
-12697 -12693 0
12697 -12038 12693 0
-12698 -12697 0
-12698 -12696 0
12698 12697 12696 0
-12699 12038 0
-12699 12257 0
12699 -12038 -12257 0
-12700 -12699 0
-12700 12698 0
12700 12699 -12698 0
-12701 12045 12264 0
-12701 -12045 -12264 0
12701 -12045 12264 0
12701 12045 -12264 0
-12702 12701 -12700 0
-12702 -12701 12700 0
12702 -12701 -12700 0
12702 12701 12700 0
-12703 12264 0
-12703 -12700 0
12703 -12264 12700 0
-12704 12045 0
-12704 -12700 0
12704 -12045 12700 0
-12705 -12704 0
-12705 -12703 0
12705 12704 12703 0
-12706 12045 0
-12706 12264 0
12706 -12045 -12264 0
-12707 -12706 0
-12707 12705 0
12707 12706 -12705 0
-12708 12052 12271 0
-12708 -12052 -12271 0
12708 -12052 12271 0
12708 12052 -12271 0
-12709 12708 -12707 0
-12709 -12708 12707 0
12709 -12708 -12707 0
12709 12708 12707 0
-12710 12271 0
-12710 -12707 0
12710 -12271 12707 0
-12711 12052 0
-12711 -12707 0
12711 -12052 12707 0
-12712 -12711 0
-12712 -12710 0
12712 12711 12710 0
-12713 12052 0
-12713 12271 0
12713 -12052 -12271 0
-12714 -12713 0
-12714 12712 0
12714 12713 -12712 0
-12715 12059 12278 0
-12715 -12059 -12278 0
12715 -12059 12278 0
12715 12059 -12278 0
-12716 12715 -12714 0
-12716 -12715 12714 0
12716 -12715 -12714 0
12716 12715 12714 0
-12717 12278 0
-12717 -12714 0
12717 -12278 12714 0
-12718 12059 0
-12718 -12714 0
12718 -12059 12714 0
-12719 -12718 0
-12719 -12717 0
12719 12718 12717 0
-12720 12059 0
-12720 12278 0
12720 -12059 -12278 0
-12721 -12720 0
-12721 12719 0
12721 12720 -12719 0
-12722 12066 12285 0
-12722 -12066 -12285 0
12722 -12066 12285 0
12722 12066 -12285 0
-12723 12722 -12721 0
-12723 -12722 12721 0
12723 -12722 -12721 0
12723 12722 12721 0
-12724 12285 0
-12724 -12721 0
12724 -12285 12721 0
-12725 12066 0
-12725 -12721 0
12725 -12066 12721 0
-12726 -12725 0
-12726 -12724 0
12726 12725 12724 0
-12727 12066 0
-12727 12285 0
12727 -12066 -12285 0
-12728 -12727 0
-12728 12726 0
12728 12727 -12726 0
-12729 12073 12292 0
-12729 -12073 -12292 0
12729 -12073 12292 0
12729 12073 -12292 0
-12730 12729 -12728 0
-12730 -12729 12728 0
12730 -12729 -12728 0
12730 12729 12728 0
-12731 12292 0
-12731 -12728 0
12731 -12292 12728 0
-12732 12073 0
-12732 -12728 0
12732 -12073 12728 0
-12733 -12732 0
-12733 -12731 0
12733 12732 12731 0
-12734 12073 0
-12734 12292 0
12734 -12073 -12292 0
-12735 -12734 0
-12735 12733 0
12735 12734 -12733 0
-12736 12080 12299 0
-12736 -12080 -12299 0
12736 -12080 12299 0
12736 12080 -12299 0
-12737 12736 -12735 0
-12737 -12736 12735 0
12737 -12736 -12735 0
12737 12736 12735 0
-12738 12299 0
-12738 -12735 0
12738 -12299 12735 0
-12739 12080 0
-12739 -12735 0
12739 -12080 12735 0
-12740 -12739 0
-12740 -12738 0
12740 12739 12738 0
-12741 12080 0
-12741 12299 0
12741 -12080 -12299 0
-12742 -12741 0
-12742 12740 0
12742 12741 -12740 0
-12743 12087 12306 0
-12743 -12087 -12306 0
12743 -12087 12306 0
12743 12087 -12306 0
-12744 12743 -12742 0
-12744 -12743 12742 0
12744 -12743 -12742 0
12744 12743 12742 0
-12745 12306 0
-12745 -12742 0
12745 -12306 12742 0
-12746 12087 0
-12746 -12742 0
12746 -12087 12742 0
-12747 -12746 0
-12747 -12745 0
12747 12746 12745 0
-12748 12087 0
-12748 12306 0
12748 -12087 -12306 0
-12749 -12748 0
-12749 12747 0
12749 12748 -12747 0
-12750 12094 12313 0
-12750 -12094 -12313 0
12750 -12094 12313 0
12750 12094 -12313 0
-12751 12750 -12749 0
-12751 -12750 12749 0
12751 -12750 -12749 0
12751 12750 12749 0
-12752 12313 0
-12752 -12749 0
12752 -12313 12749 0
-12753 12094 0
-12753 -12749 0
12753 -12094 12749 0
-12754 -12753 0
-12754 -12752 0
12754 12753 12752 0
-12755 12094 0
-12755 12313 0
12755 -12094 -12313 0
-12756 -12755 0
-12756 12754 0
12756 12755 -12754 0
-12757 12101 12320 0
-12757 -12101 -12320 0
12757 -12101 12320 0
12757 12101 -12320 0
-12758 12757 -12756 0
-12758 -12757 12756 0
12758 -12757 -12756 0
12758 12757 12756 0
-12759 12320 0
-12759 -12756 0
12759 -12320 12756 0
-12760 12101 0
-12760 -12756 0
12760 -12101 12756 0
-12761 -12760 0
-12761 -12759 0
12761 12760 12759 0
-12762 12101 0
-12762 12320 0
12762 -12101 -12320 0
-12763 -12762 0
-12763 12761 0
12763 12762 -12761 0
-12764 12108 12327 0
-12764 -12108 -12327 0
12764 -12108 12327 0
12764 12108 -12327 0
-12765 12764 -12763 0
-12765 -12764 12763 0
12765 -12764 -12763 0
12765 12764 12763 0
-12766 12327 0
-12766 -12763 0
12766 -12327 12763 0
-12767 12108 0
-12767 -12763 0
12767 -12108 12763 0
-12768 -12767 0
-12768 -12766 0
12768 12767 12766 0
-12769 12108 0
-12769 12327 0
12769 -12108 -12327 0
-12770 -12769 0
-12770 12768 0
12770 12769 -12768 0
-12771 12115 12334 0
-12771 -12115 -12334 0
12771 -12115 12334 0
12771 12115 -12334 0
-12772 12771 -12770 0
-12772 -12771 12770 0
12772 -12771 -12770 0
12772 12771 12770 0
-12773 12334 0
-12773 -12770 0
12773 -12334 12770 0
-12774 12115 0
-12774 -12770 0
12774 -12115 12770 0
-12775 -12774 0
-12775 -12773 0
12775 12774 12773 0
-12776 12115 0
-12776 12334 0
12776 -12115 -12334 0
-12777 -12776 0
-12777 12775 0
12777 12776 -12775 0
-12778 12122 12341 0
-12778 -12122 -12341 0
12778 -12122 12341 0
12778 12122 -12341 0
-12779 12778 -12777 0
-12779 -12778 12777 0
12779 -12778 -12777 0
12779 12778 12777 0
-12780 12341 0
-12780 -12777 0
12780 -12341 12777 0
-12781 12122 0
-12781 -12777 0
12781 -12122 12777 0
-12782 -12781 0
-12782 -12780 0
12782 12781 12780 0
-12783 12122 0
-12783 12341 0
12783 -12122 -12341 0
-12784 -12783 0
-12784 12782 0
12784 12783 -12782 0
-12785 12129 12348 0
-12785 -12129 -12348 0
12785 -12129 12348 0
12785 12129 -12348 0
-12786 12785 -12784 0
-12786 -12785 12784 0
12786 -12785 -12784 0
12786 12785 12784 0
-12787 12348 0
-12787 -12784 0
12787 -12348 12784 0
-12788 12129 0
-12788 -12784 0
12788 -12129 12784 0
-12789 -12788 0
-12789 -12787 0
12789 12788 12787 0
-12790 12129 0
-12790 12348 0
12790 -12129 -12348 0
-12791 -12790 0
-12791 12789 0
12791 12790 -12789 0
-12792 12136 12355 0
-12792 -12136 -12355 0
12792 -12136 12355 0
12792 12136 -12355 0
-12793 12792 -12791 0
-12793 -12792 12791 0
12793 -12792 -12791 0
12793 12792 12791 0
-12794 12355 0
-12794 -12791 0
12794 -12355 12791 0
-12795 12136 0
-12795 -12791 0
12795 -12136 12791 0
-12796 -12795 0
-12796 -12794 0
12796 12795 12794 0
-12797 12136 0
-12797 12355 0
12797 -12136 -12355 0
-12798 -12797 0
-12798 12796 0
12798 12797 -12796 0
-12799 12143 12362 0
-12799 -12143 -12362 0
12799 -12143 12362 0
12799 12143 -12362 0
-12800 12799 -12798 0
-12800 -12799 12798 0
12800 -12799 -12798 0
12800 12799 12798 0
-12801 12362 0
-12801 -12798 0
12801 -12362 12798 0
-12802 12143 0
-12802 -12798 0
12802 -12143 12798 0
-12803 -12802 0
-12803 -12801 0
12803 12802 12801 0
-12804 12143 0
-12804 12362 0
12804 -12143 -12362 0
-12805 -12804 0
-12805 12803 0
12805 12804 -12803 0
-12806 12150 12369 0
-12806 -12150 -12369 0
12806 -12150 12369 0
12806 12150 -12369 0
-12807 12806 -12805 0
-12807 -12806 12805 0
12807 -12806 -12805 0
12807 12806 12805 0
-12808 12369 0
-12808 -12805 0
12808 -12369 12805 0
-12809 12150 0
-12809 -12805 0
12809 -12150 12805 0
-12810 -12809 0
-12810 -12808 0
12810 12809 12808 0
-12811 12150 0
-12811 12369 0
12811 -12150 -12369 0
-12812 -12811 0
-12812 12810 0
12812 12811 -12810 0
-12813 12157 12376 0
-12813 -12157 -12376 0
12813 -12157 12376 0
12813 12157 -12376 0
-12814 12813 -12812 0
-12814 -12813 12812 0
12814 -12813 -12812 0
12814 12813 12812 0
-12815 12376 0
-12815 -12812 0
12815 -12376 12812 0
-12816 12157 0
-12816 -12812 0
12816 -12157 12812 0
-12817 -12816 0
-12817 -12815 0
12817 12816 12815 0
-12818 12157 0
-12818 12376 0
12818 -12157 -12376 0
-12819 -12818 0
-12819 12817 0
12819 12818 -12817 0
-12820 12164 12383 0
-12820 -12164 -12383 0
12820 -12164 12383 0
12820 12164 -12383 0
-12821 12820 -12819 0
-12821 -12820 12819 0
12821 -12820 -12819 0
12821 12820 12819 0
-12822 12383 0
-12822 -12819 0
12822 -12383 12819 0
-12823 12164 0
-12823 -12819 0
12823 -12164 12819 0
-12824 -12823 0
-12824 -12822 0
12824 12823 12822 0
-12825 12164 0
-12825 12383 0
12825 -12164 -12383 0
-12826 -12825 0
-12826 12824 0
12826 12825 -12824 0
-12827 12171 12390 0
-12827 -12171 -12390 0
12827 -12171 12390 0
12827 12171 -12390 0
-12828 12827 -12826 0
-12828 -12827 12826 0
12828 -12827 -12826 0
12828 12827 12826 0
-12829 12390 0
-12829 -12826 0
12829 -12390 12826 0
-12830 12171 0
-12830 -12826 0
12830 -12171 12826 0
-12831 -12830 0
-12831 -12829 0
12831 12830 12829 0
-12832 12171 0
-12832 12390 0
12832 -12171 -12390 0
-12833 -12832 0
-12833 12831 0
12833 12832 -12831 0
-12834 12178 12397 0
-12834 -12178 -12397 0
12834 -12178 12397 0
12834 12178 -12397 0
-12835 12834 -12833 0
-12835 -12834 12833 0
12835 -12834 -12833 0
12835 12834 12833 0
-12836 12397 0
-12836 -12833 0
12836 -12397 12833 0
-12837 12178 0
-12837 -12833 0
12837 -12178 12833 0
-12838 -12837 0
-12838 -12836 0
12838 12837 12836 0
-12839 12178 0
-12839 12397 0
12839 -12178 -12397 0
-12840 -12839 0
-12840 12838 0
12840 12839 -12838 0
-12841 12185 12404 0
-12841 -12185 -12404 0
12841 -12185 12404 0
12841 12185 -12404 0
-12842 12841 -12840 0
-12842 -12841 12840 0
12842 -12841 -12840 0
12842 12841 12840 0
-12843 12404 0
-12843 -12840 0
12843 -12404 12840 0
-12844 12185 0
-12844 -12840 0
12844 -12185 12840 0
-12845 -12844 0
-12845 -12843 0
12845 12844 12843 0
-12846 12185 0
-12846 12404 0
12846 -12185 -12404 0
-12847 -12846 0
-12847 12845 0
12847 12846 -12845 0
-12848 12192 12411 0
-12848 -12192 -12411 0
12848 -12192 12411 0
12848 12192 -12411 0
-12849 12848 -12847 0
-12849 -12848 12847 0
12849 -12848 -12847 0
12849 12848 12847 0
-12850 12411 0
-12850 -12847 0
12850 -12411 12847 0
-12851 12192 0
-12851 -12847 0
12851 -12192 12847 0
-12852 -12851 0
-12852 -12850 0
12852 12851 12850 0
-12853 12192 0
-12853 12411 0
12853 -12192 -12411 0
-12854 -12853 0
-12854 12852 0
12854 12853 -12852 0
-12855 12199 12418 0
-12855 -12199 -12418 0
12855 -12199 12418 0
12855 12199 -12418 0
-12856 12855 -12854 0
-12856 -12855 12854 0
12856 -12855 -12854 0
12856 12855 12854 0
-12857 12418 0
-12857 -12854 0
12857 -12418 12854 0
-12858 12199 0
-12858 -12854 0
12858 -12199 12854 0
-12859 -12858 0
-12859 -12857 0
12859 12858 12857 0
-12860 12199 0
-12860 12418 0
12860 -12199 -12418 0
-12861 -12860 0
-12861 12859 0
12861 12860 -12859 0
-12862 12206 12425 0
-12862 -12206 -12425 0
12862 -12206 12425 0
12862 12206 -12425 0
-12863 12862 -12861 0
-12863 -12862 12861 0
12863 -12862 -12861 0
12863 12862 12861 0
-12864 12425 0
-12864 -12861 0
12864 -12425 12861 0
-12865 12206 0
-12865 -12861 0
12865 -12206 12861 0
-12866 -12865 0
-12866 -12864 0
12866 12865 12864 0
-12867 12206 0
-12867 12425 0
12867 -12206 -12425 0
-12868 -12867 0
-12868 12866 0
12868 12867 -12866 0
-12869 12469 12504 0
-12869 -12469 -12504 0
12869 -12469 12504 0
12869 12469 -12504 0
-12870 12869 12602 0
-12870 -12869 -12602 0
12870 -12869 12602 0
12870 12869 -12602 0
-12871 -12431 0
-12871 9309 0
12871 12431 -9309 0
-12872 12431 0
-12872 10870 0
12872 -12431 -10870 0
-12873 12872 12871 0
-12873 -12872 -12871 0
12873 -12872 12871 0
12873 12872 -12871 0
-12874 12660 12737 0
-12874 -12660 -12737 0
12874 -12660 12737 0
12874 12660 -12737 0
-12875 12874 12800 0
-12875 -12874 -12800 0
12875 -12874 12800 0
12875 12874 -12800 0
-12876 11089 0
-12876 9528 0
12876 -11089 -9528 0
-12877 12650 0
-12877 9528 0
12877 -12650 -9528 0
-12878 -12877 0
-12878 -12876 0
12878 12877 12876 0
-12879 12650 0
-12879 11089 0
12879 -12650 -11089 0
-12880 -12879 0
-12880 12878 0
12880 12879 -12878 0
-12881 12476 12511 0
-12881 -12476 -12511 0
12881 -12476 12511 0
12881 12476 -12511 0
-12882 12881 12609 0
-12882 -12881 -12609 0
12882 -12881 12609 0
12882 12881 -12609 0
-12883 -12434 0
-12883 9312 0
12883 12434 -9312 0
-12884 12434 0
-12884 10873 0
12884 -12434 -10873 0
-12885 12884 12883 0
-12885 -12884 -12883 0
12885 -12884 12883 0
12885 12884 -12883 0
-12886 12667 12744 0
-12886 -12667 -12744 0
12886 -12667 12744 0
12886 12667 -12744 0
-12887 12886 12807 0
-12887 -12886 -12807 0
12887 -12886 12807 0
12887 12886 -12807 0
-12888 11092 0
-12888 9531 0
12888 -11092 -9531 0
-12889 12653 0
-12889 9531 0
12889 -12653 -9531 0
-12890 -12889 0
-12890 -12888 0
12890 12889 12888 0
-12891 12653 0
-12891 11092 0
12891 -12653 -11092 0
-12892 -12891 0
-12892 12890 0
12892 12891 -12890 0
-12893 12483 12518 0
-12893 -12483 -12518 0
12893 -12483 12518 0
12893 12483 -12518 0
-12894 12893 12616 0
-12894 -12893 -12616 0
12894 -12893 12616 0
12894 12893 -12616 0
-12895 -12441 0
-12895 9319 0
12895 12441 -9319 0
-12896 12441 0
-12896 10880 0
12896 -12441 -10880 0
-12897 12896 12895 0
-12897 -12896 -12895 0
12897 -12896 12895 0
12897 12896 -12895 0
-12898 12674 12751 0
-12898 -12674 -12751 0
12898 -12674 12751 0
12898 12674 -12751 0
-12899 12898 12814 0
-12899 -12898 -12814 0
12899 -12898 12814 0
12899 12898 -12814 0
-12900 11099 0
-12900 9538 0
12900 -11099 -9538 0
-12901 12660 0
-12901 9538 0
12901 -12660 -9538 0
-12902 -12901 0
-12902 -12900 0
12902 12901 12900 0
-12903 12660 0
-12903 11099 0
12903 -12660 -11099 0
-12904 -12903 0
-12904 12902 0
12904 12903 -12902 0
-12905 12490 12525 0
-12905 -12490 -12525 0
12905 -12490 12525 0
12905 12490 -12525 0
-12906 12905 12623 0
-12906 -12905 -12623 0
12906 -12905 12623 0
12906 12905 -12623 0
-12907 -12448 0
-12907 9326 0
12907 12448 -9326 0
-12908 12448 0
-12908 10887 0
12908 -12448 -10887 0
-12909 12908 12907 0
-12909 -12908 -12907 0
12909 -12908 12907 0
12909 12908 -12907 0
-12910 12681 12758 0
-12910 -12681 -12758 0
12910 -12681 12758 0
12910 12681 -12758 0
-12911 12910 12821 0
-12911 -12910 -12821 0
12911 -12910 12821 0
12911 12910 -12821 0
-12912 11106 0
-12912 9545 0
12912 -11106 -9545 0
-12913 12667 0
-12913 9545 0
12913 -12667 -9545 0
-12914 -12913 0
-12914 -12912 0
12914 12913 12912 0
-12915 12667 0
-12915 11106 0
12915 -12667 -11106 0
-12916 -12915 0
-12916 12914 0
12916 12915 -12914 0
-12917 12497 12532 0
-12917 -12497 -12532 0
12917 -12497 12532 0
12917 12497 -12532 0
-12918 12917 12630 0
-12918 -12917 -12630 0
12918 -12917 12630 0
12918 12917 -12630 0
-12919 -12455 0
-12919 9333 0
12919 12455 -9333 0
-12920 12455 0
-12920 10894 0
12920 -12455 -10894 0
-12921 12920 12919 0
-12921 -12920 -12919 0
12921 -12920 12919 0
12921 12920 -12919 0
-12922 12688 12765 0
-12922 -12688 -12765 0
12922 -12688 12765 0
12922 12688 -12765 0
-12923 12922 12828 0
-12923 -12922 -12828 0
12923 -12922 12828 0
12923 12922 -12828 0
-12924 11113 0
-12924 9552 0
12924 -11113 -9552 0
-12925 12674 0
-12925 9552 0
12925 -12674 -9552 0
-12926 -12925 0
-12926 -12924 0
12926 12925 12924 0
-12927 12674 0
-12927 11113 0
12927 -12674 -11113 0
-12928 -12927 0
-12928 12926 0
12928 12927 -12926 0
-12929 12504 12539 0
-12929 -12504 -12539 0
12929 -12504 12539 0
12929 12504 -12539 0
-12930 12929 12637 0
-12930 -12929 -12637 0
12930 -12929 12637 0
12930 12929 -12637 0
-12931 -12462 0
-12931 9340 0
12931 12462 -9340 0
-12932 12462 0
-12932 10901 0
12932 -12462 -10901 0
-12933 12932 12931 0
-12933 -12932 -12931 0
12933 -12932 12931 0
12933 12932 -12931 0
-12934 12695 12772 0
-12934 -12695 -12772 0
12934 -12695 12772 0
12934 12695 -12772 0
-12935 12934 12835 0
-12935 -12934 -12835 0
12935 -12934 12835 0
12935 12934 -12835 0
-12936 11120 0
-12936 9559 0
12936 -11120 -9559 0
-12937 12681 0
-12937 9559 0
12937 -12681 -9559 0
-12938 -12937 0
-12938 -12936 0
12938 12937 12936 0
-12939 12681 0
-12939 11120 0
12939 -12681 -11120 0
-12940 -12939 0
-12940 12938 0
12940 12939 -12938 0
-12941 12511 12546 0
-12941 -12511 -12546 0
12941 -12511 12546 0
12941 12511 -12546 0
-12942 12941 12644 0
-12942 -12941 -12644 0
12942 -12941 12644 0
12942 12941 -12644 0
-12943 -12469 0
-12943 9347 0
12943 12469 -9347 0
-12944 12469 0
-12944 10908 0
12944 -12469 -10908 0
-12945 12944 12943 0
-12945 -12944 -12943 0
12945 -12944 12943 0
12945 12944 -12943 0
-12946 12702 12779 0
-12946 -12702 -12779 0
12946 -12702 12779 0
12946 12702 -12779 0
-12947 12946 12842 0
-12947 -12946 -12842 0
12947 -12946 12842 0
12947 12946 -12842 0
-12948 11127 0
-12948 9566 0
12948 -11127 -9566 0
-12949 12688 0
-12949 9566 0
12949 -12688 -9566 0
-12950 -12949 0
-12950 -12948 0
12950 12949 12948 0
-12951 12688 0
-12951 11127 0
12951 -12688 -11127 0
-12952 -12951 0
-12952 12950 0
12952 12951 -12950 0
-12953 12518 12553 0
-12953 -12518 -12553 0
12953 -12518 12553 0
12953 12518 -12553 0
-12954 12953 12431 0
-12954 -12953 -12431 0
12954 -12953 12431 0
12954 12953 -12431 0
-12955 -12476 0
-12955 9354 0
12955 12476 -9354 0
-12956 12476 0
-12956 10915 0
12956 -12476 -10915 0
-12957 12956 12955 0
-12957 -12956 -12955 0
12957 -12956 12955 0
12957 12956 -12955 0
-12958 12709 12786 0
-12958 -12709 -12786 0
12958 -12709 12786 0
12958 12709 -12786 0
-12959 12958 12849 0
-12959 -12958 -12849 0
12959 -12958 12849 0
12959 12958 -12849 0
-12960 11134 0
-12960 9573 0
12960 -11134 -9573 0
-12961 12695 0
-12961 9573 0
12961 -12695 -9573 0
-12962 -12961 0
-12962 -12960 0
12962 12961 12960 0
-12963 12695 0
-12963 11134 0
12963 -12695 -11134 0
-12964 -12963 0
-12964 12962 0
12964 12963 -12962 0
-12965 12525 12560 0
-12965 -12525 -12560 0
12965 -12525 12560 0
12965 12525 -12560 0
-12966 12965 12434 0
-12966 -12965 -12434 0
12966 -12965 12434 0
12966 12965 -12434 0
-12967 -12483 0
-12967 9361 0
12967 12483 -9361 0
-12968 12483 0
-12968 10922 0
12968 -12483 -10922 0
-12969 12968 12967 0
-12969 -12968 -12967 0
12969 -12968 12967 0
12969 12968 -12967 0
-12970 12716 12793 0
-12970 -12716 -12793 0
12970 -12716 12793 0
12970 12716 -12793 0
-12971 12970 12856 0
-12971 -12970 -12856 0
12971 -12970 12856 0
12971 12970 -12856 0
-12972 11141 0
-12972 9580 0
12972 -11141 -9580 0
-12973 12702 0
-12973 9580 0
12973 -12702 -9580 0
-12974 -12973 0
-12974 -12972 0
12974 12973 12972 0
-12975 12702 0
-12975 11141 0
12975 -12702 -11141 0
-12976 -12975 0
-12976 12974 0
12976 12975 -12974 0
-12977 12532 12567 0
-12977 -12532 -12567 0
12977 -12532 12567 0
12977 12532 -12567 0
-12978 12977 12441 0
-12978 -12977 -12441 0
12978 -12977 12441 0
12978 12977 -12441 0
-12979 -12490 0
-12979 9368 0
12979 12490 -9368 0
-12980 12490 0
-12980 10929 0
12980 -12490 -10929 0
-12981 12980 12979 0
-12981 -12980 -12979 0
12981 -12980 12979 0
12981 12980 -12979 0
-12982 12723 12800 0
-12982 -12723 -12800 0
12982 -12723 12800 0
12982 12723 -12800 0
-12983 12982 12863 0
-12983 -12982 -12863 0
12983 -12982 12863 0
12983 12982 -12863 0
-12984 11148 0
-12984 9587 0
12984 -11148 -9587 0
-12985 12709 0
-12985 9587 0
12985 -12709 -9587 0
-12986 -12985 0
-12986 -12984 0
12986 12985 12984 0
-12987 12709 0
-12987 11148 0
12987 -12709 -11148 0
-12988 -12987 0
-12988 12986 0
12988 12987 -12986 0
-12989 12539 12574 0
-12989 -12539 -12574 0
12989 -12539 12574 0
12989 12539 -12574 0
-12990 12989 12448 0
-12990 -12989 -12448 0
12990 -12989 12448 0
12990 12989 -12448 0
-12991 -12497 0
-12991 9375 0
12991 12497 -9375 0
-12992 12497 0
-12992 10936 0
12992 -12497 -10936 0
-12993 12992 12991 0
-12993 -12992 -12991 0
12993 -12992 12991 0
12993 12992 -12991 0
-12994 12730 12807 0
-12994 -12730 -12807 0
12994 -12730 12807 0
12994 12730 -12807 0
-12995 12994 12650 0
-12995 -12994 -12650 0
12995 -12994 12650 0
12995 12994 -12650 0
-12996 11155 0
-12996 9594 0
12996 -11155 -9594 0
-12997 12716 0
-12997 9594 0
12997 -12716 -9594 0
-12998 -12997 0
-12998 -12996 0
12998 12997 12996 0
-12999 12716 0
-12999 11155 0
12999 -12716 -11155 0
-13000 -12999 0
-13000 12998 0
13000 12999 -12998 0
-13001 12546 12581 0
-13001 -12546 -12581 0
13001 -12546 12581 0
13001 12546 -12581 0
-13002 13001 12455 0
-13002 -13001 -12455 0
13002 -13001 12455 0
13002 13001 -12455 0
-13003 -12504 0
-13003 9382 0
13003 12504 -9382 0
-13004 12504 0
-13004 10943 0
13004 -12504 -10943 0
-13005 13004 13003 0
-13005 -13004 -13003 0
13005 -13004 13003 0
13005 13004 -13003 0
-13006 12737 12814 0
-13006 -12737 -12814 0
13006 -12737 12814 0
13006 12737 -12814 0
-13007 13006 12653 0
-13007 -13006 -12653 0
13007 -13006 12653 0
13007 13006 -12653 0
-13008 11162 0
-13008 9601 0
13008 -11162 -9601 0
-13009 12723 0
-13009 9601 0
13009 -12723 -9601 0
-13010 -13009 0
-13010 -13008 0
13010 13009 13008 0
-13011 12723 0
-13011 11162 0
13011 -12723 -11162 0
-13012 -13011 0
-13012 13010 0
13012 13011 -13010 0
-13013 12553 12588 0
-13013 -12553 -12588 0
13013 -12553 12588 0
13013 12553 -12588 0
-13014 13013 12462 0
-13014 -13013 -12462 0
13014 -13013 12462 0
13014 13013 -12462 0
-13015 -12511 0
-13015 9389 0
13015 12511 -9389 0
-13016 12511 0
-13016 10950 0
13016 -12511 -10950 0
-13017 13016 13015 0
-13017 -13016 -13015 0
13017 -13016 13015 0
13017 13016 -13015 0
-13018 12744 12821 0
-13018 -12744 -12821 0
13018 -12744 12821 0
13018 12744 -12821 0
-13019 13018 12660 0
-13019 -13018 -12660 0
13019 -13018 12660 0
13019 13018 -12660 0
-13020 11169 0
-13020 9608 0
13020 -11169 -9608 0
-13021 12730 0
-13021 9608 0
13021 -12730 -9608 0
-13022 -13021 0
-13022 -13020 0
13022 13021 13020 0
-13023 12730 0
-13023 11169 0
13023 -12730 -11169 0
-13024 -13023 0
-13024 13022 0
13024 13023 -13022 0
-13025 12560 12595 0
-13025 -12560 -12595 0
13025 -12560 12595 0
13025 12560 -12595 0
-13026 13025 12469 0
-13026 -13025 -12469 0
13026 -13025 12469 0
13026 13025 -12469 0
-13027 -12518 0
-13027 9396 0
13027 12518 -9396 0
-13028 12518 0
-13028 10957 0
13028 -12518 -10957 0
-13029 13028 13027 0
-13029 -13028 -13027 0
13029 -13028 13027 0
13029 13028 -13027 0
-13030 12751 12828 0
-13030 -12751 -12828 0
13030 -12751 12828 0
13030 12751 -12828 0
-13031 13030 12667 0
-13031 -13030 -12667 0
13031 -13030 12667 0
13031 13030 -12667 0
-13032 11176 0
-13032 9615 0
13032 -11176 -9615 0
-13033 12737 0
-13033 9615 0
13033 -12737 -9615 0
-13034 -13033 0
-13034 -13032 0
13034 13033 13032 0
-13035 12737 0
-13035 11176 0
13035 -12737 -11176 0
-13036 -13035 0
-13036 13034 0
13036 13035 -13034 0
-13037 12567 12602 0
-13037 -12567 -12602 0
13037 -12567 12602 0
13037 12567 -12602 0
-13038 13037 12476 0
-13038 -13037 -12476 0
13038 -13037 12476 0
13038 13037 -12476 0
-13039 -12525 0
-13039 9403 0
13039 12525 -9403 0
-13040 12525 0
-13040 10964 0
13040 -12525 -10964 0
-13041 13040 13039 0
-13041 -13040 -13039 0
13041 -13040 13039 0
13041 13040 -13039 0
-13042 12758 12835 0
-13042 -12758 -12835 0
13042 -12758 12835 0
13042 12758 -12835 0
-13043 13042 12674 0
-13043 -13042 -12674 0
13043 -13042 12674 0
13043 13042 -12674 0
-13044 11183 0
-13044 9622 0
13044 -11183 -9622 0
-13045 12744 0
-13045 9622 0
13045 -12744 -9622 0
-13046 -13045 0
-13046 -13044 0
13046 13045 13044 0
-13047 12744 0
-13047 11183 0
13047 -12744 -11183 0
-13048 -13047 0
-13048 13046 0
13048 13047 -13046 0
-13049 12574 12609 0
-13049 -12574 -12609 0
13049 -12574 12609 0
13049 12574 -12609 0
-13050 13049 12483 0
-13050 -13049 -12483 0
13050 -13049 12483 0
13050 13049 -12483 0
-13051 -12532 0
-13051 9410 0
13051 12532 -9410 0
-13052 12532 0
-13052 10971 0
13052 -12532 -10971 0
-13053 13052 13051 0
-13053 -13052 -13051 0
13053 -13052 13051 0
13053 13052 -13051 0
-13054 12765 12842 0
-13054 -12765 -12842 0
13054 -12765 12842 0
13054 12765 -12842 0
-13055 13054 12681 0
-13055 -13054 -12681 0
13055 -13054 12681 0
13055 13054 -12681 0
-13056 11190 0
-13056 9629 0
13056 -11190 -9629 0
-13057 12751 0
-13057 9629 0
13057 -12751 -9629 0
-13058 -13057 0
-13058 -13056 0
13058 13057 13056 0
-13059 12751 0
-13059 11190 0
13059 -12751 -11190 0
-13060 -13059 0
-13060 13058 0
13060 13059 -13058 0
-13061 12581 12616 0
-13061 -12581 -12616 0
13061 -12581 12616 0
13061 12581 -12616 0
-13062 13061 12490 0
-13062 -13061 -12490 0
13062 -13061 12490 0
13062 13061 -12490 0
-13063 -12539 0
-13063 9417 0
13063 12539 -9417 0
-13064 12539 0
-13064 10978 0
13064 -12539 -10978 0
-13065 13064 13063 0
-13065 -13064 -13063 0
13065 -13064 13063 0
13065 13064 -13063 0
-13066 12772 12849 0
-13066 -12772 -12849 0
13066 -12772 12849 0
13066 12772 -12849 0
-13067 13066 12688 0
-13067 -13066 -12688 0
13067 -13066 12688 0
13067 13066 -12688 0
-13068 11197 0
-13068 9636 0
13068 -11197 -9636 0
-13069 12758 0
-13069 9636 0
13069 -12758 -9636 0
-13070 -13069 0
-13070 -13068 0
13070 13069 13068 0
-13071 12758 0
-13071 11197 0
13071 -12758 -11197 0
-13072 -13071 0
-13072 13070 0
13072 13071 -13070 0
-13073 12588 12623 0
-13073 -12588 -12623 0
13073 -12588 12623 0
13073 12588 -12623 0
-13074 13073 12497 0
-13074 -13073 -12497 0
13074 -13073 12497 0
13074 13073 -12497 0
-13075 -12546 0
-13075 9424 0
13075 12546 -9424 0
-13076 12546 0
-13076 10985 0
13076 -12546 -10985 0
-13077 13076 13075 0
-13077 -13076 -13075 0
13077 -13076 13075 0
13077 13076 -13075 0
-13078 12779 12856 0
-13078 -12779 -12856 0
13078 -12779 12856 0
13078 12779 -12856 0
-13079 13078 12695 0
-13079 -13078 -12695 0
13079 -13078 12695 0
13079 13078 -12695 0
-13080 11204 0
-13080 9643 0
13080 -11204 -9643 0
-13081 12765 0
-13081 9643 0
13081 -12765 -9643 0
-13082 -13081 0
-13082 -13080 0
13082 13081 13080 0
-13083 12765 0
-13083 11204 0
13083 -12765 -11204 0
-13084 -13083 0
-13084 13082 0
13084 13083 -13082 0
-13085 12595 12630 0
-13085 -12595 -12630 0
13085 -12595 12630 0
13085 12595 -12630 0
-13086 13085 12504 0
-13086 -13085 -12504 0
13086 -13085 12504 0
13086 13085 -12504 0
-13087 -12553 0
-13087 9431 0
13087 12553 -9431 0
-13088 12553 0
-13088 10992 0
13088 -12553 -10992 0
-13089 13088 13087 0
-13089 -13088 -13087 0
13089 -13088 13087 0
13089 13088 -13087 0
-13090 12786 12863 0
-13090 -12786 -12863 0
13090 -12786 12863 0
13090 12786 -12863 0
-13091 13090 12702 0
-13091 -13090 -12702 0
13091 -13090 12702 0
13091 13090 -12702 0
-13092 11211 0
-13092 9650 0
13092 -11211 -9650 0
-13093 12772 0
-13093 9650 0
13093 -12772 -9650 0
-13094 -13093 0
-13094 -13092 0
13094 13093 13092 0
-13095 12772 0
-13095 11211 0
13095 -12772 -11211 0
-13096 -13095 0
-13096 13094 0
13096 13095 -13094 0
-13097 12602 12637 0
-13097 -12602 -12637 0
13097 -12602 12637 0
13097 12602 -12637 0
-13098 13097 12511 0
-13098 -13097 -12511 0
13098 -13097 12511 0
13098 13097 -12511 0
-13099 -12560 0
-13099 9438 0
13099 12560 -9438 0
-13100 12560 0
-13100 10999 0
13100 -12560 -10999 0
-13101 13100 13099 0
-13101 -13100 -13099 0
13101 -13100 13099 0
13101 13100 -13099 0
-13102 12793 12650 0
-13102 -12793 -12650 0
13102 -12793 12650 0
13102 12793 -12650 0
-13103 13102 12709 0
-13103 -13102 -12709 0
13103 -13102 12709 0
13103 13102 -12709 0
-13104 11218 0
-13104 9657 0
13104 -11218 -9657 0
-13105 12779 0
-13105 9657 0
13105 -12779 -9657 0
-13106 -13105 0
-13106 -13104 0
13106 13105 13104 0
-13107 12779 0
-13107 11218 0
13107 -12779 -11218 0
-13108 -13107 0
-13108 13106 0
13108 13107 -13106 0
-13109 12609 12644 0
-13109 -12609 -12644 0
13109 -12609 12644 0
13109 12609 -12644 0
-13110 13109 12518 0
-13110 -13109 -12518 0
13110 -13109 12518 0
13110 13109 -12518 0
-13111 -12567 0
-13111 9445 0
13111 12567 -9445 0
-13112 12567 0
-13112 11006 0
13112 -12567 -11006 0
-13113 13112 13111 0
-13113 -13112 -13111 0
13113 -13112 13111 0
13113 13112 -13111 0
-13114 12800 12653 0
-13114 -12800 -12653 0
13114 -12800 12653 0
13114 12800 -12653 0
-13115 13114 12716 0
-13115 -13114 -12716 0
13115 -13114 12716 0
13115 13114 -12716 0
-13116 11225 0
-13116 9664 0
13116 -11225 -9664 0
-13117 12786 0
-13117 9664 0
13117 -12786 -9664 0
-13118 -13117 0
-13118 -13116 0
13118 13117 13116 0
-13119 12786 0
-13119 11225 0
13119 -12786 -11225 0
-13120 -13119 0
-13120 13118 0
13120 13119 -13118 0
-13121 12616 12431 0
-13121 -12616 -12431 0
13121 -12616 12431 0
13121 12616 -12431 0
-13122 13121 12525 0
-13122 -13121 -12525 0
13122 -13121 12525 0
13122 13121 -12525 0
-13123 -12574 0
-13123 9452 0
13123 12574 -9452 0
-13124 12574 0
-13124 11013 0
13124 -12574 -11013 0
-13125 13124 13123 0
-13125 -13124 -13123 0
13125 -13124 13123 0
13125 13124 -13123 0
-13126 12807 12660 0
-13126 -12807 -12660 0
13126 -12807 12660 0
13126 12807 -12660 0
-13127 13126 12723 0
-13127 -13126 -12723 0
13127 -13126 12723 0
13127 13126 -12723 0
-13128 11232 0
-13128 9671 0
13128 -11232 -9671 0
-13129 12793 0
-13129 9671 0
13129 -12793 -9671 0
-13130 -13129 0
-13130 -13128 0
13130 13129 13128 0
-13131 12793 0
-13131 11232 0
13131 -12793 -11232 0
-13132 -13131 0
-13132 13130 0
13132 13131 -13130 0
-13133 12623 12434 0
-13133 -12623 -12434 0
13133 -12623 12434 0
13133 12623 -12434 0
-13134 13133 12532 0
-13134 -13133 -12532 0
13134 -13133 12532 0
13134 13133 -12532 0
-13135 -12581 0
-13135 9459 0
13135 12581 -9459 0
-13136 12581 0
-13136 11020 0
13136 -12581 -11020 0
-13137 13136 13135 0
-13137 -13136 -13135 0
13137 -13136 13135 0
13137 13136 -13135 0
-13138 12814 12667 0
-13138 -12814 -12667 0
13138 -12814 12667 0
13138 12814 -12667 0
-13139 13138 12730 0
-13139 -13138 -12730 0
13139 -13138 12730 0
13139 13138 -12730 0
-13140 11239 0
-13140 9678 0
13140 -11239 -9678 0
-13141 12800 0
-13141 9678 0
13141 -12800 -9678 0
-13142 -13141 0
-13142 -13140 0
13142 13141 13140 0
-13143 12800 0
-13143 11239 0
13143 -12800 -11239 0
-13144 -13143 0
-13144 13142 0
13144 13143 -13142 0
-13145 12630 12441 0
-13145 -12630 -12441 0
13145 -12630 12441 0
13145 12630 -12441 0
-13146 13145 12539 0
-13146 -13145 -12539 0
13146 -13145 12539 0
13146 13145 -12539 0
-13147 -12588 0
-13147 9466 0
13147 12588 -9466 0
-13148 12588 0
-13148 11027 0
13148 -12588 -11027 0
-13149 13148 13147 0
-13149 -13148 -13147 0
13149 -13148 13147 0
13149 13148 -13147 0
-13150 12821 12674 0
-13150 -12821 -12674 0
13150 -12821 12674 0
13150 12821 -12674 0
-13151 13150 12737 0
-13151 -13150 -12737 0
13151 -13150 12737 0
13151 13150 -12737 0
-13152 11246 0
-13152 9685 0
13152 -11246 -9685 0
-13153 12807 0
-13153 9685 0
13153 -12807 -9685 0
-13154 -13153 0
-13154 -13152 0
13154 13153 13152 0
-13155 12807 0
-13155 11246 0
13155 -12807 -11246 0
-13156 -13155 0
-13156 13154 0
13156 13155 -13154 0
-13157 12637 12448 0
-13157 -12637 -12448 0
13157 -12637 12448 0
13157 12637 -12448 0
-13158 13157 12546 0
-13158 -13157 -12546 0
13158 -13157 12546 0
13158 13157 -12546 0
-13159 -12595 0
-13159 9473 0
13159 12595 -9473 0
-13160 12595 0
-13160 11034 0
13160 -12595 -11034 0
-13161 13160 13159 0
-13161 -13160 -13159 0
13161 -13160 13159 0
13161 13160 -13159 0
-13162 12828 12681 0
-13162 -12828 -12681 0
13162 -12828 12681 0
13162 12828 -12681 0
-13163 13162 12744 0
-13163 -13162 -12744 0
13163 -13162 12744 0
13163 13162 -12744 0
-13164 11253 0
-13164 9692 0
13164 -11253 -9692 0
-13165 12814 0
-13165 9692 0
13165 -12814 -9692 0
-13166 -13165 0
-13166 -13164 0
13166 13165 13164 0
-13167 12814 0
-13167 11253 0
13167 -12814 -11253 0
-13168 -13167 0
-13168 13166 0
13168 13167 -13166 0
-13169 12644 12455 0
-13169 -12644 -12455 0
13169 -12644 12455 0
13169 12644 -12455 0
-13170 13169 12553 0
-13170 -13169 -12553 0
13170 -13169 12553 0
13170 13169 -12553 0
-13171 -12602 0
-13171 9480 0
13171 12602 -9480 0
-13172 12602 0
-13172 11041 0
13172 -12602 -11041 0
-13173 13172 13171 0
-13173 -13172 -13171 0
13173 -13172 13171 0
13173 13172 -13171 0
-13174 12835 12688 0
-13174 -12835 -12688 0
13174 -12835 12688 0
13174 12835 -12688 0
-13175 13174 12751 0
-13175 -13174 -12751 0
13175 -13174 12751 0
13175 13174 -12751 0
-13176 11260 0
-13176 9699 0
13176 -11260 -9699 0
-13177 12821 0
-13177 9699 0
13177 -12821 -9699 0
-13178 -13177 0
-13178 -13176 0
13178 13177 13176 0
-13179 12821 0
-13179 11260 0
13179 -12821 -11260 0
-13180 -13179 0
-13180 13178 0
13180 13179 -13178 0
-13181 12431 12462 0
-13181 -12431 -12462 0
13181 -12431 12462 0
13181 12431 -12462 0
-13182 13181 12560 0
-13182 -13181 -12560 0
13182 -13181 12560 0
13182 13181 -12560 0
-13183 -12609 0
-13183 9487 0
13183 12609 -9487 0
-13184 12609 0
-13184 11048 0
13184 -12609 -11048 0
-13185 13184 13183 0
-13185 -13184 -13183 0
13185 -13184 13183 0
13185 13184 -13183 0
-13186 12842 12695 0
-13186 -12842 -12695 0
13186 -12842 12695 0
13186 12842 -12695 0
-13187 13186 12758 0
-13187 -13186 -12758 0
13187 -13186 12758 0
13187 13186 -12758 0
-13188 11267 0
-13188 9706 0
13188 -11267 -9706 0
-13189 12828 0
-13189 9706 0
13189 -12828 -9706 0
-13190 -13189 0
-13190 -13188 0
13190 13189 13188 0
-13191 12828 0
-13191 11267 0
13191 -12828 -11267 0
-13192 -13191 0
-13192 13190 0
13192 13191 -13190 0
-13193 12434 12469 0
-13193 -12434 -12469 0
13193 -12434 12469 0
13193 12434 -12469 0
-13194 13193 12567 0
-13194 -13193 -12567 0
13194 -13193 12567 0
13194 13193 -12567 0
-13195 -12616 0
-13195 9494 0
13195 12616 -9494 0
-13196 12616 0
-13196 11055 0
13196 -12616 -11055 0
-13197 13196 13195 0
-13197 -13196 -13195 0
13197 -13196 13195 0
13197 13196 -13195 0
-13198 12849 12702 0
-13198 -12849 -12702 0
13198 -12849 12702 0
13198 12849 -12702 0
-13199 13198 12765 0
-13199 -13198 -12765 0
13199 -13198 12765 0
13199 13198 -12765 0
-13200 11274 0
-13200 9713 0
13200 -11274 -9713 0
-13201 12835 0
-13201 9713 0
13201 -12835 -9713 0
-13202 -13201 0
-13202 -13200 0
13202 13201 13200 0
-13203 12835 0
-13203 11274 0
13203 -12835 -11274 0
-13204 -13203 0
-13204 13202 0
13204 13203 -13202 0
-13205 12441 12476 0
-13205 -12441 -12476 0
13205 -12441 12476 0
13205 12441 -12476 0
-13206 13205 12574 0
-13206 -13205 -12574 0
13206 -13205 12574 0
13206 13205 -12574 0
-13207 -12623 0
-13207 9501 0
13207 12623 -9501 0
-13208 12623 0
-13208 11062 0
13208 -12623 -11062 0
-13209 13208 13207 0
-13209 -13208 -13207 0
13209 -13208 13207 0
13209 13208 -13207 0
-13210 12856 12709 0
-13210 -12856 -12709 0
13210 -12856 12709 0
13210 12856 -12709 0
-13211 13210 12772 0
-13211 -13210 -12772 0
13211 -13210 12772 0
13211 13210 -12772 0
-13212 11281 0
-13212 9720 0
13212 -11281 -9720 0
-13213 12842 0
-13213 9720 0
13213 -12842 -9720 0
-13214 -13213 0
-13214 -13212 0
13214 13213 13212 0
-13215 12842 0
-13215 11281 0
13215 -12842 -11281 0
-13216 -13215 0
-13216 13214 0
13216 13215 -13214 0
-13217 12448 12483 0
-13217 -12448 -12483 0
13217 -12448 12483 0
13217 12448 -12483 0
-13218 13217 12581 0
-13218 -13217 -12581 0
13218 -13217 12581 0
13218 13217 -12581 0
-13219 -12630 0
-13219 9508 0
13219 12630 -9508 0
-13220 12630 0
-13220 11069 0
13220 -12630 -11069 0
-13221 13220 13219 0
-13221 -13220 -13219 0
13221 -13220 13219 0
13221 13220 -13219 0
-13222 12863 12716 0
-13222 -12863 -12716 0
13222 -12863 12716 0
13222 12863 -12716 0
-13223 13222 12779 0
-13223 -13222 -12779 0
13223 -13222 12779 0
13223 13222 -12779 0
-13224 11288 0
-13224 9727 0
13224 -11288 -9727 0
-13225 12849 0
-13225 9727 0
13225 -12849 -9727 0
-13226 -13225 0
-13226 -13224 0
13226 13225 13224 0
-13227 12849 0
-13227 11288 0
13227 -12849 -11288 0
-13228 -13227 0
-13228 13226 0
13228 13227 -13226 0
-13229 12455 12490 0
-13229 -12455 -12490 0
13229 -12455 12490 0
13229 12455 -12490 0
-13230 13229 12588 0
-13230 -13229 -12588 0
13230 -13229 12588 0
13230 13229 -12588 0
-13231 -12637 0
-13231 9515 0
13231 12637 -9515 0
-13232 12637 0
-13232 11076 0
13232 -12637 -11076 0
-13233 13232 13231 0
-13233 -13232 -13231 0
13233 -13232 13231 0
13233 13232 -13231 0
-13234 12650 12723 0
-13234 -12650 -12723 0
13234 -12650 12723 0
13234 12650 -12723 0
-13235 13234 12786 0
-13235 -13234 -12786 0
13235 -13234 12786 0
13235 13234 -12786 0
-13236 11295 0
-13236 9734 0
13236 -11295 -9734 0
-13237 12856 0
-13237 9734 0
13237 -12856 -9734 0
-13238 -13237 0
-13238 -13236 0
13238 13237 13236 0
-13239 12856 0
-13239 11295 0
13239 -12856 -11295 0
-13240 -13239 0
-13240 13238 0
13240 13239 -13238 0
-13241 12462 12497 0
-13241 -12462 -12497 0
13241 -12462 12497 0
13241 12462 -12497 0
-13242 13241 12595 0
-13242 -13241 -12595 0
13242 -13241 12595 0
13242 13241 -12595 0
-13243 -12644 0
-13243 9522 0
13243 12644 -9522 0
-13244 12644 0
-13244 11083 0
13244 -12644 -11083 0
-13245 13244 13243 0
-13245 -13244 -13243 0
13245 -13244 13243 0
13245 13244 -13243 0
-13246 12653 12730 0
-13246 -12653 -12730 0
13246 -12653 12730 0
13246 12653 -12730 0
-13247 13246 12793 0
-13247 -13246 -12793 0
13247 -13246 12793 0
13247 13246 -12793 0
-13248 11302 0
-13248 9741 0
13248 -11302 -9741 0
-13249 12863 0
-13249 9741 0
13249 -12863 -9741 0
-13250 -13249 0
-13250 -13248 0
13250 13249 13248 0
-13251 12863 0
-13251 11302 0
13251 -12863 -11302 0
-13252 -13251 0
-13252 13250 0
13252 13251 -13250 0
-13253 -12897 12885 0
-13253 12897 -12885 0
13253 12897 12885 0
13253 -12897 -12885 0
-13254 12897 0
-13254 12885 0
13254 -12897 -12885 0
-13255 -13254 0
-13255 -12885 0
13255 13254 12885 0
-13256 -12897 0
-13256 13255 0
13256 12897 -13255 0
-13257 -12909 -13256 0
-13257 12909 13256 0
13257 12909 -13256 0
13257 -12909 13256 0
-13258 12909 0
-13258 -13256 0
13258 -12909 13256 0
-13259 -13258 0
-13259 13256 0
13259 13258 -13256 0
-13260 -12909 0
-13260 13259 0
13260 12909 -13259 0
-13261 -12921 -13260 0
-13261 12921 13260 0
13261 12921 -13260 0
13261 -12921 13260 0
-13262 12921 0
-13262 -13260 0
13262 -12921 13260 0
-13263 -13262 0
-13263 13260 0
13263 13262 -13260 0
-13264 -12921 0
-13264 13263 0
13264 12921 -13263 0
-13265 -12933 -13264 0
-13265 12933 13264 0
13265 12933 -13264 0
13265 -12933 13264 0
-13266 12933 0
-13266 -13264 0
13266 -12933 13264 0
-13267 -13266 0
-13267 13264 0
13267 13266 -13264 0
-13268 -12933 0
-13268 13267 0
13268 12933 -13267 0
-13269 12945 -13268 0
-13269 -12945 13268 0
13269 -12945 -13268 0
13269 12945 13268 0
-13270 12945 0
-13270 -13268 0
13270 -12945 13268 0
-13271 -12957 13270 0
-13271 12957 -13270 0
13271 12957 13270 0
13271 -12957 -13270 0
-13272 12957 0
-13272 13270 0
13272 -12957 -13270 0
-13273 -13272 0
-13273 -13270 0
13273 13272 13270 0
-13274 -12957 0
-13274 13273 0
13274 12957 -13273 0
-13275 -12969 -13274 0
-13275 12969 13274 0
13275 12969 -13274 0
13275 -12969 13274 0
-13276 12969 0
-13276 -13274 0
13276 -12969 13274 0
-13277 -13276 0
-13277 13274 0
13277 13276 -13274 0
-13278 -12969 0
-13278 13277 0
13278 12969 -13277 0
-13279 12981 -13278 0
-13279 -12981 13278 0
13279 -12981 -13278 0
13279 12981 13278 0
-13280 12981 0
-13280 -13278 0
13280 -12981 13278 0
-13281 -12993 13280 0
-13281 12993 -13280 0
13281 12993 13280 0
13281 -12993 -13280 0
-13282 12993 0
-13282 13280 0
13282 -12993 -13280 0
-13283 -13282 0
-13283 -13280 0
13283 13282 13280 0
-13284 -12993 0
-13284 13283 0
13284 12993 -13283 0
-13285 13005 -13284 0
-13285 -13005 13284 0
13285 -13005 -13284 0
13285 13005 13284 0
-13286 13005 0
-13286 -13284 0
13286 -13005 13284 0
-13287 13017 13286 0
-13287 -13017 -13286 0
13287 -13017 13286 0
13287 13017 -13286 0
-13288 13017 0
-13288 13286 0
13288 -13017 -13286 0
-13289 13029 13288 0
-13289 -13029 -13288 0
13289 -13029 13288 0
13289 13029 -13288 0
-13290 13029 0
-13290 13288 0
13290 -13029 -13288 0
-13291 13041 13290 0
-13291 -13041 -13290 0
13291 -13041 13290 0
13291 13041 -13290 0
-13292 13041 0
-13292 13290 0
13292 -13041 -13290 0
-13293 -13053 13292 0
-13293 13053 -13292 0
13293 13053 13292 0
13293 -13053 -13292 0
-13294 13053 0
-13294 13292 0
13294 -13053 -13292 0
-13295 -13294 0
-13295 -13292 0
13295 13294 13292 0
-13296 -13053 0
-13296 13295 0
13296 13053 -13295 0
-13297 -13065 -13296 0
-13297 13065 13296 0
13297 13065 -13296 0
13297 -13065 13296 0
-13298 13065 0
-13298 -13296 0
13298 -13065 13296 0
-13299 -13298 0
-13299 13296 0
13299 13298 -13296 0
-13300 -13065 0
-13300 13299 0
13300 13065 -13299 0
-13301 13077 -13300 0
-13301 -13077 13300 0
13301 -13077 -13300 0
13301 13077 13300 0
-13302 13077 0
-13302 -13300 0
13302 -13077 13300 0
-13303 13089 13302 0
-13303 -13089 -13302 0
13303 -13089 13302 0
13303 13089 -13302 0
-13304 13089 0
-13304 13302 0
13304 -13089 -13302 0
-13305 13101 13304 0
-13305 -13101 -13304 0
13305 -13101 13304 0
13305 13101 -13304 0
-13306 13101 0
-13306 13304 0
13306 -13101 -13304 0
-13307 -13113 13306 0
-13307 13113 -13306 0
13307 13113 13306 0
13307 -13113 -13306 0
-13308 13113 0
-13308 13306 0
13308 -13113 -13306 0
-13309 -13308 0
-13309 -13306 0
13309 13308 13306 0
-13310 -13113 0
-13310 13309 0
13310 13113 -13309 0
-13311 -13125 -13310 0
-13311 13125 13310 0
13311 13125 -13310 0
13311 -13125 13310 0
-13312 13125 0
-13312 -13310 0
13312 -13125 13310 0
-13313 -13312 0
-13313 13310 0
13313 13312 -13310 0
-13314 -13125 0
-13314 13313 0
13314 13125 -13313 0
-13315 13137 -13314 0
-13315 -13137 13314 0
13315 -13137 -13314 0
13315 13137 13314 0
-13316 13137 0
-13316 -13314 0
13316 -13137 13314 0
-13317 13149 13316 0
-13317 -13149 -13316 0
13317 -13149 13316 0
13317 13149 -13316 0
-13318 13149 0
-13318 13316 0
13318 -13149 -13316 0
-13319 13161 13318 0
-13319 -13161 -13318 0
13319 -13161 13318 0
13319 13161 -13318 0
-13320 13161 0
-13320 13318 0
13320 -13161 -13318 0
-13321 13173 13320 0
-13321 -13173 -13320 0
13321 -13173 13320 0
13321 13173 -13320 0
-13322 13173 0
-13322 13320 0
13322 -13173 -13320 0
-13323 -13185 13322 0
-13323 13185 -13322 0
13323 13185 13322 0
13323 -13185 -13322 0
-13324 13185 0
-13324 13322 0
13324 -13185 -13322 0
-13325 -13324 0
-13325 -13322 0
13325 13324 13322 0
-13326 -13185 0
-13326 13325 0
13326 13185 -13325 0
-13327 13197 -13326 0
-13327 -13197 13326 0
13327 -13197 -13326 0
13327 13197 13326 0
-13328 13197 0
-13328 -13326 0
13328 -13197 13326 0
-13329 13209 13328 0
-13329 -13209 -13328 0
13329 -13209 13328 0
13329 13209 -13328 0
-13330 13209 0
-13330 13328 0
13330 -13209 -13328 0
-13331 -13221 13330 0
-13331 13221 -13330 0
13331 13221 13330 0
13331 -13221 -13330 0
-13332 13221 0
-13332 13330 0
13332 -13221 -13330 0
-13333 -13332 0
-13333 -13330 0
13333 13332 13330 0
-13334 -13221 0
-13334 13333 0
13334 13221 -13333 0
-13335 13233 -13334 0
-13335 -13233 13334 0
13335 -13233 -13334 0
13335 13233 13334 0
-13336 13233 0
-13336 -13334 0
13336 -13233 13334 0
-13337 13245 13336 0
-13337 -13245 -13336 0
13337 -13245 13336 0
13337 13245 -13336 0
-13338 13245 0
-13338 13336 0
13338 -13245 -13336 0
-13339 7734 12870 0
-13339 -7734 -12870 0
13339 -7734 12870 0
13339 7734 -12870 0
-13340 7734 0
-13340 12870 0
13340 -7734 -12870 0
-13341 7737 12882 0
-13341 -7737 -12882 0
13341 -7737 12882 0
13341 7737 -12882 0
-13342 13341 13340 0
-13342 -13341 -13340 0
13342 -13341 13340 0
13342 13341 -13340 0
-13343 12882 0
-13343 13340 0
13343 -12882 -13340 0
-13344 7737 0
-13344 13340 0
13344 -7737 -13340 0
-13345 -13344 0
-13345 -13343 0
13345 13344 13343 0
-13346 7737 0
-13346 12882 0
13346 -7737 -12882 0
-13347 -13346 0
-13347 13345 0
13347 13346 -13345 0
-13348 7744 12894 0
-13348 -7744 -12894 0
13348 -7744 12894 0
13348 7744 -12894 0
-13349 13348 -13347 0
-13349 -13348 13347 0
13349 -13348 -13347 0
13349 13348 13347 0
-13350 12894 0
-13350 -13347 0
13350 -12894 13347 0
-13351 7744 0
-13351 -13347 0
13351 -7744 13347 0
-13352 -13351 0
-13352 -13350 0
13352 13351 13350 0
-13353 7744 0
-13353 12894 0
13353 -7744 -12894 0
-13354 -13353 0
-13354 13352 0
13354 13353 -13352 0
-13355 7751 12906 0
-13355 -7751 -12906 0
13355 -7751 12906 0
13355 7751 -12906 0
-13356 13355 -13354 0
-13356 -13355 13354 0
13356 -13355 -13354 0
13356 13355 13354 0
-13357 12906 0
-13357 -13354 0
13357 -12906 13354 0
-13358 7751 0
-13358 -13354 0
13358 -7751 13354 0
-13359 -13358 0
-13359 -13357 0
13359 13358 13357 0
-13360 7751 0
-13360 12906 0
13360 -7751 -12906 0
-13361 -13360 0
-13361 13359 0
13361 13360 -13359 0
-13362 7758 12918 0
-13362 -7758 -12918 0
13362 -7758 12918 0
13362 7758 -12918 0
-13363 13362 -13361 0
-13363 -13362 13361 0
13363 -13362 -13361 0
13363 13362 13361 0
-13364 12918 0
-13364 -13361 0
13364 -12918 13361 0
-13365 7758 0
-13365 -13361 0
13365 -7758 13361 0
-13366 -13365 0
-13366 -13364 0
13366 13365 13364 0
-13367 7758 0
-13367 12918 0
13367 -7758 -12918 0
-13368 -13367 0
-13368 13366 0
13368 13367 -13366 0
-13369 7765 12930 0
-13369 -7765 -12930 0
13369 -7765 12930 0
13369 7765 -12930 0
-13370 13369 -13368 0
-13370 -13369 13368 0
13370 -13369 -13368 0
13370 13369 13368 0
-13371 12930 0
-13371 -13368 0
13371 -12930 13368 0
-13372 7765 0
-13372 -13368 0
13372 -7765 13368 0
-13373 -13372 0
-13373 -13371 0
13373 13372 13371 0
-13374 7765 0
-13374 12930 0
13374 -7765 -12930 0
-13375 -13374 0
-13375 13373 0
13375 13374 -13373 0
-13376 7772 12942 0
-13376 -7772 -12942 0
13376 -7772 12942 0
13376 7772 -12942 0
-13377 13376 -13375 0
-13377 -13376 13375 0
13377 -13376 -13375 0
13377 13376 13375 0
-13378 12942 0
-13378 -13375 0
13378 -12942 13375 0
-13379 7772 0
-13379 -13375 0
13379 -7772 13375 0
-13380 -13379 0
-13380 -13378 0
13380 13379 13378 0
-13381 7772 0
-13381 12942 0
13381 -7772 -12942 0
-13382 -13381 0
-13382 13380 0
13382 13381 -13380 0
-13383 7779 12954 0
-13383 -7779 -12954 0
13383 -7779 12954 0
13383 7779 -12954 0
-13384 13383 -13382 0
-13384 -13383 13382 0
13384 -13383 -13382 0
13384 13383 13382 0
-13385 12954 0
-13385 -13382 0
13385 -12954 13382 0
-13386 7779 0
-13386 -13382 0
13386 -7779 13382 0
-13387 -13386 0
-13387 -13385 0
13387 13386 13385 0
-13388 7779 0
-13388 12954 0
13388 -7779 -12954 0
-13389 -13388 0
-13389 13387 0
13389 13388 -13387 0
-13390 7786 12966 0
-13390 -7786 -12966 0
13390 -7786 12966 0
13390 7786 -12966 0
-13391 13390 -13389 0
-13391 -13390 13389 0
13391 -13390 -13389 0
13391 13390 13389 0
-13392 12966 0
-13392 -13389 0
13392 -12966 13389 0
-13393 7786 0
-13393 -13389 0
13393 -7786 13389 0
-13394 -13393 0
-13394 -13392 0
13394 13393 13392 0
-13395 7786 0
-13395 12966 0
13395 -7786 -12966 0
-13396 -13395 0
-13396 13394 0
13396 13395 -13394 0
-13397 7793 12978 0
-13397 -7793 -12978 0
13397 -7793 12978 0
13397 7793 -12978 0
-13398 13397 -13396 0
-13398 -13397 13396 0
13398 -13397 -13396 0
13398 13397 13396 0
-13399 12978 0
-13399 -13396 0
13399 -12978 13396 0
-13400 7793 0
-13400 -13396 0
13400 -7793 13396 0
-13401 -13400 0
-13401 -13399 0
13401 13400 13399 0
-13402 7793 0
-13402 12978 0
13402 -7793 -12978 0
-13403 -13402 0
-13403 13401 0
13403 13402 -13401 0
-13404 7800 12990 0
-13404 -7800 -12990 0
13404 -7800 12990 0
13404 7800 -12990 0
-13405 13404 -13403 0
-13405 -13404 13403 0
13405 -13404 -13403 0
13405 13404 13403 0
-13406 12990 0
-13406 -13403 0
13406 -12990 13403 0
-13407 7800 0
-13407 -13403 0
13407 -7800 13403 0
-13408 -13407 0
-13408 -13406 0
13408 13407 13406 0
-13409 7800 0
-13409 12990 0
13409 -7800 -12990 0
-13410 -13409 0
-13410 13408 0
13410 13409 -13408 0
-13411 7807 13002 0
-13411 -7807 -13002 0
13411 -7807 13002 0
13411 7807 -13002 0
-13412 13411 -13410 0
-13412 -13411 13410 0
13412 -13411 -13410 0
13412 13411 13410 0
-13413 13002 0
-13413 -13410 0
13413 -13002 13410 0
-13414 7807 0
-13414 -13410 0
13414 -7807 13410 0
-13415 -13414 0
-13415 -13413 0
13415 13414 13413 0
-13416 7807 0
-13416 13002 0
13416 -7807 -13002 0
-13417 -13416 0
-13417 13415 0
13417 13416 -13415 0
-13418 7814 13014 0
-13418 -7814 -13014 0
13418 -7814 13014 0
13418 7814 -13014 0
-13419 13418 -13417 0
-13419 -13418 13417 0
13419 -13418 -13417 0
13419 13418 13417 0
-13420 13014 0
-13420 -13417 0
13420 -13014 13417 0
-13421 7814 0
-13421 -13417 0
13421 -7814 13417 0
-13422 -13421 0
-13422 -13420 0
13422 13421 13420 0
-13423 7814 0
-13423 13014 0
13423 -7814 -13014 0
-13424 -13423 0
-13424 13422 0
13424 13423 -13422 0
-13425 7821 13026 0
-13425 -7821 -13026 0
13425 -7821 13026 0
13425 7821 -13026 0
-13426 13425 -13424 0
-13426 -13425 13424 0
13426 -13425 -13424 0
13426 13425 13424 0
-13427 13026 0
-13427 -13424 0
13427 -13026 13424 0
-13428 7821 0
-13428 -13424 0
13428 -7821 13424 0
-13429 -13428 0
-13429 -13427 0
13429 13428 13427 0
-13430 7821 0
-13430 13026 0
13430 -7821 -13026 0
-13431 -13430 0
-13431 13429 0
13431 13430 -13429 0
-13432 7828 13038 0
-13432 -7828 -13038 0
13432 -7828 13038 0
13432 7828 -13038 0
-13433 13432 -13431 0
-13433 -13432 13431 0
13433 -13432 -13431 0
13433 13432 13431 0
-13434 13038 0
-13434 -13431 0
13434 -13038 13431 0
-13435 7828 0
-13435 -13431 0
13435 -7828 13431 0
-13436 -13435 0
-13436 -13434 0
13436 13435 13434 0
-13437 7828 0
-13437 13038 0
13437 -7828 -13038 0
-13438 -13437 0
-13438 13436 0
13438 13437 -13436 0
-13439 7835 13050 0
-13439 -7835 -13050 0
13439 -7835 13050 0
13439 7835 -13050 0
-13440 13439 -13438 0
-13440 -13439 13438 0
13440 -13439 -13438 0
13440 13439 13438 0
-13441 13050 0
-13441 -13438 0
13441 -13050 13438 0
-13442 7835 0
-13442 -13438 0
13442 -7835 13438 0
-13443 -13442 0
-13443 -13441 0
13443 13442 13441 0
-13444 7835 0
-13444 13050 0
13444 -7835 -13050 0
-13445 -13444 0
-13445 13443 0
13445 13444 -13443 0
-13446 7842 13062 0
-13446 -7842 -13062 0
13446 -7842 13062 0
13446 7842 -13062 0
-13447 13446 -13445 0
-13447 -13446 13445 0
13447 -13446 -13445 0
13447 13446 13445 0
-13448 13062 0
-13448 -13445 0
13448 -13062 13445 0
-13449 7842 0
-13449 -13445 0
13449 -7842 13445 0
-13450 -13449 0
-13450 -13448 0
13450 13449 13448 0
-13451 7842 0
-13451 13062 0
13451 -7842 -13062 0
-13452 -13451 0
-13452 13450 0
13452 13451 -13450 0
-13453 7849 13074 0
-13453 -7849 -13074 0
13453 -7849 13074 0
13453 7849 -13074 0
-13454 13453 -13452 0
-13454 -13453 13452 0
13454 -13453 -13452 0
13454 13453 13452 0
-13455 13074 0
-13455 -13452 0
13455 -13074 13452 0
-13456 7849 0
-13456 -13452 0
13456 -7849 13452 0
-13457 -13456 0
-13457 -13455 0
13457 13456 13455 0
-13458 7849 0
-13458 13074 0
13458 -7849 -13074 0
-13459 -13458 0
-13459 13457 0
13459 13458 -13457 0
-13460 7856 13086 0
-13460 -7856 -13086 0
13460 -7856 13086 0
13460 7856 -13086 0
-13461 13460 -13459 0
-13461 -13460 13459 0
13461 -13460 -13459 0
13461 13460 13459 0
-13462 13086 0
-13462 -13459 0
13462 -13086 13459 0
-13463 7856 0
-13463 -13459 0
13463 -7856 13459 0
-13464 -13463 0
-13464 -13462 0
13464 13463 13462 0
-13465 7856 0
-13465 13086 0
13465 -7856 -13086 0
-13466 -13465 0
-13466 13464 0
13466 13465 -13464 0
-13467 7863 13098 0
-13467 -7863 -13098 0
13467 -7863 13098 0
13467 7863 -13098 0
-13468 13467 -13466 0
-13468 -13467 13466 0
13468 -13467 -13466 0
13468 13467 13466 0
-13469 13098 0
-13469 -13466 0
13469 -13098 13466 0
-13470 7863 0
-13470 -13466 0
13470 -7863 13466 0
-13471 -13470 0
-13471 -13469 0
13471 13470 13469 0
-13472 7863 0
-13472 13098 0
13472 -7863 -13098 0
-13473 -13472 0
-13473 13471 0
13473 13472 -13471 0
-13474 7870 13110 0
-13474 -7870 -13110 0
13474 -7870 13110 0
13474 7870 -13110 0
-13475 13474 -13473 0
-13475 -13474 13473 0
13475 -13474 -13473 0
13475 13474 13473 0
-13476 13110 0
-13476 -13473 0
13476 -13110 13473 0
-13477 7870 0
-13477 -13473 0
13477 -7870 13473 0
-13478 -13477 0
-13478 -13476 0
13478 13477 13476 0
-13479 7870 0
-13479 13110 0
13479 -7870 -13110 0
-13480 -13479 0
-13480 13478 0
13480 13479 -13478 0
-13481 7877 13122 0
-13481 -7877 -13122 0
13481 -7877 13122 0
13481 7877 -13122 0
-13482 13481 -13480 0
-13482 -13481 13480 0
13482 -13481 -13480 0
13482 13481 13480 0
-13483 13122 0
-13483 -13480 0
13483 -13122 13480 0
-13484 7877 0
-13484 -13480 0
13484 -7877 13480 0
-13485 -13484 0
-13485 -13483 0
13485 13484 13483 0
-13486 7877 0
-13486 13122 0
13486 -7877 -13122 0
-13487 -13486 0
-13487 13485 0
13487 13486 -13485 0
-13488 7884 13134 0
-13488 -7884 -13134 0
13488 -7884 13134 0
13488 7884 -13134 0
-13489 13488 -13487 0
-13489 -13488 13487 0
13489 -13488 -13487 0
13489 13488 13487 0
-13490 13134 0
-13490 -13487 0
13490 -13134 13487 0
-13491 7884 0
-13491 -13487 0
13491 -7884 13487 0
-13492 -13491 0
-13492 -13490 0
13492 13491 13490 0
-13493 7884 0
-13493 13134 0
13493 -7884 -13134 0
-13494 -13493 0
-13494 13492 0
13494 13493 -13492 0
-13495 7891 13146 0
-13495 -7891 -13146 0
13495 -7891 13146 0
13495 7891 -13146 0
-13496 13495 -13494 0
-13496 -13495 13494 0
13496 -13495 -13494 0
13496 13495 13494 0
-13497 13146 0
-13497 -13494 0
13497 -13146 13494 0
-13498 7891 0
-13498 -13494 0
13498 -7891 13494 0
-13499 -13498 0
-13499 -13497 0
13499 13498 13497 0
-13500 7891 0
-13500 13146 0
13500 -7891 -13146 0
-13501 -13500 0
-13501 13499 0
13501 13500 -13499 0
-13502 7898 13158 0
-13502 -7898 -13158 0
13502 -7898 13158 0
13502 7898 -13158 0
-13503 13502 -13501 0
-13503 -13502 13501 0
13503 -13502 -13501 0
13503 13502 13501 0
-13504 13158 0
-13504 -13501 0
13504 -13158 13501 0
-13505 7898 0
-13505 -13501 0
13505 -7898 13501 0
-13506 -13505 0
-13506 -13504 0
13506 13505 13504 0
-13507 7898 0
-13507 13158 0
13507 -7898 -13158 0
-13508 -13507 0
-13508 13506 0
13508 13507 -13506 0
-13509 7905 13170 0
-13509 -7905 -13170 0
13509 -7905 13170 0
13509 7905 -13170 0
-13510 13509 -13508 0
-13510 -13509 13508 0
13510 -13509 -13508 0
13510 13509 13508 0
-13511 13170 0
-13511 -13508 0
13511 -13170 13508 0
-13512 7905 0
-13512 -13508 0
13512 -7905 13508 0
-13513 -13512 0
-13513 -13511 0
13513 13512 13511 0
-13514 7905 0
-13514 13170 0
13514 -7905 -13170 0
-13515 -13514 0
-13515 13513 0
13515 13514 -13513 0
-13516 7912 13182 0
-13516 -7912 -13182 0
13516 -7912 13182 0
13516 7912 -13182 0
-13517 13516 -13515 0
-13517 -13516 13515 0
13517 -13516 -13515 0
13517 13516 13515 0
-13518 13182 0
-13518 -13515 0
13518 -13182 13515 0
-13519 7912 0
-13519 -13515 0
13519 -7912 13515 0
-13520 -13519 0
-13520 -13518 0
13520 13519 13518 0
-13521 7912 0
-13521 13182 0
13521 -7912 -13182 0
-13522 -13521 0
-13522 13520 0
13522 13521 -13520 0
-13523 7919 13194 0
-13523 -7919 -13194 0
13523 -7919 13194 0
13523 7919 -13194 0
-13524 13523 -13522 0
-13524 -13523 13522 0
13524 -13523 -13522 0
13524 13523 13522 0
-13525 13194 0
-13525 -13522 0
13525 -13194 13522 0
-13526 7919 0
-13526 -13522 0
13526 -7919 13522 0
-13527 -13526 0
-13527 -13525 0
13527 13526 13525 0
-13528 7919 0
-13528 13194 0
13528 -7919 -13194 0
-13529 -13528 0
-13529 13527 0
13529 13528 -13527 0
-13530 7926 13206 0
-13530 -7926 -13206 0
13530 -7926 13206 0
13530 7926 -13206 0
-13531 13530 -13529 0
-13531 -13530 13529 0
13531 -13530 -13529 0
13531 13530 13529 0
-13532 13206 0
-13532 -13529 0
13532 -13206 13529 0
-13533 7926 0
-13533 -13529 0
13533 -7926 13529 0
-13534 -13533 0
-13534 -13532 0
13534 13533 13532 0
-13535 7926 0
-13535 13206 0
13535 -7926 -13206 0
-13536 -13535 0
-13536 13534 0
13536 13535 -13534 0
-13537 7933 13218 0
-13537 -7933 -13218 0
13537 -7933 13218 0
13537 7933 -13218 0
-13538 13537 -13536 0
-13538 -13537 13536 0
13538 -13537 -13536 0
13538 13537 13536 0
-13539 13218 0
-13539 -13536 0
13539 -13218 13536 0
-13540 7933 0
-13540 -13536 0
13540 -7933 13536 0
-13541 -13540 0
-13541 -13539 0
13541 13540 13539 0
-13542 7933 0
-13542 13218 0
13542 -7933 -13218 0
-13543 -13542 0
-13543 13541 0
13543 13542 -13541 0
-13544 7940 13230 0
-13544 -7940 -13230 0
13544 -7940 13230 0
13544 7940 -13230 0
-13545 13544 -13543 0
-13545 -13544 13543 0
13545 -13544 -13543 0
13545 13544 13543 0
-13546 13230 0
-13546 -13543 0
13546 -13230 13543 0
-13547 7940 0
-13547 -13543 0
13547 -7940 13543 0
-13548 -13547 0
-13548 -13546 0
13548 13547 13546 0
-13549 7940 0
-13549 13230 0
13549 -7940 -13230 0
-13550 -13549 0
-13550 13548 0
13550 13549 -13548 0
-13551 7947 13242 0
-13551 -7947 -13242 0
13551 -7947 13242 0
13551 7947 -13242 0
-13552 13551 -13550 0
-13552 -13551 13550 0
13552 -13551 -13550 0
13552 13551 13550 0
-13553 13242 0
-13553 -13550 0
13553 -13242 13550 0
-13554 7947 0
-13554 -13550 0
13554 -7947 13550 0
-13555 -13554 0
-13555 -13553 0
13555 13554 13553 0
-13556 7947 0
-13556 13242 0
13556 -7947 -13242 0
-13557 -13556 0
-13557 13555 0
13557 13556 -13555 0
-13558 13339 12873 0
-13558 -13339 -12873 0
13558 -13339 12873 0
13558 13339 -12873 0
-13559 13339 0
-13559 12873 0
13559 -13339 -12873 0
-13560 13342 -12885 0
-13560 -13342 12885 0
13560 -13342 -12885 0
13560 13342 12885 0
-13561 13560 13559 0
-13561 -13560 -13559 0
13561 -13560 13559 0
13561 13560 -13559 0
-13562 -12885 0
-13562 13559 0
13562 12885 -13559 0
-13563 13342 0
-13563 13559 0
13563 -13342 -13559 0
-13564 -13563 0
-13564 -13562 0
13564 13563 13562 0
-13565 13342 0
-13565 -12885 0
13565 -13342 12885 0
-13566 -13565 0
-13566 13564 0
13566 13565 -13564 0
-13567 13349 13253 0
-13567 -13349 -13253 0
13567 -13349 13253 0
13567 13349 -13253 0
-13568 13567 -13566 0
-13568 -13567 13566 0
13568 -13567 -13566 0
13568 13567 13566 0
-13569 13253 0
-13569 -13566 0
13569 -13253 13566 0
-13570 13349 0
-13570 -13566 0
13570 -13349 13566 0
-13571 -13570 0
-13571 -13569 0
13571 13570 13569 0
-13572 13349 0
-13572 13253 0
13572 -13349 -13253 0
-13573 -13572 0
-13573 13571 0
13573 13572 -13571 0
-13574 13356 13257 0
-13574 -13356 -13257 0
13574 -13356 13257 0
13574 13356 -13257 0
-13575 13574 -13573 0
-13575 -13574 13573 0
13575 -13574 -13573 0
13575 13574 13573 0
-13576 13257 0
-13576 -13573 0
13576 -13257 13573 0
-13577 13356 0
-13577 -13573 0
13577 -13356 13573 0
-13578 -13577 0
-13578 -13576 0
13578 13577 13576 0
-13579 13356 0
-13579 13257 0
13579 -13356 -13257 0
-13580 -13579 0
-13580 13578 0
13580 13579 -13578 0
-13581 13363 13261 0
-13581 -13363 -13261 0
13581 -13363 13261 0
13581 13363 -13261 0
-13582 13581 -13580 0
-13582 -13581 13580 0
13582 -13581 -13580 0
13582 13581 13580 0
-13583 13261 0
-13583 -13580 0
13583 -13261 13580 0
-13584 13363 0
-13584 -13580 0
13584 -13363 13580 0
-13585 -13584 0
-13585 -13583 0
13585 13584 13583 0
-13586 13363 0
-13586 13261 0
13586 -13363 -13261 0
-13587 -13586 0
-13587 13585 0
13587 13586 -13585 0
-13588 13370 13265 0
-13588 -13370 -13265 0
13588 -13370 13265 0
13588 13370 -13265 0
-13589 13588 -13587 0
-13589 -13588 13587 0
13589 -13588 -13587 0
13589 13588 13587 0
-13590 13265 0
-13590 -13587 0
13590 -13265 13587 0
-13591 13370 0
-13591 -13587 0
13591 -13370 13587 0
-13592 -13591 0
-13592 -13590 0
13592 13591 13590 0
-13593 13370 0
-13593 13265 0
13593 -13370 -13265 0
-13594 -13593 0
-13594 13592 0
13594 13593 -13592 0
-13595 13377 13269 0
-13595 -13377 -13269 0
13595 -13377 13269 0
13595 13377 -13269 0
-13596 13595 -13594 0
-13596 -13595 13594 0
13596 -13595 -13594 0
13596 13595 13594 0
-13597 13269 0
-13597 -13594 0
13597 -13269 13594 0
-13598 13377 0
-13598 -13594 0
13598 -13377 13594 0
-13599 -13598 0
-13599 -13597 0
13599 13598 13597 0
-13600 13377 0
-13600 13269 0
13600 -13377 -13269 0
-13601 -13600 0
-13601 13599 0
13601 13600 -13599 0
-13602 13384 13271 0
-13602 -13384 -13271 0
13602 -13384 13271 0
13602 13384 -13271 0
-13603 13602 -13601 0
-13603 -13602 13601 0
13603 -13602 -13601 0
13603 13602 13601 0
-13604 13271 0
-13604 -13601 0
13604 -13271 13601 0
-13605 13384 0
-13605 -13601 0
13605 -13384 13601 0
-13606 -13605 0
-13606 -13604 0
13606 13605 13604 0
-13607 13384 0
-13607 13271 0
13607 -13384 -13271 0
-13608 -13607 0
-13608 13606 0
13608 13607 -13606 0
-13609 13391 13275 0
-13609 -13391 -13275 0
13609 -13391 13275 0
13609 13391 -13275 0
-13610 13609 -13608 0
-13610 -13609 13608 0
13610 -13609 -13608 0
13610 13609 13608 0
-13611 13275 0
-13611 -13608 0
13611 -13275 13608 0
-13612 13391 0
-13612 -13608 0
13612 -13391 13608 0
-13613 -13612 0
-13613 -13611 0
13613 13612 13611 0
-13614 13391 0
-13614 13275 0
13614 -13391 -13275 0
-13615 -13614 0
-13615 13613 0
13615 13614 -13613 0
-13616 13398 13279 0
-13616 -13398 -13279 0
13616 -13398 13279 0
13616 13398 -13279 0
-13617 13616 -13615 0
-13617 -13616 13615 0
13617 -13616 -13615 0
13617 13616 13615 0
-13618 13279 0
-13618 -13615 0
13618 -13279 13615 0
-13619 13398 0
-13619 -13615 0
13619 -13398 13615 0
-13620 -13619 0
-13620 -13618 0
13620 13619 13618 0
-13621 13398 0
-13621 13279 0
13621 -13398 -13279 0
-13622 -13621 0
-13622 13620 0
13622 13621 -13620 0
-13623 13405 13281 0
-13623 -13405 -13281 0
13623 -13405 13281 0
13623 13405 -13281 0
-13624 13623 -13622 0
-13624 -13623 13622 0
13624 -13623 -13622 0
13624 13623 13622 0
-13625 13281 0
-13625 -13622 0
13625 -13281 13622 0
-13626 13405 0
-13626 -13622 0
13626 -13405 13622 0
-13627 -13626 0
-13627 -13625 0
13627 13626 13625 0
-13628 13405 0
-13628 13281 0
13628 -13405 -13281 0
-13629 -13628 0
-13629 13627 0
13629 13628 -13627 0
-13630 13412 13285 0
-13630 -13412 -13285 0
13630 -13412 13285 0
13630 13412 -13285 0
-13631 13630 -13629 0
-13631 -13630 13629 0
13631 -13630 -13629 0
13631 13630 13629 0
-13632 13285 0
-13632 -13629 0
13632 -13285 13629 0
-13633 13412 0
-13633 -13629 0
13633 -13412 13629 0
-13634 -13633 0
-13634 -13632 0
13634 13633 13632 0
-13635 13412 0
-13635 13285 0
13635 -13412 -13285 0
-13636 -13635 0
-13636 13634 0
13636 13635 -13634 0
-13637 13419 13287 0
-13637 -13419 -13287 0
13637 -13419 13287 0
13637 13419 -13287 0
-13638 13637 -13636 0
-13638 -13637 13636 0
13638 -13637 -13636 0
13638 13637 13636 0
-13639 13287 0
-13639 -13636 0
13639 -13287 13636 0
-13640 13419 0
-13640 -13636 0
13640 -13419 13636 0
-13641 -13640 0
-13641 -13639 0
13641 13640 13639 0
-13642 13419 0
-13642 13287 0
13642 -13419 -13287 0
-13643 -13642 0
-13643 13641 0
13643 13642 -13641 0
-13644 13426 13289 0
-13644 -13426 -13289 0
13644 -13426 13289 0
13644 13426 -13289 0
-13645 13644 -13643 0
-13645 -13644 13643 0
13645 -13644 -13643 0
13645 13644 13643 0
-13646 13289 0
-13646 -13643 0
13646 -13289 13643 0
-13647 13426 0
-13647 -13643 0
13647 -13426 13643 0
-13648 -13647 0
-13648 -13646 0
13648 13647 13646 0
-13649 13426 0
-13649 13289 0
13649 -13426 -13289 0
-13650 -13649 0
-13650 13648 0
13650 13649 -13648 0
-13651 13433 13291 0
-13651 -13433 -13291 0
13651 -13433 13291 0
13651 13433 -13291 0
-13652 13651 -13650 0
-13652 -13651 13650 0
13652 -13651 -13650 0
13652 13651 13650 0
-13653 13291 0
-13653 -13650 0
13653 -13291 13650 0
-13654 13433 0
-13654 -13650 0
13654 -13433 13650 0
-13655 -13654 0
-13655 -13653 0
13655 13654 13653 0
-13656 13433 0
-13656 13291 0
13656 -13433 -13291 0
-13657 -13656 0
-13657 13655 0
13657 13656 -13655 0
-13658 13440 13293 0
-13658 -13440 -13293 0
13658 -13440 13293 0
13658 13440 -13293 0
-13659 13658 -13657 0
-13659 -13658 13657 0
13659 -13658 -13657 0
13659 13658 13657 0
-13660 13293 0
-13660 -13657 0
13660 -13293 13657 0
-13661 13440 0
-13661 -13657 0
13661 -13440 13657 0
-13662 -13661 0
-13662 -13660 0
13662 13661 13660 0
-13663 13440 0
-13663 13293 0
13663 -13440 -13293 0
-13664 -13663 0
-13664 13662 0
13664 13663 -13662 0
-13665 13447 13297 0
-13665 -13447 -13297 0
13665 -13447 13297 0
13665 13447 -13297 0
-13666 13665 -13664 0
-13666 -13665 13664 0
13666 -13665 -13664 0
13666 13665 13664 0
-13667 13297 0
-13667 -13664 0
13667 -13297 13664 0
-13668 13447 0
-13668 -13664 0
13668 -13447 13664 0
-13669 -13668 0
-13669 -13667 0
13669 13668 13667 0
-13670 13447 0
-13670 13297 0
13670 -13447 -13297 0
-13671 -13670 0
-13671 13669 0
13671 13670 -13669 0
-13672 13454 13301 0
-13672 -13454 -13301 0
13672 -13454 13301 0
13672 13454 -13301 0
-13673 13672 -13671 0
-13673 -13672 13671 0
13673 -13672 -13671 0
13673 13672 13671 0
-13674 13301 0
-13674 -13671 0
13674 -13301 13671 0
-13675 13454 0
-13675 -13671 0
13675 -13454 13671 0
-13676 -13675 0
-13676 -13674 0
13676 13675 13674 0
-13677 13454 0
-13677 13301 0
13677 -13454 -13301 0
-13678 -13677 0
-13678 13676 0
13678 13677 -13676 0
-13679 13461 13303 0
-13679 -13461 -13303 0
13679 -13461 13303 0
13679 13461 -13303 0
-13680 13679 -13678 0
-13680 -13679 13678 0
13680 -13679 -13678 0
13680 13679 13678 0
-13681 13303 0
-13681 -13678 0
13681 -13303 13678 0
-13682 13461 0
-13682 -13678 0
13682 -13461 13678 0
-13683 -13682 0
-13683 -13681 0
13683 13682 13681 0
-13684 13461 0
-13684 13303 0
13684 -13461 -13303 0
-13685 -13684 0
-13685 13683 0
13685 13684 -13683 0
-13686 13468 13305 0
-13686 -13468 -13305 0
13686 -13468 13305 0
13686 13468 -13305 0
-13687 13686 -13685 0
-13687 -13686 13685 0
13687 -13686 -13685 0
13687 13686 13685 0
-13688 13305 0
-13688 -13685 0
13688 -13305 13685 0
-13689 13468 0
-13689 -13685 0
13689 -13468 13685 0
-13690 -13689 0
-13690 -13688 0
13690 13689 13688 0
-13691 13468 0
-13691 13305 0
13691 -13468 -13305 0
-13692 -13691 0
-13692 13690 0
13692 13691 -13690 0
-13693 13475 13307 0
-13693 -13475 -13307 0
13693 -13475 13307 0
13693 13475 -13307 0
-13694 13693 -13692 0
-13694 -13693 13692 0
13694 -13693 -13692 0
13694 13693 13692 0
-13695 13307 0
-13695 -13692 0
13695 -13307 13692 0
-13696 13475 0
-13696 -13692 0
13696 -13475 13692 0
-13697 -13696 0
-13697 -13695 0
13697 13696 13695 0
-13698 13475 0
-13698 13307 0
13698 -13475 -13307 0
-13699 -13698 0
-13699 13697 0
13699 13698 -13697 0
-13700 13482 13311 0
-13700 -13482 -13311 0
13700 -13482 13311 0
13700 13482 -13311 0
-13701 13700 -13699 0
-13701 -13700 13699 0
13701 -13700 -13699 0
13701 13700 13699 0
-13702 13311 0
-13702 -13699 0
13702 -13311 13699 0
-13703 13482 0
-13703 -13699 0
13703 -13482 13699 0
-13704 -13703 0
-13704 -13702 0
13704 13703 13702 0
-13705 13482 0
-13705 13311 0
13705 -13482 -13311 0
-13706 -13705 0
-13706 13704 0
13706 13705 -13704 0
-13707 13489 13315 0
-13707 -13489 -13315 0
13707 -13489 13315 0
13707 13489 -13315 0
-13708 13707 -13706 0
-13708 -13707 13706 0
13708 -13707 -13706 0
13708 13707 13706 0
-13709 13315 0
-13709 -13706 0
13709 -13315 13706 0
-13710 13489 0
-13710 -13706 0
13710 -13489 13706 0
-13711 -13710 0
-13711 -13709 0
13711 13710 13709 0
-13712 13489 0
-13712 13315 0
13712 -13489 -13315 0
-13713 -13712 0
-13713 13711 0
13713 13712 -13711 0
-13714 13496 13317 0
-13714 -13496 -13317 0
13714 -13496 13317 0
13714 13496 -13317 0
-13715 13714 -13713 0
-13715 -13714 13713 0
13715 -13714 -13713 0
13715 13714 13713 0
-13716 13317 0
-13716 -13713 0
13716 -13317 13713 0
-13717 13496 0
-13717 -13713 0
13717 -13496 13713 0
-13718 -13717 0
-13718 -13716 0
13718 13717 13716 0
-13719 13496 0
-13719 13317 0
13719 -13496 -13317 0
-13720 -13719 0
-13720 13718 0
13720 13719 -13718 0
-13721 13503 13319 0
-13721 -13503 -13319 0
13721 -13503 13319 0
13721 13503 -13319 0
-13722 13721 -13720 0
-13722 -13721 13720 0
13722 -13721 -13720 0
13722 13721 13720 0
-13723 13319 0
-13723 -13720 0
13723 -13319 13720 0
-13724 13503 0
-13724 -13720 0
13724 -13503 13720 0
-13725 -13724 0
-13725 -13723 0
13725 13724 13723 0
-13726 13503 0
-13726 13319 0
13726 -13503 -13319 0
-13727 -13726 0
-13727 13725 0
13727 13726 -13725 0
-13728 13510 13321 0
-13728 -13510 -13321 0
13728 -13510 13321 0
13728 13510 -13321 0
-13729 13728 -13727 0
-13729 -13728 13727 0
13729 -13728 -13727 0
13729 13728 13727 0
-13730 13321 0
-13730 -13727 0
13730 -13321 13727 0
-13731 13510 0
-13731 -13727 0
13731 -13510 13727 0
-13732 -13731 0
-13732 -13730 0
13732 13731 13730 0
-13733 13510 0
-13733 13321 0
13733 -13510 -13321 0
-13734 -13733 0
-13734 13732 0
13734 13733 -13732 0
-13735 13517 13323 0
-13735 -13517 -13323 0
13735 -13517 13323 0
13735 13517 -13323 0
-13736 13735 -13734 0
-13736 -13735 13734 0
13736 -13735 -13734 0
13736 13735 13734 0
-13737 13323 0
-13737 -13734 0
13737 -13323 13734 0
-13738 13517 0
-13738 -13734 0
13738 -13517 13734 0
-13739 -13738 0
-13739 -13737 0
13739 13738 13737 0
-13740 13517 0
-13740 13323 0
13740 -13517 -13323 0
-13741 -13740 0
-13741 13739 0
13741 13740 -13739 0
-13742 13524 13327 0
-13742 -13524 -13327 0
13742 -13524 13327 0
13742 13524 -13327 0
-13743 13742 -13741 0
-13743 -13742 13741 0
13743 -13742 -13741 0
13743 13742 13741 0
-13744 13327 0
-13744 -13741 0
13744 -13327 13741 0
-13745 13524 0
-13745 -13741 0
13745 -13524 13741 0
-13746 -13745 0
-13746 -13744 0
13746 13745 13744 0
-13747 13524 0
-13747 13327 0
13747 -13524 -13327 0
-13748 -13747 0
-13748 13746 0
13748 13747 -13746 0
-13749 13531 13329 0
-13749 -13531 -13329 0
13749 -13531 13329 0
13749 13531 -13329 0
-13750 13749 -13748 0
-13750 -13749 13748 0
13750 -13749 -13748 0
13750 13749 13748 0
-13751 13329 0
-13751 -13748 0
13751 -13329 13748 0
-13752 13531 0
-13752 -13748 0
13752 -13531 13748 0
-13753 -13752 0
-13753 -13751 0
13753 13752 13751 0
-13754 13531 0
-13754 13329 0
13754 -13531 -13329 0
-13755 -13754 0
-13755 13753 0
13755 13754 -13753 0
-13756 13538 13331 0
-13756 -13538 -13331 0
13756 -13538 13331 0
13756 13538 -13331 0
-13757 13756 -13755 0
-13757 -13756 13755 0
13757 -13756 -13755 0
13757 13756 13755 0
-13758 13331 0
-13758 -13755 0
13758 -13331 13755 0
-13759 13538 0
-13759 -13755 0
13759 -13538 13755 0
-13760 -13759 0
-13760 -13758 0
13760 13759 13758 0
-13761 13538 0
-13761 13331 0
13761 -13538 -13331 0
-13762 -13761 0
-13762 13760 0
13762 13761 -13760 0
-13763 13545 13335 0
-13763 -13545 -13335 0
13763 -13545 13335 0
13763 13545 -13335 0
-13764 13763 -13762 0
-13764 -13763 13762 0
13764 -13763 -13762 0
13764 13763 13762 0
-13765 13335 0
-13765 -13762 0
13765 -13335 13762 0
-13766 13545 0
-13766 -13762 0
13766 -13545 13762 0
-13767 -13766 0
-13767 -13765 0
13767 13766 13765 0
-13768 13545 0
-13768 13335 0
13768 -13545 -13335 0
-13769 -13768 0
-13769 13767 0
13769 13768 -13767 0
-13770 13552 13337 0
-13770 -13552 -13337 0
13770 -13552 13337 0
13770 13552 -13337 0
-13771 13770 -13769 0
-13771 -13770 13769 0
13771 -13770 -13769 0
13771 13770 13769 0
-13772 13337 0
-13772 -13769 0
13772 -13337 13769 0
-13773 13552 0
-13773 -13769 0
13773 -13552 13769 0
-13774 -13773 0
-13774 -13772 0
13774 13773 13772 0
-13775 13552 0
-13775 13337 0
13775 -13552 -13337 0
-13776 -13775 0
-13776 13774 0
13776 13775 -13774 0
-13777 12875 -12880 0
-13777 -12875 12880 0
13777 -12875 -12880 0
13777 12875 12880 0
-13778 12875 0
-13778 -12880 0
13778 -12875 12880 0
-13779 12887 -12892 0
-13779 -12887 12892 0
13779 -12887 -12892 0
13779 12887 12892 0
-13780 13779 13778 0
-13780 -13779 -13778 0
13780 -13779 13778 0
13780 13779 -13778 0
-13781 -12892 0
-13781 13778 0
13781 12892 -13778 0
-13782 12887 0
-13782 13778 0
13782 -12887 -13778 0
-13783 -13782 0
-13783 -13781 0
13783 13782 13781 0
-13784 12887 0
-13784 -12892 0
13784 -12887 12892 0
-13785 -13784 0
-13785 13783 0
13785 13784 -13783 0
-13786 12899 -12904 0
-13786 -12899 12904 0
13786 -12899 -12904 0
13786 12899 12904 0
-13787 13786 -13785 0
-13787 -13786 13785 0
13787 -13786 -13785 0
13787 13786 13785 0
-13788 -12904 0
-13788 -13785 0
13788 12904 13785 0
-13789 12899 0
-13789 -13785 0
13789 -12899 13785 0
-13790 -13789 0
-13790 -13788 0
13790 13789 13788 0
-13791 12899 0
-13791 -12904 0
13791 -12899 12904 0
-13792 -13791 0
-13792 13790 0
13792 13791 -13790 0
-13793 12911 -12916 0
-13793 -12911 12916 0
13793 -12911 -12916 0
13793 12911 12916 0
-13794 13793 -13792 0
-13794 -13793 13792 0
13794 -13793 -13792 0
13794 13793 13792 0
-13795 -12916 0
-13795 -13792 0
13795 12916 13792 0
-13796 12911 0
-13796 -13792 0
13796 -12911 13792 0
-13797 -13796 0
-13797 -13795 0
13797 13796 13795 0
-13798 12911 0
-13798 -12916 0
13798 -12911 12916 0
-13799 -13798 0
-13799 13797 0
13799 13798 -13797 0
-13800 12923 -12928 0
-13800 -12923 12928 0
13800 -12923 -12928 0
13800 12923 12928 0
-13801 13800 -13799 0
-13801 -13800 13799 0
13801 -13800 -13799 0
13801 13800 13799 0
-13802 -12928 0
-13802 -13799 0
13802 12928 13799 0
-13803 12923 0
-13803 -13799 0
13803 -12923 13799 0
-13804 -13803 0
-13804 -13802 0
13804 13803 13802 0
-13805 12923 0
-13805 -12928 0
13805 -12923 12928 0
-13806 -13805 0
-13806 13804 0
13806 13805 -13804 0
-13807 12935 -12940 0
-13807 -12935 12940 0
13807 -12935 -12940 0
13807 12935 12940 0
-13808 13807 -13806 0
-13808 -13807 13806 0
13808 -13807 -13806 0
13808 13807 13806 0
-13809 -12940 0
-13809 -13806 0
13809 12940 13806 0
-13810 12935 0
-13810 -13806 0
13810 -12935 13806 0
-13811 -13810 0
-13811 -13809 0
13811 13810 13809 0
-13812 12935 0
-13812 -12940 0
13812 -12935 12940 0
-13813 -13812 0
-13813 13811 0
13813 13812 -13811 0
-13814 12947 -12952 0
-13814 -12947 12952 0
13814 -12947 -12952 0
13814 12947 12952 0
-13815 13814 -13813 0
-13815 -13814 13813 0
13815 -13814 -13813 0
13815 13814 13813 0
-13816 -12952 0
-13816 -13813 0
13816 12952 13813 0
-13817 12947 0
-13817 -13813 0
13817 -12947 13813 0
-13818 -13817 0
-13818 -13816 0
13818 13817 13816 0
-13819 12947 0
-13819 -12952 0
13819 -12947 12952 0
-13820 -13819 0
-13820 13818 0
13820 13819 -13818 0
-13821 12959 -12964 0
-13821 -12959 12964 0
13821 -12959 -12964 0
13821 12959 12964 0
-13822 13821 -13820 0
-13822 -13821 13820 0
13822 -13821 -13820 0
13822 13821 13820 0
-13823 -12964 0
-13823 -13820 0
13823 12964 13820 0
-13824 12959 0
-13824 -13820 0
13824 -12959 13820 0
-13825 -13824 0
-13825 -13823 0
13825 13824 13823 0
-13826 12959 0
-13826 -12964 0
13826 -12959 12964 0
-13827 -13826 0
-13827 13825 0
13827 13826 -13825 0
-13828 12971 -12976 0
-13828 -12971 12976 0
13828 -12971 -12976 0
13828 12971 12976 0
-13829 13828 -13827 0
-13829 -13828 13827 0
13829 -13828 -13827 0
13829 13828 13827 0
-13830 -12976 0
-13830 -13827 0
13830 12976 13827 0
-13831 12971 0
-13831 -13827 0
13831 -12971 13827 0
-13832 -13831 0
-13832 -13830 0
13832 13831 13830 0
-13833 12971 0
-13833 -12976 0
13833 -12971 12976 0
-13834 -13833 0
-13834 13832 0
13834 13833 -13832 0
-13835 12983 -12988 0
-13835 -12983 12988 0
13835 -12983 -12988 0
13835 12983 12988 0
-13836 13835 -13834 0
-13836 -13835 13834 0
13836 -13835 -13834 0
13836 13835 13834 0
-13837 -12988 0
-13837 -13834 0
13837 12988 13834 0
-13838 12983 0
-13838 -13834 0
13838 -12983 13834 0
-13839 -13838 0
-13839 -13837 0
13839 13838 13837 0
-13840 12983 0
-13840 -12988 0
13840 -12983 12988 0
-13841 -13840 0
-13841 13839 0
13841 13840 -13839 0
-13842 12995 -13000 0
-13842 -12995 13000 0
13842 -12995 -13000 0
13842 12995 13000 0
-13843 13842 -13841 0
-13843 -13842 13841 0
13843 -13842 -13841 0
13843 13842 13841 0
-13844 -13000 0
-13844 -13841 0
13844 13000 13841 0
-13845 12995 0
-13845 -13841 0
13845 -12995 13841 0
-13846 -13845 0
-13846 -13844 0
13846 13845 13844 0
-13847 12995 0
-13847 -13000 0
13847 -12995 13000 0
-13848 -13847 0
-13848 13846 0
13848 13847 -13846 0
-13849 13007 -13012 0
-13849 -13007 13012 0
13849 -13007 -13012 0
13849 13007 13012 0
-13850 13849 -13848 0
-13850 -13849 13848 0
13850 -13849 -13848 0
13850 13849 13848 0
-13851 -13012 0
-13851 -13848 0
13851 13012 13848 0
-13852 13007 0
-13852 -13848 0
13852 -13007 13848 0
-13853 -13852 0
-13853 -13851 0
13853 13852 13851 0
-13854 13007 0
-13854 -13012 0
13854 -13007 13012 0
-13855 -13854 0
-13855 13853 0
13855 13854 -13853 0
-13856 13019 -13024 0
-13856 -13019 13024 0
13856 -13019 -13024 0
13856 13019 13024 0
-13857 13856 -13855 0
-13857 -13856 13855 0
13857 -13856 -13855 0
13857 13856 13855 0
-13858 -13024 0
-13858 -13855 0
13858 13024 13855 0
-13859 13019 0
-13859 -13855 0
13859 -13019 13855 0
-13860 -13859 0
-13860 -13858 0
13860 13859 13858 0
-13861 13019 0
-13861 -13024 0
13861 -13019 13024 0
-13862 -13861 0
-13862 13860 0
13862 13861 -13860 0
-13863 13031 -13036 0
-13863 -13031 13036 0
13863 -13031 -13036 0
13863 13031 13036 0
-13864 13863 -13862 0
-13864 -13863 13862 0
13864 -13863 -13862 0
13864 13863 13862 0
-13865 -13036 0
-13865 -13862 0
13865 13036 13862 0
-13866 13031 0
-13866 -13862 0
13866 -13031 13862 0
-13867 -13866 0
-13867 -13865 0
13867 13866 13865 0
-13868 13031 0
-13868 -13036 0
13868 -13031 13036 0
-13869 -13868 0
-13869 13867 0
13869 13868 -13867 0
-13870 13043 -13048 0
-13870 -13043 13048 0
13870 -13043 -13048 0
13870 13043 13048 0
-13871 13870 -13869 0
-13871 -13870 13869 0
13871 -13870 -13869 0
13871 13870 13869 0
-13872 -13048 0
-13872 -13869 0
13872 13048 13869 0
-13873 13043 0
-13873 -13869 0
13873 -13043 13869 0
-13874 -13873 0
-13874 -13872 0
13874 13873 13872 0
-13875 13043 0
-13875 -13048 0
13875 -13043 13048 0
-13876 -13875 0
-13876 13874 0
13876 13875 -13874 0
-13877 13055 -13060 0
-13877 -13055 13060 0
13877 -13055 -13060 0
13877 13055 13060 0
-13878 13877 -13876 0
-13878 -13877 13876 0
13878 -13877 -13876 0
13878 13877 13876 0
-13879 -13060 0
-13879 -13876 0
13879 13060 13876 0
-13880 13055 0
-13880 -13876 0
13880 -13055 13876 0
-13881 -13880 0
-13881 -13879 0
13881 13880 13879 0
-13882 13055 0
-13882 -13060 0
13882 -13055 13060 0
-13883 -13882 0
-13883 13881 0
13883 13882 -13881 0
-13884 13067 -13072 0
-13884 -13067 13072 0
13884 -13067 -13072 0
13884 13067 13072 0
-13885 13884 -13883 0
-13885 -13884 13883 0
13885 -13884 -13883 0
13885 13884 13883 0
-13886 -13072 0
-13886 -13883 0
13886 13072 13883 0
-13887 13067 0
-13887 -13883 0
13887 -13067 13883 0
-13888 -13887 0
-13888 -13886 0
13888 13887 13886 0
-13889 13067 0
-13889 -13072 0
13889 -13067 13072 0
-13890 -13889 0
-13890 13888 0
13890 13889 -13888 0
-13891 13079 -13084 0
-13891 -13079 13084 0
13891 -13079 -13084 0
13891 13079 13084 0
-13892 13891 -13890 0
-13892 -13891 13890 0
13892 -13891 -13890 0
13892 13891 13890 0
-13893 -13084 0
-13893 -13890 0
13893 13084 13890 0
-13894 13079 0
-13894 -13890 0
13894 -13079 13890 0
-13895 -13894 0
-13895 -13893 0
13895 13894 13893 0
-13896 13079 0
-13896 -13084 0
13896 -13079 13084 0
-13897 -13896 0
-13897 13895 0
13897 13896 -13895 0
-13898 13091 -13096 0
-13898 -13091 13096 0
13898 -13091 -13096 0
13898 13091 13096 0
-13899 13898 -13897 0
-13899 -13898 13897 0
13899 -13898 -13897 0
13899 13898 13897 0
-13900 -13096 0
-13900 -13897 0
13900 13096 13897 0
-13901 13091 0
-13901 -13897 0
13901 -13091 13897 0
-13902 -13901 0
-13902 -13900 0
13902 13901 13900 0
-13903 13091 0
-13903 -13096 0
13903 -13091 13096 0
-13904 -13903 0
-13904 13902 0
13904 13903 -13902 0
-13905 13103 -13108 0
-13905 -13103 13108 0
13905 -13103 -13108 0
13905 13103 13108 0
-13906 13905 -13904 0
-13906 -13905 13904 0
13906 -13905 -13904 0
13906 13905 13904 0
-13907 -13108 0
-13907 -13904 0
13907 13108 13904 0
-13908 13103 0
-13908 -13904 0
13908 -13103 13904 0
-13909 -13908 0
-13909 -13907 0
13909 13908 13907 0
-13910 13103 0
-13910 -13108 0
13910 -13103 13108 0
-13911 -13910 0
-13911 13909 0
13911 13910 -13909 0
-13912 13115 -13120 0
-13912 -13115 13120 0
13912 -13115 -13120 0
13912 13115 13120 0
-13913 13912 -13911 0
-13913 -13912 13911 0
13913 -13912 -13911 0
13913 13912 13911 0
-13914 -13120 0
-13914 -13911 0
13914 13120 13911 0
-13915 13115 0
-13915 -13911 0
13915 -13115 13911 0
-13916 -13915 0
-13916 -13914 0
13916 13915 13914 0
-13917 13115 0
-13917 -13120 0
13917 -13115 13120 0
-13918 -13917 0
-13918 13916 0
13918 13917 -13916 0
-13919 13127 -13132 0
-13919 -13127 13132 0
13919 -13127 -13132 0
13919 13127 13132 0
-13920 13919 -13918 0
-13920 -13919 13918 0
13920 -13919 -13918 0
13920 13919 13918 0
-13921 -13132 0
-13921 -13918 0
13921 13132 13918 0
-13922 13127 0
-13922 -13918 0
13922 -13127 13918 0
-13923 -13922 0
-13923 -13921 0
13923 13922 13921 0
-13924 13127 0
-13924 -13132 0
13924 -13127 13132 0
-13925 -13924 0
-13925 13923 0
13925 13924 -13923 0
-13926 13139 -13144 0
-13926 -13139 13144 0
13926 -13139 -13144 0
13926 13139 13144 0
-13927 13926 -13925 0
-13927 -13926 13925 0
13927 -13926 -13925 0
13927 13926 13925 0
-13928 -13144 0
-13928 -13925 0
13928 13144 13925 0
-13929 13139 0
-13929 -13925 0
13929 -13139 13925 0
-13930 -13929 0
-13930 -13928 0
13930 13929 13928 0
-13931 13139 0
-13931 -13144 0
13931 -13139 13144 0
-13932 -13931 0
-13932 13930 0
13932 13931 -13930 0
-13933 13151 -13156 0
-13933 -13151 13156 0
13933 -13151 -13156 0
13933 13151 13156 0
-13934 13933 -13932 0
-13934 -13933 13932 0
13934 -13933 -13932 0
13934 13933 13932 0
-13935 -13156 0
-13935 -13932 0
13935 13156 13932 0
-13936 13151 0
-13936 -13932 0
13936 -13151 13932 0
-13937 -13936 0
-13937 -13935 0
13937 13936 13935 0
-13938 13151 0
-13938 -13156 0
13938 -13151 13156 0
-13939 -13938 0
-13939 13937 0
13939 13938 -13937 0
-13940 13163 -13168 0
-13940 -13163 13168 0
13940 -13163 -13168 0
13940 13163 13168 0
-13941 13940 -13939 0
-13941 -13940 13939 0
13941 -13940 -13939 0
13941 13940 13939 0
-13942 -13168 0
-13942 -13939 0
13942 13168 13939 0
-13943 13163 0
-13943 -13939 0
13943 -13163 13939 0
-13944 -13943 0
-13944 -13942 0
13944 13943 13942 0
-13945 13163 0
-13945 -13168 0
13945 -13163 13168 0
-13946 -13945 0
-13946 13944 0
13946 13945 -13944 0
-13947 13175 -13180 0
-13947 -13175 13180 0
13947 -13175 -13180 0
13947 13175 13180 0
-13948 13947 -13946 0
-13948 -13947 13946 0
13948 -13947 -13946 0
13948 13947 13946 0
-13949 -13180 0
-13949 -13946 0
13949 13180 13946 0
-13950 13175 0
-13950 -13946 0
13950 -13175 13946 0
-13951 -13950 0
-13951 -13949 0
13951 13950 13949 0
-13952 13175 0
-13952 -13180 0
13952 -13175 13180 0
-13953 -13952 0
-13953 13951 0
13953 13952 -13951 0
-13954 13187 -13192 0
-13954 -13187 13192 0
13954 -13187 -13192 0
13954 13187 13192 0
-13955 13954 -13953 0
-13955 -13954 13953 0
13955 -13954 -13953 0
13955 13954 13953 0
-13956 -13192 0
-13956 -13953 0
13956 13192 13953 0
-13957 13187 0
-13957 -13953 0
13957 -13187 13953 0
-13958 -13957 0
-13958 -13956 0
13958 13957 13956 0
-13959 13187 0
-13959 -13192 0
13959 -13187 13192 0
-13960 -13959 0
-13960 13958 0
13960 13959 -13958 0
-13961 13199 -13204 0
-13961 -13199 13204 0
13961 -13199 -13204 0
13961 13199 13204 0
-13962 13961 -13960 0
-13962 -13961 13960 0
13962 -13961 -13960 0
13962 13961 13960 0
-13963 -13204 0
-13963 -13960 0
13963 13204 13960 0
-13964 13199 0
-13964 -13960 0
13964 -13199 13960 0
-13965 -13964 0
-13965 -13963 0
13965 13964 13963 0
-13966 13199 0
-13966 -13204 0
13966 -13199 13204 0
-13967 -13966 0
-13967 13965 0
13967 13966 -13965 0
-13968 13211 -13216 0
-13968 -13211 13216 0
13968 -13211 -13216 0
13968 13211 13216 0
-13969 13968 -13967 0
-13969 -13968 13967 0
13969 -13968 -13967 0
13969 13968 13967 0
-13970 -13216 0
-13970 -13967 0
13970 13216 13967 0
-13971 13211 0
-13971 -13967 0
13971 -13211 13967 0
-13972 -13971 0
-13972 -13970 0
13972 13971 13970 0
-13973 13211 0
-13973 -13216 0
13973 -13211 13216 0
-13974 -13973 0
-13974 13972 0
13974 13973 -13972 0
-13975 13223 -13228 0
-13975 -13223 13228 0
13975 -13223 -13228 0
13975 13223 13228 0
-13976 13975 -13974 0
-13976 -13975 13974 0
13976 -13975 -13974 0
13976 13975 13974 0
-13977 -13228 0
-13977 -13974 0
13977 13228 13974 0
-13978 13223 0
-13978 -13974 0
13978 -13223 13974 0
-13979 -13978 0
-13979 -13977 0
13979 13978 13977 0
-13980 13223 0
-13980 -13228 0
13980 -13223 13228 0
-13981 -13980 0
-13981 13979 0
13981 13980 -13979 0
-13982 13235 -13240 0
-13982 -13235 13240 0
13982 -13235 -13240 0
13982 13235 13240 0
-13983 13982 -13981 0
-13983 -13982 13981 0
13983 -13982 -13981 0
13983 13982 13981 0
-13984 -13240 0
-13984 -13981 0
13984 13240 13981 0
-13985 13235 0
-13985 -13981 0
13985 -13235 13981 0
-13986 -13985 0
-13986 -13984 0
13986 13985 13984 0
-13987 13235 0
-13987 -13240 0
13987 -13235 13240 0
-13988 -13987 0
-13988 13986 0
13988 13987 -13986 0
-13989 13247 -13252 0
-13989 -13247 13252 0
13989 -13247 -13252 0
13989 13247 13252 0
-13990 13989 -13988 0
-13990 -13989 13988 0
13990 -13989 -13988 0
13990 13989 13988 0
-13991 -13252 0
-13991 -13988 0
13991 13252 13988 0
-13992 13247 0
-13992 -13988 0
13992 -13247 13988 0
-13993 -13992 0
-13993 -13991 0
13993 13992 13991 0
-13994 13247 0
-13994 -13252 0
13994 -13247 13252 0
-13995 -13994 0
-13995 13993 0
13995 13994 -13993 0
-13996 7953 13558 0
-13996 -7953 -13558 0
13996 -7953 13558 0
13996 7953 -13558 0
-13997 7953 0
-13997 13558 0
13997 -7953 -13558 0
-13998 7956 13561 0
-13998 -7956 -13561 0
13998 -7956 13561 0
13998 7956 -13561 0
-13999 13998 13997 0
-13999 -13998 -13997 0
13999 -13998 13997 0
13999 13998 -13997 0
-14000 13561 0
-14000 13997 0
14000 -13561 -13997 0
-14001 7956 0
-14001 13997 0
14001 -7956 -13997 0
-14002 -14001 0
-14002 -14000 0
14002 14001 14000 0
-14003 7956 0
-14003 13561 0
14003 -7956 -13561 0
-14004 -14003 0
-14004 14002 0
14004 14003 -14002 0
-14005 7963 13568 0
-14005 -7963 -13568 0
14005 -7963 13568 0
14005 7963 -13568 0
-14006 14005 -14004 0
-14006 -14005 14004 0
14006 -14005 -14004 0
14006 14005 14004 0
-14007 13568 0
-14007 -14004 0
14007 -13568 14004 0
-14008 7963 0
-14008 -14004 0
14008 -7963 14004 0
-14009 -14008 0
-14009 -14007 0
14009 14008 14007 0
-14010 7963 0
-14010 13568 0
14010 -7963 -13568 0
-14011 -14010 0
-14011 14009 0
14011 14010 -14009 0
-14012 7970 13575 0
-14012 -7970 -13575 0
14012 -7970 13575 0
14012 7970 -13575 0
-14013 14012 -14011 0
-14013 -14012 14011 0
14013 -14012 -14011 0
14013 14012 14011 0
-14014 13575 0
-14014 -14011 0
14014 -13575 14011 0
-14015 7970 0
-14015 -14011 0
14015 -7970 14011 0
-14016 -14015 0
-14016 -14014 0
14016 14015 14014 0
-14017 7970 0
-14017 13575 0
14017 -7970 -13575 0
-14018 -14017 0
-14018 14016 0
14018 14017 -14016 0
-14019 7977 13582 0
-14019 -7977 -13582 0
14019 -7977 13582 0
14019 7977 -13582 0
-14020 14019 -14018 0
-14020 -14019 14018 0
14020 -14019 -14018 0
14020 14019 14018 0
-14021 13582 0
-14021 -14018 0
14021 -13582 14018 0
-14022 7977 0
-14022 -14018 0
14022 -7977 14018 0
-14023 -14022 0
-14023 -14021 0
14023 14022 14021 0
-14024 7977 0
-14024 13582 0
14024 -7977 -13582 0
-14025 -14024 0
-14025 14023 0
14025 14024 -14023 0
-14026 7984 13589 0
-14026 -7984 -13589 0
14026 -7984 13589 0
14026 7984 -13589 0
-14027 14026 -14025 0
-14027 -14026 14025 0
14027 -14026 -14025 0
14027 14026 14025 0
-14028 13589 0
-14028 -14025 0
14028 -13589 14025 0
-14029 7984 0
-14029 -14025 0
14029 -7984 14025 0
-14030 -14029 0
-14030 -14028 0
14030 14029 14028 0
-14031 7984 0
-14031 13589 0
14031 -7984 -13589 0
-14032 -14031 0
-14032 14030 0
14032 14031 -14030 0
-14033 7991 13596 0
-14033 -7991 -13596 0
14033 -7991 13596 0
14033 7991 -13596 0
-14034 14033 -14032 0
-14034 -14033 14032 0
14034 -14033 -14032 0
14034 14033 14032 0
-14035 13596 0
-14035 -14032 0
14035 -13596 14032 0
-14036 7991 0
-14036 -14032 0
14036 -7991 14032 0
-14037 -14036 0
-14037 -14035 0
14037 14036 14035 0
-14038 7991 0
-14038 13596 0
14038 -7991 -13596 0
-14039 -14038 0
-14039 14037 0
14039 14038 -14037 0
-14040 7998 13603 0
-14040 -7998 -13603 0
14040 -7998 13603 0
14040 7998 -13603 0
-14041 14040 -14039 0
-14041 -14040 14039 0
14041 -14040 -14039 0
14041 14040 14039 0
-14042 13603 0
-14042 -14039 0
14042 -13603 14039 0
-14043 7998 0
-14043 -14039 0
14043 -7998 14039 0
-14044 -14043 0
-14044 -14042 0
14044 14043 14042 0
-14045 7998 0
-14045 13603 0
14045 -7998 -13603 0
-14046 -14045 0
-14046 14044 0
14046 14045 -14044 0
-14047 8005 13610 0
-14047 -8005 -13610 0
14047 -8005 13610 0
14047 8005 -13610 0
-14048 14047 -14046 0
-14048 -14047 14046 0
14048 -14047 -14046 0
14048 14047 14046 0
-14049 13610 0
-14049 -14046 0
14049 -13610 14046 0
-14050 8005 0
-14050 -14046 0
14050 -8005 14046 0
-14051 -14050 0
-14051 -14049 0
14051 14050 14049 0
-14052 8005 0
-14052 13610 0
14052 -8005 -13610 0
-14053 -14052 0
-14053 14051 0
14053 14052 -14051 0
-14054 8012 13617 0
-14054 -8012 -13617 0
14054 -8012 13617 0
14054 8012 -13617 0
-14055 14054 -14053 0
-14055 -14054 14053 0
14055 -14054 -14053 0
14055 14054 14053 0
-14056 13617 0
-14056 -14053 0
14056 -13617 14053 0
-14057 8012 0
-14057 -14053 0
14057 -8012 14053 0
-14058 -14057 0
-14058 -14056 0
14058 14057 14056 0
-14059 8012 0
-14059 13617 0
14059 -8012 -13617 0
-14060 -14059 0
-14060 14058 0
14060 14059 -14058 0
-14061 8019 13624 0
-14061 -8019 -13624 0
14061 -8019 13624 0
14061 8019 -13624 0
-14062 14061 -14060 0
-14062 -14061 14060 0
14062 -14061 -14060 0
14062 14061 14060 0
-14063 13624 0
-14063 -14060 0
14063 -13624 14060 0
-14064 8019 0
-14064 -14060 0
14064 -8019 14060 0
-14065 -14064 0
-14065 -14063 0
14065 14064 14063 0
-14066 8019 0
-14066 13624 0
14066 -8019 -13624 0
-14067 -14066 0
-14067 14065 0
14067 14066 -14065 0
-14068 8026 13631 0
-14068 -8026 -13631 0
14068 -8026 13631 0
14068 8026 -13631 0
-14069 14068 -14067 0
-14069 -14068 14067 0
14069 -14068 -14067 0
14069 14068 14067 0
-14070 13631 0
-14070 -14067 0
14070 -13631 14067 0
-14071 8026 0
-14071 -14067 0
14071 -8026 14067 0
-14072 -14071 0
-14072 -14070 0
14072 14071 14070 0
-14073 8026 0
-14073 13631 0
14073 -8026 -13631 0
-14074 -14073 0
-14074 14072 0
14074 14073 -14072 0
-14075 8033 13638 0
-14075 -8033 -13638 0
14075 -8033 13638 0
14075 8033 -13638 0
-14076 14075 -14074 0
-14076 -14075 14074 0
14076 -14075 -14074 0
14076 14075 14074 0
-14077 13638 0
-14077 -14074 0
14077 -13638 14074 0
-14078 8033 0
-14078 -14074 0
14078 -8033 14074 0
-14079 -14078 0
-14079 -14077 0
14079 14078 14077 0
-14080 8033 0
-14080 13638 0
14080 -8033 -13638 0
-14081 -14080 0
-14081 14079 0
14081 14080 -14079 0
-14082 8040 13645 0
-14082 -8040 -13645 0
14082 -8040 13645 0
14082 8040 -13645 0
-14083 14082 -14081 0
-14083 -14082 14081 0
14083 -14082 -14081 0
14083 14082 14081 0
-14084 13645 0
-14084 -14081 0
14084 -13645 14081 0
-14085 8040 0
-14085 -14081 0
14085 -8040 14081 0
-14086 -14085 0
-14086 -14084 0
14086 14085 14084 0
-14087 8040 0
-14087 13645 0
14087 -8040 -13645 0
-14088 -14087 0
-14088 14086 0
14088 14087 -14086 0
-14089 8047 13652 0
-14089 -8047 -13652 0
14089 -8047 13652 0
14089 8047 -13652 0
-14090 14089 -14088 0
-14090 -14089 14088 0
14090 -14089 -14088 0
14090 14089 14088 0
-14091 13652 0
-14091 -14088 0
14091 -13652 14088 0
-14092 8047 0
-14092 -14088 0
14092 -8047 14088 0
-14093 -14092 0
-14093 -14091 0
14093 14092 14091 0
-14094 8047 0
-14094 13652 0
14094 -8047 -13652 0
-14095 -14094 0
-14095 14093 0
14095 14094 -14093 0
-14096 8054 13659 0
-14096 -8054 -13659 0
14096 -8054 13659 0
14096 8054 -13659 0
-14097 14096 -14095 0
-14097 -14096 14095 0
14097 -14096 -14095 0
14097 14096 14095 0
-14098 13659 0
-14098 -14095 0
14098 -13659 14095 0
-14099 8054 0
-14099 -14095 0
14099 -8054 14095 0
-14100 -14099 0
-14100 -14098 0
14100 14099 14098 0
-14101 8054 0
-14101 13659 0
14101 -8054 -13659 0
-14102 -14101 0
-14102 14100 0
14102 14101 -14100 0
-14103 8061 13666 0
-14103 -8061 -13666 0
14103 -8061 13666 0
14103 8061 -13666 0
-14104 14103 -14102 0
-14104 -14103 14102 0
14104 -14103 -14102 0
14104 14103 14102 0
-14105 13666 0
-14105 -14102 0
14105 -13666 14102 0
-14106 8061 0
-14106 -14102 0
14106 -8061 14102 0
-14107 -14106 0
-14107 -14105 0
14107 14106 14105 0
-14108 8061 0
-14108 13666 0
14108 -8061 -13666 0
-14109 -14108 0
-14109 14107 0
14109 14108 -14107 0
-14110 8068 13673 0
-14110 -8068 -13673 0
14110 -8068 13673 0
14110 8068 -13673 0
-14111 14110 -14109 0
-14111 -14110 14109 0
14111 -14110 -14109 0
14111 14110 14109 0
-14112 13673 0
-14112 -14109 0
14112 -13673 14109 0
-14113 8068 0
-14113 -14109 0
14113 -8068 14109 0
-14114 -14113 0
-14114 -14112 0
14114 14113 14112 0
-14115 8068 0
-14115 13673 0
14115 -8068 -13673 0
-14116 -14115 0
-14116 14114 0
14116 14115 -14114 0
-14117 8075 13680 0
-14117 -8075 -13680 0
14117 -8075 13680 0
14117 8075 -13680 0
-14118 14117 -14116 0
-14118 -14117 14116 0
14118 -14117 -14116 0
14118 14117 14116 0
-14119 13680 0
-14119 -14116 0
14119 -13680 14116 0
-14120 8075 0
-14120 -14116 0
14120 -8075 14116 0
-14121 -14120 0
-14121 -14119 0
14121 14120 14119 0
-14122 8075 0
-14122 13680 0
14122 -8075 -13680 0
-14123 -14122 0
-14123 14121 0
14123 14122 -14121 0
-14124 8082 13687 0
-14124 -8082 -13687 0
14124 -8082 13687 0
14124 8082 -13687 0
-14125 14124 -14123 0
-14125 -14124 14123 0
14125 -14124 -14123 0
14125 14124 14123 0
-14126 13687 0
-14126 -14123 0
14126 -13687 14123 0
-14127 8082 0
-14127 -14123 0
14127 -8082 14123 0
-14128 -14127 0
-14128 -14126 0
14128 14127 14126 0
-14129 8082 0
-14129 13687 0
14129 -8082 -13687 0
-14130 -14129 0
-14130 14128 0
14130 14129 -14128 0
-14131 8089 13694 0
-14131 -8089 -13694 0
14131 -8089 13694 0
14131 8089 -13694 0
-14132 14131 -14130 0
-14132 -14131 14130 0
14132 -14131 -14130 0
14132 14131 14130 0
-14133 13694 0
-14133 -14130 0
14133 -13694 14130 0
-14134 8089 0
-14134 -14130 0
14134 -8089 14130 0
-14135 -14134 0
-14135 -14133 0
14135 14134 14133 0
-14136 8089 0
-14136 13694 0
14136 -8089 -13694 0
-14137 -14136 0
-14137 14135 0
14137 14136 -14135 0
-14138 8096 13701 0
-14138 -8096 -13701 0
14138 -8096 13701 0
14138 8096 -13701 0
-14139 14138 -14137 0
-14139 -14138 14137 0
14139 -14138 -14137 0
14139 14138 14137 0
-14140 13701 0
-14140 -14137 0
14140 -13701 14137 0
-14141 8096 0
-14141 -14137 0
14141 -8096 14137 0
-14142 -14141 0
-14142 -14140 0
14142 14141 14140 0
-14143 8096 0
-14143 13701 0
14143 -8096 -13701 0
-14144 -14143 0
-14144 14142 0
14144 14143 -14142 0
-14145 8103 13708 0
-14145 -8103 -13708 0
14145 -8103 13708 0
14145 8103 -13708 0
-14146 14145 -14144 0
-14146 -14145 14144 0
14146 -14145 -14144 0
14146 14145 14144 0
-14147 13708 0
-14147 -14144 0
14147 -13708 14144 0
-14148 8103 0
-14148 -14144 0
14148 -8103 14144 0
-14149 -14148 0
-14149 -14147 0
14149 14148 14147 0
-14150 8103 0
-14150 13708 0
14150 -8103 -13708 0
-14151 -14150 0
-14151 14149 0
14151 14150 -14149 0
-14152 8110 13715 0
-14152 -8110 -13715 0
14152 -8110 13715 0
14152 8110 -13715 0
-14153 14152 -14151 0
-14153 -14152 14151 0
14153 -14152 -14151 0
14153 14152 14151 0
-14154 13715 0
-14154 -14151 0
14154 -13715 14151 0
-14155 8110 0
-14155 -14151 0
14155 -8110 14151 0
-14156 -14155 0
-14156 -14154 0
14156 14155 14154 0
-14157 8110 0
-14157 13715 0
14157 -8110 -13715 0
-14158 -14157 0
-14158 14156 0
14158 14157 -14156 0
-14159 8117 13722 0
-14159 -8117 -13722 0
14159 -8117 13722 0
14159 8117 -13722 0
-14160 14159 -14158 0
-14160 -14159 14158 0
14160 -14159 -14158 0
14160 14159 14158 0
-14161 13722 0
-14161 -14158 0
14161 -13722 14158 0
-14162 8117 0
-14162 -14158 0
14162 -8117 14158 0
-14163 -14162 0
-14163 -14161 0
14163 14162 14161 0
-14164 8117 0
-14164 13722 0
14164 -8117 -13722 0
-14165 -14164 0
-14165 14163 0
14165 14164 -14163 0
-14166 8124 13729 0
-14166 -8124 -13729 0
14166 -8124 13729 0
14166 8124 -13729 0
-14167 14166 -14165 0
-14167 -14166 14165 0
14167 -14166 -14165 0
14167 14166 14165 0
-14168 13729 0
-14168 -14165 0
14168 -13729 14165 0
-14169 8124 0
-14169 -14165 0
14169 -8124 14165 0
-14170 -14169 0
-14170 -14168 0
14170 14169 14168 0
-14171 8124 0
-14171 13729 0
14171 -8124 -13729 0
-14172 -14171 0
-14172 14170 0
14172 14171 -14170 0
-14173 8131 13736 0
-14173 -8131 -13736 0
14173 -8131 13736 0
14173 8131 -13736 0
-14174 14173 -14172 0
-14174 -14173 14172 0
14174 -14173 -14172 0
14174 14173 14172 0
-14175 13736 0
-14175 -14172 0
14175 -13736 14172 0
-14176 8131 0
-14176 -14172 0
14176 -8131 14172 0
-14177 -14176 0
-14177 -14175 0
14177 14176 14175 0
-14178 8131 0
-14178 13736 0
14178 -8131 -13736 0
-14179 -14178 0
-14179 14177 0
14179 14178 -14177 0
-14180 8138 13743 0
-14180 -8138 -13743 0
14180 -8138 13743 0
14180 8138 -13743 0
-14181 14180 -14179 0
-14181 -14180 14179 0
14181 -14180 -14179 0
14181 14180 14179 0
-14182 13743 0
-14182 -14179 0
14182 -13743 14179 0
-14183 8138 0
-14183 -14179 0
14183 -8138 14179 0
-14184 -14183 0
-14184 -14182 0
14184 14183 14182 0
-14185 8138 0
-14185 13743 0
14185 -8138 -13743 0
-14186 -14185 0
-14186 14184 0
14186 14185 -14184 0
-14187 8145 13750 0
-14187 -8145 -13750 0
14187 -8145 13750 0
14187 8145 -13750 0
-14188 14187 -14186 0
-14188 -14187 14186 0
14188 -14187 -14186 0
14188 14187 14186 0
-14189 13750 0
-14189 -14186 0
14189 -13750 14186 0
-14190 8145 0
-14190 -14186 0
14190 -8145 14186 0
-14191 -14190 0
-14191 -14189 0
14191 14190 14189 0
-14192 8145 0
-14192 13750 0
14192 -8145 -13750 0
-14193 -14192 0
-14193 14191 0
14193 14192 -14191 0
-14194 8152 13757 0
-14194 -8152 -13757 0
14194 -8152 13757 0
14194 8152 -13757 0
-14195 14194 -14193 0
-14195 -14194 14193 0
14195 -14194 -14193 0
14195 14194 14193 0
-14196 13757 0
-14196 -14193 0
14196 -13757 14193 0
-14197 8152 0
-14197 -14193 0
14197 -8152 14193 0
-14198 -14197 0
-14198 -14196 0
14198 14197 14196 0
-14199 8152 0
-14199 13757 0
14199 -8152 -13757 0
-14200 -14199 0
-14200 14198 0
14200 14199 -14198 0
-14201 8159 13764 0
-14201 -8159 -13764 0
14201 -8159 13764 0
14201 8159 -13764 0
-14202 14201 -14200 0
-14202 -14201 14200 0
14202 -14201 -14200 0
14202 14201 14200 0
-14203 13764 0
-14203 -14200 0
14203 -13764 14200 0
-14204 8159 0
-14204 -14200 0
14204 -8159 14200 0
-14205 -14204 0
-14205 -14203 0
14205 14204 14203 0
-14206 8159 0
-14206 13764 0
14206 -8159 -13764 0
-14207 -14206 0
-14207 14205 0
14207 14206 -14205 0
-14208 8166 13771 0
-14208 -8166 -13771 0
14208 -8166 13771 0
14208 8166 -13771 0
-14209 14208 -14207 0
-14209 -14208 14207 0
14209 -14208 -14207 0
14209 14208 14207 0
-14210 13771 0
-14210 -14207 0
14210 -13771 14207 0
-14211 8166 0
-14211 -14207 0
14211 -8166 14207 0
-14212 -14211 0
-14212 -14210 0
14212 14211 14210 0
-14213 8166 0
-14213 13771 0
14213 -8166 -13771 0
-14214 -14213 0
-14214 14212 0
14214 14213 -14212 0
-14215 13558 13777 0
-14215 -13558 -13777 0
14215 -13558 13777 0
14215 13558 -13777 0
-14216 13558 0
-14216 13777 0
14216 -13558 -13777 0
-14217 13561 13780 0
-14217 -13561 -13780 0
14217 -13561 13780 0
14217 13561 -13780 0
-14218 14217 14216 0
-14218 -14217 -14216 0
14218 -14217 14216 0
14218 14217 -14216 0
-14219 13780 0
-14219 14216 0
14219 -13780 -14216 0
-14220 13561 0
-14220 14216 0
14220 -13561 -14216 0
-14221 -14220 0
-14221 -14219 0
14221 14220 14219 0
-14222 13561 0
-14222 13780 0
14222 -13561 -13780 0
-14223 -14222 0
-14223 14221 0
14223 14222 -14221 0
-14224 13568 13787 0
-14224 -13568 -13787 0
14224 -13568 13787 0
14224 13568 -13787 0
-14225 14224 -14223 0
-14225 -14224 14223 0
14225 -14224 -14223 0
14225 14224 14223 0
-14226 13787 0
-14226 -14223 0
14226 -13787 14223 0
-14227 13568 0
-14227 -14223 0
14227 -13568 14223 0
-14228 -14227 0
-14228 -14226 0
14228 14227 14226 0
-14229 13568 0
-14229 13787 0
14229 -13568 -13787 0
-14230 -14229 0
-14230 14228 0
14230 14229 -14228 0
-14231 13575 13794 0
-14231 -13575 -13794 0
14231 -13575 13794 0
14231 13575 -13794 0
-14232 14231 -14230 0
-14232 -14231 14230 0
14232 -14231 -14230 0
14232 14231 14230 0
-14233 13794 0
-14233 -14230 0
14233 -13794 14230 0
-14234 13575 0
-14234 -14230 0
14234 -13575 14230 0
-14235 -14234 0
-14235 -14233 0
14235 14234 14233 0
-14236 13575 0
-14236 13794 0
14236 -13575 -13794 0
-14237 -14236 0
-14237 14235 0
14237 14236 -14235 0
-14238 13582 13801 0
-14238 -13582 -13801 0
14238 -13582 13801 0
14238 13582 -13801 0
-14239 14238 -14237 0
-14239 -14238 14237 0
14239 -14238 -14237 0
14239 14238 14237 0
-14240 13801 0
-14240 -14237 0
14240 -13801 14237 0
-14241 13582 0
-14241 -14237 0
14241 -13582 14237 0
-14242 -14241 0
-14242 -14240 0
14242 14241 14240 0
-14243 13582 0
-14243 13801 0
14243 -13582 -13801 0
-14244 -14243 0
-14244 14242 0
14244 14243 -14242 0
-14245 13589 13808 0
-14245 -13589 -13808 0
14245 -13589 13808 0
14245 13589 -13808 0
-14246 14245 -14244 0
-14246 -14245 14244 0
14246 -14245 -14244 0
14246 14245 14244 0
-14247 13808 0
-14247 -14244 0
14247 -13808 14244 0
-14248 13589 0
-14248 -14244 0
14248 -13589 14244 0
-14249 -14248 0
-14249 -14247 0
14249 14248 14247 0
-14250 13589 0
-14250 13808 0
14250 -13589 -13808 0
-14251 -14250 0
-14251 14249 0
14251 14250 -14249 0
-14252 13596 13815 0
-14252 -13596 -13815 0
14252 -13596 13815 0
14252 13596 -13815 0
-14253 14252 -14251 0
-14253 -14252 14251 0
14253 -14252 -14251 0
14253 14252 14251 0
-14254 13815 0
-14254 -14251 0
14254 -13815 14251 0
-14255 13596 0
-14255 -14251 0
14255 -13596 14251 0
-14256 -14255 0
-14256 -14254 0
14256 14255 14254 0
-14257 13596 0
-14257 13815 0
14257 -13596 -13815 0
-14258 -14257 0
-14258 14256 0
14258 14257 -14256 0
-14259 13603 13822 0
-14259 -13603 -13822 0
14259 -13603 13822 0
14259 13603 -13822 0
-14260 14259 -14258 0
-14260 -14259 14258 0
14260 -14259 -14258 0
14260 14259 14258 0
-14261 13822 0
-14261 -14258 0
14261 -13822 14258 0
-14262 13603 0
-14262 -14258 0
14262 -13603 14258 0
-14263 -14262 0
-14263 -14261 0
14263 14262 14261 0
-14264 13603 0
-14264 13822 0
14264 -13603 -13822 0
-14265 -14264 0
-14265 14263 0
14265 14264 -14263 0
-14266 13610 13829 0
-14266 -13610 -13829 0
14266 -13610 13829 0
14266 13610 -13829 0
-14267 14266 -14265 0
-14267 -14266 14265 0
14267 -14266 -14265 0
14267 14266 14265 0
-14268 13829 0
-14268 -14265 0
14268 -13829 14265 0
-14269 13610 0
-14269 -14265 0
14269 -13610 14265 0
-14270 -14269 0
-14270 -14268 0
14270 14269 14268 0
-14271 13610 0
-14271 13829 0
14271 -13610 -13829 0
-14272 -14271 0
-14272 14270 0
14272 14271 -14270 0
-14273 13617 13836 0
-14273 -13617 -13836 0
14273 -13617 13836 0
14273 13617 -13836 0
-14274 14273 -14272 0
-14274 -14273 14272 0
14274 -14273 -14272 0
14274 14273 14272 0
-14275 13836 0
-14275 -14272 0
14275 -13836 14272 0
-14276 13617 0
-14276 -14272 0
14276 -13617 14272 0
-14277 -14276 0
-14277 -14275 0
14277 14276 14275 0
-14278 13617 0
-14278 13836 0
14278 -13617 -13836 0
-14279 -14278 0
-14279 14277 0
14279 14278 -14277 0
-14280 13624 13843 0
-14280 -13624 -13843 0
14280 -13624 13843 0
14280 13624 -13843 0
-14281 14280 -14279 0
-14281 -14280 14279 0
14281 -14280 -14279 0
14281 14280 14279 0
-14282 13843 0
-14282 -14279 0
14282 -13843 14279 0
-14283 13624 0
-14283 -14279 0
14283 -13624 14279 0
-14284 -14283 0
-14284 -14282 0
14284 14283 14282 0
-14285 13624 0
-14285 13843 0
14285 -13624 -13843 0
-14286 -14285 0
-14286 14284 0
14286 14285 -14284 0
-14287 13631 13850 0
-14287 -13631 -13850 0
14287 -13631 13850 0
14287 13631 -13850 0
-14288 14287 -14286 0
-14288 -14287 14286 0
14288 -14287 -14286 0
14288 14287 14286 0
-14289 13850 0
-14289 -14286 0
14289 -13850 14286 0
-14290 13631 0
-14290 -14286 0
14290 -13631 14286 0
-14291 -14290 0
-14291 -14289 0
14291 14290 14289 0
-14292 13631 0
-14292 13850 0
14292 -13631 -13850 0
-14293 -14292 0
-14293 14291 0
14293 14292 -14291 0
-14294 13638 13857 0
-14294 -13638 -13857 0
14294 -13638 13857 0
14294 13638 -13857 0
-14295 14294 -14293 0
-14295 -14294 14293 0
14295 -14294 -14293 0
14295 14294 14293 0
-14296 13857 0
-14296 -14293 0
14296 -13857 14293 0
-14297 13638 0
-14297 -14293 0
14297 -13638 14293 0
-14298 -14297 0
-14298 -14296 0
14298 14297 14296 0
-14299 13638 0
-14299 13857 0
14299 -13638 -13857 0
-14300 -14299 0
-14300 14298 0
14300 14299 -14298 0
-14301 13645 13864 0
-14301 -13645 -13864 0
14301 -13645 13864 0
14301 13645 -13864 0
-14302 14301 -14300 0
-14302 -14301 14300 0
14302 -14301 -14300 0
14302 14301 14300 0
-14303 13864 0
-14303 -14300 0
14303 -13864 14300 0
-14304 13645 0
-14304 -14300 0
14304 -13645 14300 0
-14305 -14304 0
-14305 -14303 0
14305 14304 14303 0
-14306 13645 0
-14306 13864 0
14306 -13645 -13864 0
-14307 -14306 0
-14307 14305 0
14307 14306 -14305 0
-14308 13652 13871 0
-14308 -13652 -13871 0
14308 -13652 13871 0
14308 13652 -13871 0
-14309 14308 -14307 0
-14309 -14308 14307 0
14309 -14308 -14307 0
14309 14308 14307 0
-14310 13871 0
-14310 -14307 0
14310 -13871 14307 0
-14311 13652 0
-14311 -14307 0
14311 -13652 14307 0
-14312 -14311 0
-14312 -14310 0
14312 14311 14310 0
-14313 13652 0
-14313 13871 0
14313 -13652 -13871 0
-14314 -14313 0
-14314 14312 0
14314 14313 -14312 0
-14315 13659 13878 0
-14315 -13659 -13878 0
14315 -13659 13878 0
14315 13659 -13878 0
-14316 14315 -14314 0
-14316 -14315 14314 0
14316 -14315 -14314 0
14316 14315 14314 0
-14317 13878 0
-14317 -14314 0
14317 -13878 14314 0
-14318 13659 0
-14318 -14314 0
14318 -13659 14314 0
-14319 -14318 0
-14319 -14317 0
14319 14318 14317 0
-14320 13659 0
-14320 13878 0
14320 -13659 -13878 0
-14321 -14320 0
-14321 14319 0
14321 14320 -14319 0
-14322 13666 13885 0
-14322 -13666 -13885 0
14322 -13666 13885 0
14322 13666 -13885 0
-14323 14322 -14321 0
-14323 -14322 14321 0
14323 -14322 -14321 0
14323 14322 14321 0
-14324 13885 0
-14324 -14321 0
14324 -13885 14321 0
-14325 13666 0
-14325 -14321 0
14325 -13666 14321 0
-14326 -14325 0
-14326 -14324 0
14326 14325 14324 0
-14327 13666 0
-14327 13885 0
14327 -13666 -13885 0
-14328 -14327 0
-14328 14326 0
14328 14327 -14326 0
-14329 13673 13892 0
-14329 -13673 -13892 0
14329 -13673 13892 0
14329 13673 -13892 0
-14330 14329 -14328 0
-14330 -14329 14328 0
14330 -14329 -14328 0
14330 14329 14328 0
-14331 13892 0
-14331 -14328 0
14331 -13892 14328 0
-14332 13673 0
-14332 -14328 0
14332 -13673 14328 0
-14333 -14332 0
-14333 -14331 0
14333 14332 14331 0
-14334 13673 0
-14334 13892 0
14334 -13673 -13892 0
-14335 -14334 0
-14335 14333 0
14335 14334 -14333 0
-14336 13680 13899 0
-14336 -13680 -13899 0
14336 -13680 13899 0
14336 13680 -13899 0
-14337 14336 -14335 0
-14337 -14336 14335 0
14337 -14336 -14335 0
14337 14336 14335 0
-14338 13899 0
-14338 -14335 0
14338 -13899 14335 0
-14339 13680 0
-14339 -14335 0
14339 -13680 14335 0
-14340 -14339 0
-14340 -14338 0
14340 14339 14338 0
-14341 13680 0
-14341 13899 0
14341 -13680 -13899 0
-14342 -14341 0
-14342 14340 0
14342 14341 -14340 0
-14343 13687 13906 0
-14343 -13687 -13906 0
14343 -13687 13906 0
14343 13687 -13906 0
-14344 14343 -14342 0
-14344 -14343 14342 0
14344 -14343 -14342 0
14344 14343 14342 0
-14345 13906 0
-14345 -14342 0
14345 -13906 14342 0
-14346 13687 0
-14346 -14342 0
14346 -13687 14342 0
-14347 -14346 0
-14347 -14345 0
14347 14346 14345 0
-14348 13687 0
-14348 13906 0
14348 -13687 -13906 0
-14349 -14348 0
-14349 14347 0
14349 14348 -14347 0
-14350 13694 13913 0
-14350 -13694 -13913 0
14350 -13694 13913 0
14350 13694 -13913 0
-14351 14350 -14349 0
-14351 -14350 14349 0
14351 -14350 -14349 0
14351 14350 14349 0
-14352 13913 0
-14352 -14349 0
14352 -13913 14349 0
-14353 13694 0
-14353 -14349 0
14353 -13694 14349 0
-14354 -14353 0
-14354 -14352 0
14354 14353 14352 0
-14355 13694 0
-14355 13913 0
14355 -13694 -13913 0
-14356 -14355 0
-14356 14354 0
14356 14355 -14354 0
-14357 13701 13920 0
-14357 -13701 -13920 0
14357 -13701 13920 0
14357 13701 -13920 0
-14358 14357 -14356 0
-14358 -14357 14356 0
14358 -14357 -14356 0
14358 14357 14356 0
-14359 13920 0
-14359 -14356 0
14359 -13920 14356 0
-14360 13701 0
-14360 -14356 0
14360 -13701 14356 0
-14361 -14360 0
-14361 -14359 0
14361 14360 14359 0
-14362 13701 0
-14362 13920 0
14362 -13701 -13920 0
-14363 -14362 0
-14363 14361 0
14363 14362 -14361 0
-14364 13708 13927 0
-14364 -13708 -13927 0
14364 -13708 13927 0
14364 13708 -13927 0
-14365 14364 -14363 0
-14365 -14364 14363 0
14365 -14364 -14363 0
14365 14364 14363 0
-14366 13927 0
-14366 -14363 0
14366 -13927 14363 0
-14367 13708 0
-14367 -14363 0
14367 -13708 14363 0
-14368 -14367 0
-14368 -14366 0
14368 14367 14366 0
-14369 13708 0
-14369 13927 0
14369 -13708 -13927 0
-14370 -14369 0
-14370 14368 0
14370 14369 -14368 0
-14371 13715 13934 0
-14371 -13715 -13934 0
14371 -13715 13934 0
14371 13715 -13934 0
-14372 14371 -14370 0
-14372 -14371 14370 0
14372 -14371 -14370 0
14372 14371 14370 0
-14373 13934 0
-14373 -14370 0
14373 -13934 14370 0
-14374 13715 0
-14374 -14370 0
14374 -13715 14370 0
-14375 -14374 0
-14375 -14373 0
14375 14374 14373 0
-14376 13715 0
-14376 13934 0
14376 -13715 -13934 0
-14377 -14376 0
-14377 14375 0
14377 14376 -14375 0
-14378 13722 13941 0
-14378 -13722 -13941 0
14378 -13722 13941 0
14378 13722 -13941 0
-14379 14378 -14377 0
-14379 -14378 14377 0
14379 -14378 -14377 0
14379 14378 14377 0
-14380 13941 0
-14380 -14377 0
14380 -13941 14377 0
-14381 13722 0
-14381 -14377 0
14381 -13722 14377 0
-14382 -14381 0
-14382 -14380 0
14382 14381 14380 0
-14383 13722 0
-14383 13941 0
14383 -13722 -13941 0
-14384 -14383 0
-14384 14382 0
14384 14383 -14382 0
-14385 13729 13948 0
-14385 -13729 -13948 0
14385 -13729 13948 0
14385 13729 -13948 0
-14386 14385 -14384 0
-14386 -14385 14384 0
14386 -14385 -14384 0
14386 14385 14384 0
-14387 13948 0
-14387 -14384 0
14387 -13948 14384 0
-14388 13729 0
-14388 -14384 0
14388 -13729 14384 0
-14389 -14388 0
-14389 -14387 0
14389 14388 14387 0
-14390 13729 0
-14390 13948 0
14390 -13729 -13948 0
-14391 -14390 0
-14391 14389 0
14391 14390 -14389 0
-14392 13736 13955 0
-14392 -13736 -13955 0
14392 -13736 13955 0
14392 13736 -13955 0
-14393 14392 -14391 0
-14393 -14392 14391 0
14393 -14392 -14391 0
14393 14392 14391 0
-14394 13955 0
-14394 -14391 0
14394 -13955 14391 0
-14395 13736 0
-14395 -14391 0
14395 -13736 14391 0
-14396 -14395 0
-14396 -14394 0
14396 14395 14394 0
-14397 13736 0
-14397 13955 0
14397 -13736 -13955 0
-14398 -14397 0
-14398 14396 0
14398 14397 -14396 0
-14399 13743 13962 0
-14399 -13743 -13962 0
14399 -13743 13962 0
14399 13743 -13962 0
-14400 14399 -14398 0
-14400 -14399 14398 0
14400 -14399 -14398 0
14400 14399 14398 0
-14401 13962 0
-14401 -14398 0
14401 -13962 14398 0
-14402 13743 0
-14402 -14398 0
14402 -13743 14398 0
-14403 -14402 0
-14403 -14401 0
14403 14402 14401 0
-14404 13743 0
-14404 13962 0
14404 -13743 -13962 0
-14405 -14404 0
-14405 14403 0
14405 14404 -14403 0
-14406 13750 13969 0
-14406 -13750 -13969 0
14406 -13750 13969 0
14406 13750 -13969 0
-14407 14406 -14405 0
-14407 -14406 14405 0
14407 -14406 -14405 0
14407 14406 14405 0
-14408 13969 0
-14408 -14405 0
14408 -13969 14405 0
-14409 13750 0
-14409 -14405 0
14409 -13750 14405 0
-14410 -14409 0
-14410 -14408 0
14410 14409 14408 0
-14411 13750 0
-14411 13969 0
14411 -13750 -13969 0
-14412 -14411 0
-14412 14410 0
14412 14411 -14410 0
-14413 13757 13976 0
-14413 -13757 -13976 0
14413 -13757 13976 0
14413 13757 -13976 0
-14414 14413 -14412 0
-14414 -14413 14412 0
14414 -14413 -14412 0
14414 14413 14412 0
-14415 13976 0
-14415 -14412 0
14415 -13976 14412 0
-14416 13757 0
-14416 -14412 0
14416 -13757 14412 0
-14417 -14416 0
-14417 -14415 0
14417 14416 14415 0
-14418 13757 0
-14418 13976 0
14418 -13757 -13976 0
-14419 -14418 0
-14419 14417 0
14419 14418 -14417 0
-14420 13764 13983 0
-14420 -13764 -13983 0
14420 -13764 13983 0
14420 13764 -13983 0
-14421 14420 -14419 0
-14421 -14420 14419 0
14421 -14420 -14419 0
14421 14420 14419 0
-14422 13983 0
-14422 -14419 0
14422 -13983 14419 0
-14423 13764 0
-14423 -14419 0
14423 -13764 14419 0
-14424 -14423 0
-14424 -14422 0
14424 14423 14422 0
-14425 13764 0
-14425 13983 0
14425 -13764 -13983 0
-14426 -14425 0
-14426 14424 0
14426 14425 -14424 0
-14427 13771 13990 0
-14427 -13771 -13990 0
14427 -13771 13990 0
14427 13771 -13990 0
-14428 14427 -14426 0
-14428 -14427 14426 0
14428 -14427 -14426 0
14428 14427 14426 0
-14429 13990 0
-14429 -14426 0
14429 -13990 14426 0
-14430 13771 0
-14430 -14426 0
14430 -13771 14426 0
-14431 -14430 0
-14431 -14429 0
14431 14430 14429 0
-14432 13771 0
-14432 13990 0
14432 -13771 -13990 0
-14433 -14432 0
-14433 14431 0
14433 14432 -14431 0
-14434 -14218 14215 0
-14434 14218 -14215 0
14434 14218 14215 0
14434 -14218 -14215 0
-14435 14218 0
-14435 14215 0
14435 -14218 -14215 0
-14436 -14435 0
-14436 -14215 0
14436 14435 14215 0
-14437 -14218 0
-14437 14436 0
14437 14218 -14436 0
-14438 -14225 -14437 0
-14438 14225 14437 0
14438 14225 -14437 0
14438 -14225 14437 0
-14439 14225 0
-14439 -14437 0
14439 -14225 14437 0
-14440 -14439 0
-14440 14437 0
14440 14439 -14437 0
-14441 -14225 0
-14441 14440 0
14441 14225 -14440 0
-14442 14232 -14441 0
-14442 -14232 14441 0
14442 -14232 -14441 0
14442 14232 14441 0
-14443 14232 0
-14443 -14441 0
14443 -14232 14441 0
-14444 14239 14443 0
-14444 -14239 -14443 0
14444 -14239 14443 0
14444 14239 -14443 0
-14445 14239 0
-14445 14443 0
14445 -14239 -14443 0
-14446 -14246 14445 0
-14446 14246 -14445 0
14446 14246 14445 0
14446 -14246 -14445 0
-14447 14246 0
-14447 14445 0
14447 -14246 -14445 0
-14448 -14447 0
-14448 -14445 0
14448 14447 14445 0
-14449 -14246 0
-14449 14448 0
14449 14246 -14448 0
-14450 -14253 -14449 0
-14450 14253 14449 0
14450 14253 -14449 0
14450 -14253 14449 0
-14451 14253 0
-14451 -14449 0
14451 -14253 14449 0
-14452 -14451 0
-14452 14449 0
14452 14451 -14449 0
-14453 -14253 0
-14453 14452 0
14453 14253 -14452 0
-14454 14260 -14453 0
-14454 -14260 14453 0
14454 -14260 -14453 0
14454 14260 14453 0
-14455 14260 0
-14455 -14453 0
14455 -14260 14453 0
-14456 14267 14455 0
-14456 -14267 -14455 0
14456 -14267 14455 0
14456 14267 -14455 0
-14457 14267 0
-14457 14455 0
14457 -14267 -14455 0
-14458 -14274 14457 0
-14458 14274 -14457 0
14458 14274 14457 0
14458 -14274 -14457 0
-14459 14274 0
-14459 14457 0
14459 -14274 -14457 0
-14460 -14459 0
-14460 -14457 0
14460 14459 14457 0
-14461 -14274 0
-14461 14460 0
14461 14274 -14460 0
-14462 -14281 -14461 0
-14462 14281 14461 0
14462 14281 -14461 0
14462 -14281 14461 0
-14463 14281 0
-14463 -14461 0
14463 -14281 14461 0
-14464 -14463 0
-14464 14461 0
14464 14463 -14461 0
-14465 -14281 0
-14465 14464 0
14465 14281 -14464 0
-14466 14288 -14465 0
-14466 -14288 14465 0
14466 -14288 -14465 0
14466 14288 14465 0
-14467 14288 0
-14467 -14465 0
14467 -14288 14465 0
-14468 14295 14467 0
-14468 -14295 -14467 0
14468 -14295 14467 0
14468 14295 -14467 0
-14469 14295 0
-14469 14467 0
14469 -14295 -14467 0
-14470 -14302 14469 0
-14470 14302 -14469 0
14470 14302 14469 0
14470 -14302 -14469 0
-14471 14302 0
-14471 14469 0
14471 -14302 -14469 0
-14472 -14471 0
-14472 -14469 0
14472 14471 14469 0
-14473 -14302 0
-14473 14472 0
14473 14302 -14472 0
-14474 -14309 -14473 0
-14474 14309 14473 0
14474 14309 -14473 0
14474 -14309 14473 0
-14475 14309 0
-14475 -14473 0
14475 -14309 14473 0
-14476 -14475 0
-14476 14473 0
14476 14475 -14473 0
-14477 -14309 0
-14477 14476 0
14477 14309 -14476 0
-14478 -14316 -14477 0
-14478 14316 14477 0
14478 14316 -14477 0
14478 -14316 14477 0
-14479 14316 0
-14479 -14477 0
14479 -14316 14477 0
-14480 -14479 0
-14480 14477 0
14480 14479 -14477 0
-14481 -14316 0
-14481 14480 0
14481 14316 -14480 0
-14482 -14323 -14481 0
-14482 14323 14481 0
14482 14323 -14481 0
14482 -14323 14481 0
-14483 14323 0
-14483 -14481 0
14483 -14323 14481 0
-14484 -14483 0
-14484 14481 0
14484 14483 -14481 0
-14485 -14323 0
-14485 14484 0
14485 14323 -14484 0
-14486 14330 -14485 0
-14486 -14330 14485 0
14486 -14330 -14485 0
14486 14330 14485 0
-14487 14330 0
-14487 -14485 0
14487 -14330 14485 0
-14488 14337 14487 0
-14488 -14337 -14487 0
14488 -14337 14487 0
14488 14337 -14487 0
-14489 14337 0
-14489 14487 0
14489 -14337 -14487 0
-14490 -14344 14489 0
-14490 14344 -14489 0
14490 14344 14489 0
14490 -14344 -14489 0
-14491 14344 0
-14491 14489 0
14491 -14344 -14489 0
-14492 -14491 0
-14492 -14489 0
14492 14491 14489 0
-14493 -14344 0
-14493 14492 0
14493 14344 -14492 0
-14494 14351 -14493 0
-14494 -14351 14493 0
14494 -14351 -14493 0
14494 14351 14493 0
-14495 14351 0
-14495 -14493 0
14495 -14351 14493 0
-14496 14358 14495 0
-14496 -14358 -14495 0
14496 -14358 14495 0
14496 14358 -14495 0
-14497 14358 0
-14497 14495 0
14497 -14358 -14495 0
-14498 14365 14497 0
-14498 -14365 -14497 0
14498 -14365 14497 0
14498 14365 -14497 0
-14499 14365 0
-14499 14497 0
14499 -14365 -14497 0
-14500 14372 14499 0
-14500 -14372 -14499 0
14500 -14372 14499 0
14500 14372 -14499 0
-14501 14372 0
-14501 14499 0
14501 -14372 -14499 0
-14502 14379 14501 0
-14502 -14379 -14501 0
14502 -14379 14501 0
14502 14379 -14501 0
-14503 14379 0
-14503 14501 0
14503 -14379 -14501 0
-14504 -14386 14503 0
-14504 14386 -14503 0
14504 14386 14503 0
14504 -14386 -14503 0
-14505 14386 0
-14505 14503 0
14505 -14386 -14503 0
-14506 -14505 0
-14506 -14503 0
14506 14505 14503 0
-14507 -14386 0
-14507 14506 0
14507 14386 -14506 0
-14508 14393 -14507 0
-14508 -14393 14507 0
14508 -14393 -14507 0
14508 14393 14507 0
-14509 14393 0
-14509 -14507 0
14509 -14393 14507 0
-14510 -14400 14509 0
-14510 14400 -14509 0
14510 14400 14509 0
14510 -14400 -14509 0
-14511 14400 0
-14511 14509 0
14511 -14400 -14509 0
-14512 -14511 0
-14512 -14509 0
14512 14511 14509 0
-14513 -14400 0
-14513 14512 0
14513 14400 -14512 0
-14514 14407 -14513 0
-14514 -14407 14513 0
14514 -14407 -14513 0
14514 14407 14513 0
-14515 14407 0
-14515 -14513 0
14515 -14407 14513 0
-14516 -14414 14515 0
-14516 14414 -14515 0
14516 14414 14515 0
14516 -14414 -14515 0
-14517 14414 0
-14517 14515 0
14517 -14414 -14515 0
-14518 -14517 0
-14518 -14515 0
14518 14517 14515 0
-14519 -14414 0
-14519 14518 0
14519 14414 -14518 0
-14520 -14421 -14519 0
-14520 14421 14519 0
14520 14421 -14519 0
14520 -14421 14519 0
-14521 14421 0
-14521 -14519 0
14521 -14421 14519 0
-14522 -14521 0
-14522 14519 0
14522 14521 -14519 0
-14523 -14421 0
-14523 14522 0
14523 14421 -14522 0
-14524 14428 -14523 0
-14524 -14428 14523 0
14524 -14428 -14523 0
14524 14428 14523 0
-14525 14428 0
-14525 -14523 0
14525 -14428 14523 0
-14526 12653 12650 0
-14526 -12653 -12650 0
14526 -12653 12650 0
14526 12653 -12650 0
-14527 12653 0
-14527 12650 0
14527 -12653 -12650 0
-14528 -12660 14527 0
-14528 12660 -14527 0
14528 12660 14527 0
14528 -12660 -14527 0
-14529 12660 0
-14529 14527 0
14529 -12660 -14527 0
-14530 -14529 0
-14530 -14527 0
14530 14529 14527 0
-14531 -12660 0
-14531 14530 0
14531 12660 -14530 0
-14532 12667 -14531 0
-14532 -12667 14531 0
14532 -12667 -14531 0
14532 12667 14531 0
-14533 12667 0
-14533 -14531 0
14533 -12667 14531 0
-14534 12674 14533 0
-14534 -12674 -14533 0
14534 -12674 14533 0
14534 12674 -14533 0
-14535 12674 0
-14535 14533 0
14535 -12674 -14533 0
-14536 12681 14535 0
-14536 -12681 -14535 0
14536 -12681 14535 0
14536 12681 -14535 0
-14537 12681 0
-14537 14535 0
14537 -12681 -14535 0
-14538 12688 14537 0
-14538 -12688 -14537 0
14538 -12688 14537 0
14538 12688 -14537 0
-14539 12688 0
-14539 14537 0
14539 -12688 -14537 0
-14540 -12695 14539 0
-14540 12695 -14539 0
14540 12695 14539 0
14540 -12695 -14539 0
-14541 12695 0
-14541 14539 0
14541 -12695 -14539 0
-14542 -14541 0
-14542 -14539 0
14542 14541 14539 0
-14543 -12695 0
-14543 14542 0
14543 12695 -14542 0
-14544 12702 -14543 0
-14544 -12702 14543 0
14544 -12702 -14543 0
14544 12702 14543 0
-14545 12702 0
-14545 -14543 0
14545 -12702 14543 0
-14546 -12709 14545 0
-14546 12709 -14545 0
14546 12709 14545 0
14546 -12709 -14545 0
-14547 12709 0
-14547 14545 0
14547 -12709 -14545 0
-14548 -14547 0
-14548 -14545 0
14548 14547 14545 0
-14549 -12709 0
-14549 14548 0
14549 12709 -14548 0
-14550 -12716 -14549 0
-14550 12716 14549 0
14550 12716 -14549 0
14550 -12716 14549 0
-14551 12716 0
-14551 -14549 0
14551 -12716 14549 0
-14552 -14551 0
-14552 14549 0
14552 14551 -14549 0
-14553 -12716 0
-14553 14552 0
14553 12716 -14552 0
-14554 -12723 -14553 0
-14554 12723 14553 0
14554 12723 -14553 0
14554 -12723 14553 0
-14555 12723 0
-14555 -14553 0
14555 -12723 14553 0
-14556 -14555 0
-14556 14553 0
14556 14555 -14553 0
-14557 -12723 0
-14557 14556 0
14557 12723 -14556 0
-14558 12730 -14557 0
-14558 -12730 14557 0
14558 -12730 -14557 0
14558 12730 14557 0
-14559 12730 0
-14559 -14557 0
14559 -12730 14557 0
-14560 -12737 14559 0
-14560 12737 -14559 0
14560 12737 14559 0
14560 -12737 -14559 0
-14561 12737 0
-14561 14559 0
14561 -12737 -14559 0
-14562 -14561 0
-14562 -14559 0
14562 14561 14559 0
-14563 -12737 0
-14563 14562 0
14563 12737 -14562 0
-14564 12744 -14563 0
-14564 -12744 14563 0
14564 -12744 -14563 0
14564 12744 14563 0
-14565 12744 0
-14565 -14563 0
14565 -12744 14563 0
-14566 -12751 14565 0
-14566 12751 -14565 0
14566 12751 14565 0
14566 -12751 -14565 0
-14567 12751 0
-14567 14565 0
14567 -12751 -14565 0
-14568 -14567 0
-14568 -14565 0
14568 14567 14565 0
-14569 -12751 0
-14569 14568 0
14569 12751 -14568 0
-14570 -12758 -14569 0
-14570 12758 14569 0
14570 12758 -14569 0
14570 -12758 14569 0
-14571 12758 0
-14571 -14569 0
14571 -12758 14569 0
-14572 -14571 0
-14572 14569 0
14572 14571 -14569 0
-14573 -12758 0
-14573 14572 0
14573 12758 -14572 0
-14574 -12765 -14573 0
-14574 12765 14573 0
14574 12765 -14573 0
14574 -12765 14573 0
-14575 12765 0
-14575 -14573 0
14575 -12765 14573 0
-14576 -14575 0
-14576 14573 0
14576 14575 -14573 0
-14577 -12765 0
-14577 14576 0
14577 12765 -14576 0
-14578 -12772 -14577 0
-14578 12772 14577 0
14578 12772 -14577 0
14578 -12772 14577 0
-14579 12772 0
-14579 -14577 0
14579 -12772 14577 0
-14580 -14579 0
-14580 14577 0
14580 14579 -14577 0
-14581 -12772 0
-14581 14580 0
14581 12772 -14580 0
-14582 12779 -14581 0
-14582 -12779 14581 0
14582 -12779 -14581 0
14582 12779 14581 0
-14583 12779 0
-14583 -14581 0
14583 -12779 14581 0
-14584 12786 14583 0
-14584 -12786 -14583 0
14584 -12786 14583 0
14584 12786 -14583 0
-14585 12786 0
-14585 14583 0
14585 -12786 -14583 0
-14586 -12793 14585 0
-14586 12793 -14585 0
14586 12793 14585 0
14586 -12793 -14585 0
-14587 12793 0
-14587 14585 0
14587 -12793 -14585 0
-14588 -14587 0
-14588 -14585 0
14588 14587 14585 0
-14589 -12793 0
-14589 14588 0
14589 12793 -14588 0
-14590 -12800 -14589 0
-14590 12800 14589 0
14590 12800 -14589 0
14590 -12800 14589 0
-14591 12800 0
-14591 -14589 0
14591 -12800 14589 0
-14592 -14591 0
-14592 14589 0
14592 14591 -14589 0
-14593 -12800 0
-14593 14592 0
14593 12800 -14592 0
-14594 12807 -14593 0
-14594 -12807 14593 0
14594 -12807 -14593 0
14594 12807 14593 0
-14595 12807 0
-14595 -14593 0
14595 -12807 14593 0
-14596 -12814 14595 0
-14596 12814 -14595 0
14596 12814 14595 0
14596 -12814 -14595 0
-14597 12814 0
-14597 14595 0
14597 -12814 -14595 0
-14598 -14597 0
-14598 -14595 0
14598 14597 14595 0
-14599 -12814 0
-14599 14598 0
14599 12814 -14598 0
-14600 -12821 -14599 0
-14600 12821 14599 0
14600 12821 -14599 0
14600 -12821 14599 0
-14601 12821 0
-14601 -14599 0
14601 -12821 14599 0
-14602 -14601 0
-14602 14599 0
14602 14601 -14599 0
-14603 -12821 0
-14603 14602 0
14603 12821 -14602 0
-14604 12828 -14603 0
-14604 -12828 14603 0
14604 -12828 -14603 0
14604 12828 14603 0
-14605 12828 0
-14605 -14603 0
14605 -12828 14603 0
-14606 -12835 14605 0
-14606 12835 -14605 0
14606 12835 14605 0
14606 -12835 -14605 0
-14607 12835 0
-14607 14605 0
14607 -12835 -14605 0
-14608 -14607 0
-14608 -14605 0
14608 14607 14605 0
-14609 -12835 0
-14609 14608 0
14609 12835 -14608 0
-14610 -12842 -14609 0
-14610 12842 14609 0
14610 12842 -14609 0
14610 -12842 14609 0
-14611 12842 0
-14611 -14609 0
14611 -12842 14609 0
-14612 -14611 0
-14612 14609 0
14612 14611 -14609 0
-14613 -12842 0
-14613 14612 0
14613 12842 -14612 0
-14614 -12849 -14613 0
-14614 12849 14613 0
14614 12849 -14613 0
14614 -12849 14613 0
-14615 12849 0
-14615 -14613 0
14615 -12849 14613 0
-14616 -14615 0
-14616 14613 0
14616 14615 -14613 0
-14617 -12849 0
-14617 14616 0
14617 12849 -14616 0
-14618 12856 -14617 0
-14618 -12856 14617 0
14618 -12856 -14617 0
14618 12856 14617 0
-14619 12856 0
-14619 -14617 0
14619 -12856 14617 0
-14620 -12863 14619 0
-14620 12863 -14619 0
14620 12863 14619 0
14620 -12863 -14619 0
-14621 12863 0
-14621 14619 0
14621 -12863 -14619 0
-14622 -14621 0
-14622 -14619 0
14622 14621 14619 0
-14623 -12863 0
-14623 14622 0
14623 12863 -14622 0
-14624 11099 11092 0
-14624 -11099 -11092 0
14624 -11099 11092 0
14624 11099 -11092 0
-14625 11099 0
-14625 11092 0
14625 -11099 -11092 0
-14626 11106 14625 0
-14626 -11106 -14625 0
14626 -11106 14625 0
14626 11106 -14625 0
-14627 11106 0
-14627 14625 0
14627 -11106 -14625 0
-14628 -11113 14627 0
-14628 11113 -14627 0
14628 11113 14627 0
14628 -11113 -14627 0
-14629 11113 0
-14629 14627 0
14629 -11113 -14627 0
-14630 -14629 0
-14630 -14627 0
14630 14629 14627 0
-14631 -11113 0
-14631 14630 0
14631 11113 -14630 0
-14632 -11120 -14631 0
-14632 11120 14631 0
14632 11120 -14631 0
14632 -11120 14631 0
-14633 11120 0
-14633 -14631 0
14633 -11120 14631 0
-14634 -14633 0
-14634 14631 0
14634 14633 -14631 0
-14635 -11120 0
-14635 14634 0
14635 11120 -14634 0
-14636 -11127 -14635 0
-14636 11127 14635 0
14636 11127 -14635 0
14636 -11127 14635 0
-14637 11127 0
-14637 -14635 0
14637 -11127 14635 0
-14638 -14637 0
-14638 14635 0
14638 14637 -14635 0
-14639 -11127 0
-14639 14638 0
14639 11127 -14638 0
-14640 11134 -14639 0
-14640 -11134 14639 0
14640 -11134 -14639 0
14640 11134 14639 0
-14641 11134 0
-14641 -14639 0
14641 -11134 14639 0
-14642 -11141 14641 0
-14642 11141 -14641 0
14642 11141 14641 0
14642 -11141 -14641 0
-14643 11141 0
-14643 14641 0
14643 -11141 -14641 0
-14644 -14643 0
-14644 -14641 0
14644 14643 14641 0
-14645 -11141 0
-14645 14644 0
14645 11141 -14644 0
-14646 -11148 -14645 0
-14646 11148 14645 0
14646 11148 -14645 0
14646 -11148 14645 0
-14647 11148 0
-14647 -14645 0
14647 -11148 14645 0
-14648 -14647 0
-14648 14645 0
14648 14647 -14645 0
-14649 -11148 0
-14649 14648 0
14649 11148 -14648 0
-14650 11155 -14649 0
-14650 -11155 14649 0
14650 -11155 -14649 0
14650 11155 14649 0
-14651 11155 0
-14651 -14649 0
14651 -11155 14649 0
-14652 11162 14651 0
-14652 -11162 -14651 0
14652 -11162 14651 0
14652 11162 -14651 0
-14653 11162 0
-14653 14651 0
14653 -11162 -14651 0
-14654 -11169 14653 0
-14654 11169 -14653 0
14654 11169 14653 0
14654 -11169 -14653 0
-14655 11169 0
-14655 14653 0
14655 -11169 -14653 0
-14656 -14655 0
-14656 -14653 0
14656 14655 14653 0
-14657 -11169 0
-14657 14656 0
14657 11169 -14656 0
-14658 -11176 -14657 0
-14658 11176 14657 0
14658 11176 -14657 0
14658 -11176 14657 0
-14659 11176 0
-14659 -14657 0
14659 -11176 14657 0
-14660 -14659 0
-14660 14657 0
14660 14659 -14657 0
-14661 -11176 0
-14661 14660 0
14661 11176 -14660 0
-14662 -11183 -14661 0
-14662 11183 14661 0
14662 11183 -14661 0
14662 -11183 14661 0
-14663 11183 0
-14663 -14661 0
14663 -11183 14661 0
-14664 -14663 0
-14664 14661 0
14664 14663 -14661 0
-14665 -11183 0
-14665 14664 0
14665 11183 -14664 0
-14666 -11190 -14665 0
-14666 11190 14665 0
14666 11190 -14665 0
14666 -11190 14665 0
-14667 11190 0
-14667 -14665 0
14667 -11190 14665 0
-14668 -14667 0
-14668 14665 0
14668 14667 -14665 0
-14669 -11190 0
-14669 14668 0
14669 11190 -14668 0
-14670 11197 -14669 0
-14670 -11197 14669 0
14670 -11197 -14669 0
14670 11197 14669 0
-14671 11197 0
-14671 -14669 0
14671 -11197 14669 0
-14672 -11204 14671 0
-14672 11204 -14671 0
14672 11204 14671 0
14672 -11204 -14671 0
-14673 11204 0
-14673 14671 0
14673 -11204 -14671 0
-14674 -14673 0
-14674 -14671 0
14674 14673 14671 0
-14675 -11204 0
-14675 14674 0
14675 11204 -14674 0
-14676 -11211 -14675 0
-14676 11211 14675 0
14676 11211 -14675 0
14676 -11211 14675 0
-14677 11211 0
-14677 -14675 0
14677 -11211 14675 0
-14678 -14677 0
-14678 14675 0
14678 14677 -14675 0
-14679 -11211 0
-14679 14678 0
14679 11211 -14678 0
-14680 -11218 -14679 0
-14680 11218 14679 0
14680 11218 -14679 0
14680 -11218 14679 0
-14681 11218 0
-14681 -14679 0
14681 -11218 14679 0
-14682 -14681 0
-14682 14679 0
14682 14681 -14679 0
-14683 -11218 0
-14683 14682 0
14683 11218 -14682 0
-14684 11225 -14683 0
-14684 -11225 14683 0
14684 -11225 -14683 0
14684 11225 14683 0
-14685 11225 0
-14685 -14683 0
14685 -11225 14683 0
-14686 -11232 14685 0
-14686 11232 -14685 0
14686 11232 14685 0
14686 -11232 -14685 0
-14687 11232 0
-14687 14685 0
14687 -11232 -14685 0
-14688 -14687 0
-14688 -14685 0
14688 14687 14685 0
-14689 -11232 0
-14689 14688 0
14689 11232 -14688 0
-14690 -11239 -14689 0
-14690 11239 14689 0
14690 11239 -14689 0
14690 -11239 14689 0
-14691 11239 0
-14691 -14689 0
14691 -11239 14689 0
-14692 -14691 0
-14692 14689 0
14692 14691 -14689 0
-14693 -11239 0
-14693 14692 0
14693 11239 -14692 0
-14694 11246 -14693 0
-14694 -11246 14693 0
14694 -11246 -14693 0
14694 11246 14693 0
-14695 11246 0
-14695 -14693 0
14695 -11246 14693 0
-14696 11253 14695 0
-14696 -11253 -14695 0
14696 -11253 14695 0
14696 11253 -14695 0
-14697 11253 0
-14697 14695 0
14697 -11253 -14695 0
-14698 11260 14697 0
-14698 -11260 -14697 0
14698 -11260 14697 0
14698 11260 -14697 0
-14699 11260 0
-14699 14697 0
14699 -11260 -14697 0
-14700 -11267 14699 0
-14700 11267 -14699 0
14700 11267 14699 0
14700 -11267 -14699 0
-14701 11267 0
-14701 14699 0
14701 -11267 -14699 0
-14702 -14701 0
-14702 -14699 0
14702 14701 14699 0
-14703 -11267 0
-14703 14702 0
14703 11267 -14702 0
-14704 -11274 -14703 0
-14704 11274 14703 0
14704 11274 -14703 0
14704 -11274 14703 0
-14705 11274 0
-14705 -14703 0
14705 -11274 14703 0
-14706 -14705 0
-14706 14703 0
14706 14705 -14703 0
-14707 -11274 0
-14707 14706 0
14707 11274 -14706 0
-14708 -11281 -14707 0
-14708 11281 14707 0
14708 11281 -14707 0
14708 -11281 14707 0
-14709 11281 0
-14709 -14707 0
14709 -11281 14707 0
-14710 -14709 0
-14710 14707 0
14710 14709 -14707 0
-14711 -11281 0
-14711 14710 0
14711 11281 -14710 0
-14712 -11288 -14711 0
-14712 11288 14711 0
14712 11288 -14711 0
14712 -11288 14711 0
-14713 11288 0
-14713 -14711 0
14713 -11288 14711 0
-14714 -14713 0
-14714 14711 0
14714 14713 -14711 0
-14715 -11288 0
-14715 14714 0
14715 11288 -14714 0
-14716 11295 -14715 0
-14716 -11295 14715 0
14716 -11295 -14715 0
14716 11295 14715 0
-14717 11295 0
-14717 -14715 0
14717 -11295 14715 0
-14718 11302 14717 0
-14718 -11302 -14717 0
14718 -11302 14717 0
14718 11302 -14717 0
-14719 11302 0
-14719 14717 0
14719 -11302 -14717 0
-14720 9538 9531 0
-14720 -9538 -9531 0
14720 -9538 9531 0
14720 9538 -9531 0
-14721 9538 0
-14721 9531 0
14721 -9538 -9531 0
-14722 -9545 14721 0
-14722 9545 -14721 0
14722 9545 14721 0
14722 -9545 -14721 0
-14723 9545 0
-14723 14721 0
14723 -9545 -14721 0
-14724 -14723 0
-14724 -14721 0
14724 14723 14721 0
-14725 -9545 0
-14725 14724 0
14725 9545 -14724 0
-14726 -9552 -14725 0
-14726 9552 14725 0
14726 9552 -14725 0
14726 -9552 14725 0
-14727 9552 0
-14727 -14725 0
14727 -9552 14725 0
-14728 -14727 0
-14728 14725 0
14728 14727 -14725 0
-14729 -9552 0
-14729 14728 0
14729 9552 -14728 0
-14730 -9559 -14729 0
-14730 9559 14729 0
14730 9559 -14729 0
14730 -9559 14729 0
-14731 9559 0
-14731 -14729 0
14731 -9559 14729 0
-14732 -14731 0
-14732 14729 0
14732 14731 -14729 0
-14733 -9559 0
-14733 14732 0
14733 9559 -14732 0
-14734 9566 -14733 0
-14734 -9566 14733 0
14734 -9566 -14733 0
14734 9566 14733 0
-14735 9566 0
-14735 -14733 0
14735 -9566 14733 0
-14736 9573 14735 0
-14736 -9573 -14735 0
14736 -9573 14735 0
14736 9573 -14735 0
-14737 9573 0
-14737 14735 0
14737 -9573 -14735 0
-14738 -9580 14737 0
-14738 9580 -14737 0
14738 9580 14737 0
14738 -9580 -14737 0
-14739 9580 0
-14739 14737 0
14739 -9580 -14737 0
-14740 -14739 0
-14740 -14737 0
14740 14739 14737 0
-14741 -9580 0
-14741 14740 0
14741 9580 -14740 0
-14742 9587 -14741 0
-14742 -9587 14741 0
14742 -9587 -14741 0
14742 9587 14741 0
-14743 9587 0
-14743 -14741 0
14743 -9587 14741 0
-14744 -9594 14743 0
-14744 9594 -14743 0
14744 9594 14743 0
14744 -9594 -14743 0
-14745 9594 0
-14745 14743 0
14745 -9594 -14743 0
-14746 -14745 0
-14746 -14743 0
14746 14745 14743 0
-14747 -9594 0
-14747 14746 0
14747 9594 -14746 0
-14748 9601 -14747 0
-14748 -9601 14747 0
14748 -9601 -14747 0
14748 9601 14747 0
-14749 9601 0
-14749 -14747 0
14749 -9601 14747 0
-14750 -9608 14749 0
-14750 9608 -14749 0
14750 9608 14749 0
14750 -9608 -14749 0
-14751 9608 0
-14751 14749 0
14751 -9608 -14749 0
-14752 -14751 0
-14752 -14749 0
14752 14751 14749 0
-14753 -9608 0
-14753 14752 0
14753 9608 -14752 0
-14754 -9615 -14753 0
-14754 9615 14753 0
14754 9615 -14753 0
14754 -9615 14753 0
-14755 9615 0
-14755 -14753 0
14755 -9615 14753 0
-14756 -14755 0
-14756 14753 0
14756 14755 -14753 0
-14757 -9615 0
-14757 14756 0
14757 9615 -14756 0
-14758 -9622 -14757 0
-14758 9622 14757 0
14758 9622 -14757 0
14758 -9622 14757 0
-14759 9622 0
-14759 -14757 0
14759 -9622 14757 0
-14760 -14759 0
-14760 14757 0
14760 14759 -14757 0
-14761 -9622 0
-14761 14760 0
14761 9622 -14760 0
-14762 -9629 -14761 0
-14762 9629 14761 0
14762 9629 -14761 0
14762 -9629 14761 0
-14763 9629 0
-14763 -14761 0
14763 -9629 14761 0
-14764 -14763 0
-14764 14761 0
14764 14763 -14761 0
-14765 -9629 0
-14765 14764 0
14765 9629 -14764 0
-14766 -9636 -14765 0
-14766 9636 14765 0
14766 9636 -14765 0
14766 -9636 14765 0
-14767 9636 0
-14767 -14765 0
14767 -9636 14765 0
-14768 -14767 0
-14768 14765 0
14768 14767 -14765 0
-14769 -9636 0
-14769 14768 0
14769 9636 -14768 0
-14770 -9643 -14769 0
-14770 9643 14769 0
14770 9643 -14769 0
14770 -9643 14769 0
-14771 9643 0
-14771 -14769 0
14771 -9643 14769 0
-14772 -14771 0
-14772 14769 0
14772 14771 -14769 0
-14773 -9643 0
-14773 14772 0
14773 9643 -14772 0
-14774 -9650 -14773 0
-14774 9650 14773 0
14774 9650 -14773 0
14774 -9650 14773 0
-14775 9650 0
-14775 -14773 0
14775 -9650 14773 0
-14776 -14775 0
-14776 14773 0
14776 14775 -14773 0
-14777 -9650 0
-14777 14776 0
14777 9650 -14776 0
-14778 -9657 -14777 0
-14778 9657 14777 0
14778 9657 -14777 0
14778 -9657 14777 0
-14779 9657 0
-14779 -14777 0
14779 -9657 14777 0
-14780 -14779 0
-14780 14777 0
14780 14779 -14777 0
-14781 -9657 0
-14781 14780 0
14781 9657 -14780 0
-14782 9664 -14781 0
-14782 -9664 14781 0
14782 -9664 -14781 0
14782 9664 14781 0
-14783 9664 0
-14783 -14781 0
14783 -9664 14781 0
-14784 9671 14783 0
-14784 -9671 -14783 0
14784 -9671 14783 0
14784 9671 -14783 0
-14785 9671 0
-14785 14783 0
14785 -9671 -14783 0
-14786 -9678 14785 0
-14786 9678 -14785 0
14786 9678 14785 0
14786 -9678 -14785 0
-14787 9678 0
-14787 14785 0
14787 -9678 -14785 0
-14788 -14787 0
-14788 -14785 0
14788 14787 14785 0
-14789 -9678 0
-14789 14788 0
14789 9678 -14788 0
-14790 9685 -14789 0
-14790 -9685 14789 0
14790 -9685 -14789 0
14790 9685 14789 0
-14791 9685 0
-14791 -14789 0
14791 -9685 14789 0
-14792 -9692 14791 0
-14792 9692 -14791 0
14792 9692 14791 0
14792 -9692 -14791 0
-14793 9692 0
-14793 14791 0
14793 -9692 -14791 0
-14794 -14793 0
-14794 -14791 0
14794 14793 14791 0
-14795 -9692 0
-14795 14794 0
14795 9692 -14794 0
-14796 9699 -14795 0
-14796 -9699 14795 0
14796 -9699 -14795 0
14796 9699 14795 0
-14797 9699 0
-14797 -14795 0
14797 -9699 14795 0
-14798 -9706 14797 0
-14798 9706 -14797 0
14798 9706 14797 0
14798 -9706 -14797 0
-14799 9706 0
-14799 14797 0
14799 -9706 -14797 0
-14800 -14799 0
-14800 -14797 0
14800 14799 14797 0
-14801 -9706 0
-14801 14800 0
14801 9706 -14800 0
-14802 9713 -14801 0
-14802 -9713 14801 0
14802 -9713 -14801 0
14802 9713 14801 0
-14803 9713 0
-14803 -14801 0
14803 -9713 14801 0
-14804 9720 14803 0
-14804 -9720 -14803 0
14804 -9720 14803 0
14804 9720 -14803 0
-14805 9720 0
-14805 14803 0
14805 -9720 -14803 0
-14806 -9727 14805 0
-14806 9727 -14805 0
14806 9727 14805 0
14806 -9727 -14805 0
-14807 9727 0
-14807 14805 0
14807 -9727 -14805 0
-14808 -14807 0
-14808 -14805 0
14808 14807 14805 0
-14809 -9727 0
-14809 14808 0
14809 9727 -14808 0
-14810 9734 -14809 0
-14810 -9734 14809 0
14810 -9734 -14809 0
14810 9734 14809 0
-14811 9734 0
-14811 -14809 0
14811 -9734 14809 0
-14812 -9741 14811 0
-14812 9741 -14811 0
14812 9741 14811 0
14812 -9741 -14811 0
-14813 9741 0
-14813 14811 0
14813 -9741 -14811 0
-14814 -14813 0
-14814 -14811 0
14814 14813 14811 0
-14815 -9741 0
-14815 14814 0
14815 9741 -14814 0
-14816 -13999 13996 0
-14816 13999 -13996 0
14816 13999 13996 0
14816 -13999 -13996 0
-14817 13999 0
-14817 13996 0
14817 -13999 -13996 0
-14818 -14817 0
-14818 -13996 0
14818 14817 13996 0
-14819 -13999 0
-14819 14818 0
14819 13999 -14818 0
-14820 -14006 -14819 0
-14820 14006 14819 0
14820 14006 -14819 0
14820 -14006 14819 0
-14821 14006 0
-14821 -14819 0
14821 -14006 14819 0
-14822 -14821 0
-14822 14819 0
14822 14821 -14819 0
-14823 -14006 0
-14823 14822 0
14823 14006 -14822 0
-14824 -14013 -14823 0
-14824 14013 14823 0
14824 14013 -14823 0
14824 -14013 14823 0
-14825 14013 0
-14825 -14823 0
14825 -14013 14823 0
-14826 -14825 0
-14826 14823 0
14826 14825 -14823 0
-14827 -14013 0
-14827 14826 0
14827 14013 -14826 0
-14828 -14020 -14827 0
-14828 14020 14827 0
14828 14020 -14827 0
14828 -14020 14827 0
-14829 14020 0
-14829 -14827 0
14829 -14020 14827 0
-14830 -14829 0
-14830 14827 0
14830 14829 -14827 0
-14831 -14020 0
-14831 14830 0
14831 14020 -14830 0
-14832 -14027 -14831 0
-14832 14027 14831 0
14832 14027 -14831 0
14832 -14027 14831 0
-14833 14027 0
-14833 -14831 0
14833 -14027 14831 0
-14834 -14833 0
-14834 14831 0
14834 14833 -14831 0
-14835 -14027 0
-14835 14834 0
14835 14027 -14834 0
-14836 -14034 -14835 0
-14836 14034 14835 0
14836 14034 -14835 0
14836 -14034 14835 0
-14837 14034 0
-14837 -14835 0
14837 -14034 14835 0
-14838 -14837 0
-14838 14835 0
14838 14837 -14835 0
-14839 -14034 0
-14839 14838 0
14839 14034 -14838 0
-14840 14041 -14839 0
-14840 -14041 14839 0
14840 -14041 -14839 0
14840 14041 14839 0
-14841 14041 0
-14841 -14839 0
14841 -14041 14839 0
-14842 14048 14841 0
-14842 -14048 -14841 0
14842 -14048 14841 0
14842 14048 -14841 0
-14843 14048 0
-14843 14841 0
14843 -14048 -14841 0
-14844 -14055 14843 0
-14844 14055 -14843 0
14844 14055 14843 0
14844 -14055 -14843 0
-14845 14055 0
-14845 14843 0
14845 -14055 -14843 0
-14846 -14845 0
-14846 -14843 0
14846 14845 14843 0
-14847 -14055 0
-14847 14846 0
14847 14055 -14846 0
-14848 14062 -14847 0
-14848 -14062 14847 0
14848 -14062 -14847 0
14848 14062 14847 0
-14849 14062 0
-14849 -14847 0
14849 -14062 14847 0
-14850 14069 14849 0
-14850 -14069 -14849 0
14850 -14069 14849 0
14850 14069 -14849 0
-14851 14069 0
-14851 14849 0
14851 -14069 -14849 0
-14852 -14076 14851 0
-14852 14076 -14851 0
14852 14076 14851 0
14852 -14076 -14851 0
-14853 14076 0
-14853 14851 0
14853 -14076 -14851 0
-14854 -14853 0
-14854 -14851 0
14854 14853 14851 0
-14855 -14076 0
-14855 14854 0
14855 14076 -14854 0
-14856 14083 -14855 0
-14856 -14083 14855 0
14856 -14083 -14855 0
14856 14083 14855 0
-14857 14083 0
-14857 -14855 0
14857 -14083 14855 0
-14858 -14090 14857 0
-14858 14090 -14857 0
14858 14090 14857 0
14858 -14090 -14857 0
-14859 14090 0
-14859 14857 0
14859 -14090 -14857 0
-14860 -14859 0
-14860 -14857 0
14860 14859 14857 0
-14861 -14090 0
-14861 14860 0
14861 14090 -14860 0
-14862 14097 -14861 0
-14862 -14097 14861 0
14862 -14097 -14861 0
14862 14097 14861 0
-14863 14097 0
-14863 -14861 0
14863 -14097 14861 0
-14864 14104 14863 0
-14864 -14104 -14863 0
14864 -14104 14863 0
14864 14104 -14863 0
-14865 14104 0
-14865 14863 0
14865 -14104 -14863 0
-14866 -14111 14865 0
-14866 14111 -14865 0
14866 14111 14865 0
14866 -14111 -14865 0
-14867 14111 0
-14867 14865 0
14867 -14111 -14865 0
-14868 -14867 0
-14868 -14865 0
14868 14867 14865 0
-14869 -14111 0
-14869 14868 0
14869 14111 -14868 0
-14870 -14118 -14869 0
-14870 14118 14869 0
14870 14118 -14869 0
14870 -14118 14869 0
-14871 14118 0
-14871 -14869 0
14871 -14118 14869 0
-14872 -14871 0
-14872 14869 0
14872 14871 -14869 0
-14873 -14118 0
-14873 14872 0
14873 14118 -14872 0
-14874 -14125 -14873 0
-14874 14125 14873 0
14874 14125 -14873 0
14874 -14125 14873 0
-14875 14125 0
-14875 -14873 0
14875 -14125 14873 0
-14876 -14875 0
-14876 14873 0
14876 14875 -14873 0
-14877 -14125 0
-14877 14876 0
14877 14125 -14876 0
-14878 14132 -14877 0
-14878 -14132 14877 0
14878 -14132 -14877 0
14878 14132 14877 0
-14879 14132 0
-14879 -14877 0
14879 -14132 14877 0
-14880 14139 14879 0
-14880 -14139 -14879 0
14880 -14139 14879 0
14880 14139 -14879 0
-14881 14139 0
-14881 14879 0
14881 -14139 -14879 0
-14882 14146 14881 0
-14882 -14146 -14881 0
14882 -14146 14881 0
14882 14146 -14881 0
-14883 14146 0
-14883 14881 0
14883 -14146 -14881 0
-14884 14153 14883 0
-14884 -14153 -14883 0
14884 -14153 14883 0
14884 14153 -14883 0
-14885 14153 0
-14885 14883 0
14885 -14153 -14883 0
-14886 -14160 14885 0
-14886 14160 -14885 0
14886 14160 14885 0
14886 -14160 -14885 0
-14887 14160 0
-14887 14885 0
14887 -14160 -14885 0
-14888 -14887 0
-14888 -14885 0
14888 14887 14885 0
-14889 -14160 0
-14889 14888 0
14889 14160 -14888 0
-14890 14167 -14889 0
-14890 -14167 14889 0
14890 -14167 -14889 0
14890 14167 14889 0
-14891 14167 0
-14891 -14889 0
14891 -14167 14889 0
-14892 14174 14891 0
-14892 -14174 -14891 0
14892 -14174 14891 0
14892 14174 -14891 0
-14893 14174 0
-14893 14891 0
14893 -14174 -14891 0
-14894 14181 14893 0
-14894 -14181 -14893 0
14894 -14181 14893 0
14894 14181 -14893 0
-14895 14181 0
-14895 14893 0
14895 -14181 -14893 0
-14896 -14188 14895 0
-14896 14188 -14895 0
14896 14188 14895 0
14896 -14188 -14895 0
-14897 14188 0
-14897 14895 0
14897 -14188 -14895 0
-14898 -14897 0
-14898 -14895 0
14898 14897 14895 0
-14899 -14188 0
-14899 14898 0
14899 14188 -14898 0
-14900 14195 -14899 0
-14900 -14195 14899 0
14900 -14195 -14899 0
14900 14195 14899 0
-14901 14195 0
-14901 -14899 0
14901 -14195 14899 0
-14902 -14202 14901 0
-14902 14202 -14901 0
14902 14202 14901 0
14902 -14202 -14901 0
-14903 14202 0
-14903 14901 0
14903 -14202 -14901 0
-14904 -14903 0
-14904 -14901 0
14904 14903 14901 0
-14905 -14202 0
-14905 14904 0
14905 14202 -14904 0
-14906 14209 -14905 0
-14906 -14209 14905 0
14906 -14209 -14905 0
14906 14209 14905 0
-14907 14209 0
-14907 -14905 0
14907 -14209 14905 0
-14908 -12448 12441 0
-14908 12448 -12441 0
14908 12448 12441 0
14908 -12448 -12441 0
-14909 12448 0
-14909 12441 0
14909 -12448 -12441 0
-14910 -14909 0
-14910 -12441 0
14910 14909 12441 0
-14911 -12448 0
-14911 14910 0
14911 12448 -14910 0
-14912 12455 -14911 0
-14912 -12455 14911 0
14912 -12455 -14911 0
14912 12455 14911 0
-14913 12455 0
-14913 -14911 0
14913 -12455 14911 0
-14914 12462 14913 0
-14914 -12462 -14913 0
14914 -12462 14913 0
14914 12462 -14913 0
-14915 12462 0
-14915 14913 0
14915 -12462 -14913 0
-14916 12469 14915 0
-14916 -12469 -14915 0
14916 -12469 14915 0
14916 12469 -14915 0
-14917 12469 0
-14917 14915 0
14917 -12469 -14915 0
-14918 -12476 14917 0
-14918 12476 -14917 0
14918 12476 14917 0
14918 -12476 -14917 0
-14919 12476 0
-14919 14917 0
14919 -12476 -14917 0
-14920 -14919 0
-14920 -14917 0
14920 14919 14917 0
-14921 -12476 0
-14921 14920 0
14921 12476 -14920 0
-14922 12483 -14921 0
-14922 -12483 14921 0
14922 -12483 -14921 0
14922 12483 14921 0
-14923 12483 0
-14923 -14921 0
14923 -12483 14921 0
-14924 12490 14923 0
-14924 -12490 -14923 0
14924 -12490 14923 0
14924 12490 -14923 0
-14925 12490 0
-14925 14923 0
14925 -12490 -14923 0
-14926 12497 14925 0
-14926 -12497 -14925 0
14926 -12497 14925 0
14926 12497 -14925 0
-14927 12497 0
-14927 14925 0
14927 -12497 -14925 0
-14928 -12504 14927 0
-14928 12504 -14927 0
14928 12504 14927 0
14928 -12504 -14927 0
-14929 12504 0
-14929 14927 0
14929 -12504 -14927 0
-14930 -14929 0
-14930 -14927 0
14930 14929 14927 0
-14931 -12504 0
-14931 14930 0
14931 12504 -14930 0
-14932 12511 -14931 0
-14932 -12511 14931 0
14932 -12511 -14931 0
14932 12511 14931 0
-14933 12511 0
-14933 -14931 0
14933 -12511 14931 0
-14934 -12518 14933 0
-14934 12518 -14933 0
14934 12518 14933 0
14934 -12518 -14933 0
-14935 12518 0
-14935 14933 0
14935 -12518 -14933 0
-14936 -14935 0
-14936 -14933 0
14936 14935 14933 0
-14937 -12518 0
-14937 14936 0
14937 12518 -14936 0
-14938 -12525 -14937 0
-14938 12525 14937 0
14938 12525 -14937 0
14938 -12525 14937 0
-14939 12525 0
-14939 -14937 0
14939 -12525 14937 0
-14940 -14939 0
-14940 14937 0
14940 14939 -14937 0
-14941 -12525 0
-14941 14940 0
14941 12525 -14940 0
-14942 12532 -14941 0
-14942 -12532 14941 0
14942 -12532 -14941 0
14942 12532 14941 0
-14943 12532 0
-14943 -14941 0
14943 -12532 14941 0
-14944 -12539 14943 0
-14944 12539 -14943 0
14944 12539 14943 0
14944 -12539 -14943 0
-14945 12539 0
-14945 14943 0
14945 -12539 -14943 0
-14946 -14945 0
-14946 -14943 0
14946 14945 14943 0
-14947 -12539 0
-14947 14946 0
14947 12539 -14946 0
-14948 12546 -14947 0
-14948 -12546 14947 0
14948 -12546 -14947 0
14948 12546 14947 0
-14949 12546 0
-14949 -14947 0
14949 -12546 14947 0
-14950 -12553 14949 0
-14950 12553 -14949 0
14950 12553 14949 0
14950 -12553 -14949 0
-14951 12553 0
-14951 14949 0
14951 -12553 -14949 0
-14952 -14951 0
-14952 -14949 0
14952 14951 14949 0
-14953 -12553 0
-14953 14952 0
14953 12553 -14952 0
-14954 12560 -14953 0
-14954 -12560 14953 0
14954 -12560 -14953 0
14954 12560 14953 0
-14955 12560 0
-14955 -14953 0
14955 -12560 14953 0
-14956 12567 14955 0
-14956 -12567 -14955 0
14956 -12567 14955 0
14956 12567 -14955 0
-14957 12567 0
-14957 14955 0
14957 -12567 -14955 0
-14958 12574 14957 0
-14958 -12574 -14957 0
14958 -12574 14957 0
14958 12574 -14957 0
-14959 12574 0
-14959 14957 0
14959 -12574 -14957 0
-14960 12581 14959 0
-14960 -12581 -14959 0
14960 -12581 14959 0
14960 12581 -14959 0
-14961 12581 0
-14961 14959 0
14961 -12581 -14959 0
-14962 12588 14961 0
-14962 -12588 -14961 0
14962 -12588 14961 0
14962 12588 -14961 0
-14963 12588 0
-14963 14961 0
14963 -12588 -14961 0
-14964 -12595 14963 0
-14964 12595 -14963 0
14964 12595 14963 0
14964 -12595 -14963 0
-14965 12595 0
-14965 14963 0
14965 -12595 -14963 0
-14966 -14965 0
-14966 -14963 0
14966 14965 14963 0
-14967 -12595 0
-14967 14966 0
14967 12595 -14966 0
-14968 -12602 -14967 0
-14968 12602 14967 0
14968 12602 -14967 0
14968 -12602 14967 0
-14969 12602 0
-14969 -14967 0
14969 -12602 14967 0
-14970 -14969 0
-14970 14967 0
14970 14969 -14967 0
-14971 -12602 0
-14971 14970 0
14971 12602 -14970 0
-14972 12609 -14971 0
-14972 -12609 14971 0
14972 -12609 -14971 0
14972 12609 14971 0
-14973 12609 0
-14973 -14971 0
14973 -12609 14971 0
-14974 -12616 14973 0
-14974 12616 -14973 0
14974 12616 14973 0
14974 -12616 -14973 0
-14975 12616 0
-14975 14973 0
14975 -12616 -14973 0
-14976 -14975 0
-14976 -14973 0
14976 14975 14973 0
-14977 -12616 0
-14977 14976 0
14977 12616 -14976 0
-14978 -12623 -14977 0
-14978 12623 14977 0
14978 12623 -14977 0
14978 -12623 14977 0
-14979 12623 0
-14979 -14977 0
14979 -12623 14977 0
-14980 -14979 0
-14980 14977 0
14980 14979 -14977 0
-14981 -12623 0
-14981 14980 0
14981 12623 -14980 0
-14982 12630 -14981 0
-14982 -12630 14981 0
14982 -12630 -14981 0
14982 12630 14981 0
-14983 12630 0
-14983 -14981 0
14983 -12630 14981 0
-14984 12637 14983 0
-14984 -12637 -14983 0
14984 -12637 14983 0
14984 12637 -14983 0
-14985 12637 0
-14985 14983 0
14985 -12637 -14983 0
-14986 -12644 14985 0
-14986 12644 -14985 0
14986 12644 14985 0
14986 -12644 -14985 0
-14987 12644 0
-14987 14985 0
14987 -12644 -14985 0
-14988 -14987 0
-14988 -14985 0
14988 14987 14985 0
-14989 -12644 0
-14989 14988 0
14989 12644 -14988 0
-14990 -10873 10870 0
-14990 10873 -10870 0
14990 10873 10870 0
14990 -10873 -10870 0
-14991 10873 0
-14991 10870 0
14991 -10873 -10870 0
-14992 -14991 0
-14992 -10870 0
14992 14991 10870 0
-14993 -10873 0
-14993 14992 0
14993 10873 -14992 0
-14994 10880 -14993 0
-14994 -10880 14993 0
14994 -10880 -14993 0
14994 10880 14993 0
-14995 10880 0
-14995 -14993 0
14995 -10880 14993 0
-14996 -10887 14995 0
-14996 10887 -14995 0
14996 10887 14995 0
14996 -10887 -14995 0
-14997 10887 0
-14997 14995 0
14997 -10887 -14995 0
-14998 -14997 0
-14998 -14995 0
14998 14997 14995 0
-14999 -10887 0
-14999 14998 0
14999 10887 -14998 0
-15000 10894 -14999 0
-15000 -10894 14999 0
15000 -10894 -14999 0
15000 10894 14999 0
-15001 10894 0
-15001 -14999 0
15001 -10894 14999 0
-15002 -10901 15001 0
-15002 10901 -15001 0
15002 10901 15001 0
15002 -10901 -15001 0
-15003 10901 0
-15003 15001 0
15003 -10901 -15001 0
-15004 -15003 0
-15004 -15001 0
15004 15003 15001 0
-15005 -10901 0
-15005 15004 0
15005 10901 -15004 0
-15006 10908 -15005 0
-15006 -10908 15005 0
15006 -10908 -15005 0
15006 10908 15005 0
-15007 10908 0
-15007 -15005 0
15007 -10908 15005 0
-15008 -10915 15007 0
-15008 10915 -15007 0
15008 10915 15007 0
15008 -10915 -15007 0
-15009 10915 0
-15009 15007 0
15009 -10915 -15007 0
-15010 -15009 0
-15010 -15007 0
15010 15009 15007 0
-15011 -10915 0
-15011 15010 0
15011 10915 -15010 0
-15012 -10922 -15011 0
-15012 10922 15011 0
15012 10922 -15011 0
15012 -10922 15011 0
-15013 10922 0
-15013 -15011 0
15013 -10922 15011 0
-15014 -15013 0
-15014 15011 0
15014 15013 -15011 0
-15015 -10922 0
-15015 15014 0
15015 10922 -15014 0
-15016 10929 -15015 0
-15016 -10929 15015 0
15016 -10929 -15015 0
15016 10929 15015 0
-15017 10929 0
-15017 -15015 0
15017 -10929 15015 0
-15018 10936 15017 0
-15018 -10936 -15017 0
15018 -10936 15017 0
15018 10936 -15017 0
-15019 10936 0
-15019 15017 0
15019 -10936 -15017 0
-15020 -10943 15019 0
-15020 10943 -15019 0
15020 10943 15019 0
15020 -10943 -15019 0
-15021 10943 0
-15021 15019 0
15021 -10943 -15019 0
-15022 -15021 0
-15022 -15019 0
15022 15021 15019 0
-15023 -10943 0
-15023 15022 0
15023 10943 -15022 0
-15024 -10950 -15023 0
-15024 10950 15023 0
15024 10950 -15023 0
15024 -10950 15023 0
-15025 10950 0
-15025 -15023 0
15025 -10950 15023 0
-15026 -15025 0
-15026 15023 0
15026 15025 -15023 0
-15027 -10950 0
-15027 15026 0
15027 10950 -15026 0
-15028 10957 -15027 0
-15028 -10957 15027 0
15028 -10957 -15027 0
15028 10957 15027 0
-15029 10957 0
-15029 -15027 0
15029 -10957 15027 0
-15030 -10964 15029 0
-15030 10964 -15029 0
15030 10964 15029 0
15030 -10964 -15029 0
-15031 10964 0
-15031 15029 0
15031 -10964 -15029 0
-15032 -15031 0
-15032 -15029 0
15032 15031 15029 0
-15033 -10964 0
-15033 15032 0
15033 10964 -15032 0
-15034 -10971 -15033 0
-15034 10971 15033 0
15034 10971 -15033 0
15034 -10971 15033 0
-15035 10971 0
-15035 -15033 0
15035 -10971 15033 0
-15036 -15035 0
-15036 15033 0
15036 15035 -15033 0
-15037 -10971 0
-15037 15036 0
15037 10971 -15036 0
-15038 -10978 -15037 0
-15038 10978 15037 0
15038 10978 -15037 0
15038 -10978 15037 0
-15039 10978 0
-15039 -15037 0
15039 -10978 15037 0
-15040 -15039 0
-15040 15037 0
15040 15039 -15037 0
-15041 -10978 0
-15041 15040 0
15041 10978 -15040 0
-15042 -10985 -15041 0
-15042 10985 15041 0
15042 10985 -15041 0
15042 -10985 15041 0
-15043 10985 0
-15043 -15041 0
15043 -10985 15041 0
-15044 -15043 0
-15044 15041 0
15044 15043 -15041 0
-15045 -10985 0
-15045 15044 0
15045 10985 -15044 0
-15046 10992 -15045 0
-15046 -10992 15045 0
15046 -10992 -15045 0
15046 10992 15045 0
-15047 10992 0
-15047 -15045 0
15047 -10992 15045 0
-15048 10999 15047 0
-15048 -10999 -15047 0
15048 -10999 15047 0
15048 10999 -15047 0
-15049 10999 0
-15049 15047 0
15049 -10999 -15047 0
-15050 11006 15049 0
-15050 -11006 -15049 0
15050 -11006 15049 0
15050 11006 -15049 0
-15051 11006 0
-15051 15049 0
15051 -11006 -15049 0
-15052 11013 15051 0
-15052 -11013 -15051 0
15052 -11013 15051 0
15052 11013 -15051 0
-15053 11013 0
-15053 15051 0
15053 -11013 -15051 0
-15054 11020 15053 0
-15054 -11020 -15053 0
15054 -11020 15053 0
15054 11020 -15053 0
-15055 11020 0
-15055 15053 0
15055 -11020 -15053 0
-15056 -11027 15055 0
-15056 11027 -15055 0
15056 11027 15055 0
15056 -11027 -15055 0
-15057 11027 0
-15057 15055 0
15057 -11027 -15055 0
-15058 -15057 0
-15058 -15055 0
15058 15057 15055 0
-15059 -11027 0
-15059 15058 0
15059 11027 -15058 0
-15060 -11034 -15059 0
-15060 11034 15059 0
15060 11034 -15059 0
15060 -11034 15059 0
-15061 11034 0
-15061 -15059 0
15061 -11034 15059 0
-15062 -15061 0
-15062 15059 0
15062 15061 -15059 0
-15063 -11034 0
-15063 15062 0
15063 11034 -15062 0
-15064 -11041 -15063 0
-15064 11041 15063 0
15064 11041 -15063 0
15064 -11041 15063 0
-15065 11041 0
-15065 -15063 0
15065 -11041 15063 0
-15066 -15065 0
-15066 15063 0
15066 15065 -15063 0
-15067 -11041 0
-15067 15066 0
15067 11041 -15066 0
-15068 -11048 -15067 0
-15068 11048 15067 0
15068 11048 -15067 0
15068 -11048 15067 0
-15069 11048 0
-15069 -15067 0
15069 -11048 15067 0
-15070 -15069 0
-15070 15067 0
15070 15069 -15067 0
-15071 -11048 0
-15071 15070 0
15071 11048 -15070 0
-15072 -11055 -15071 0
-15072 11055 15071 0
15072 11055 -15071 0
15072 -11055 15071 0
-15073 11055 0
-15073 -15071 0
15073 -11055 15071 0
-15074 -15073 0
-15074 15071 0
15074 15073 -15071 0
-15075 -11055 0
-15075 15074 0
15075 11055 -15074 0
-15076 -11062 -15075 0
-15076 11062 15075 0
15076 11062 -15075 0
15076 -11062 15075 0
-15077 11062 0
-15077 -15075 0
15077 -11062 15075 0
-15078 -15077 0
-15078 15075 0
15078 15077 -15075 0
-15079 -11062 0
-15079 15078 0
15079 11062 -15078 0
-15080 11069 -15079 0
-15080 -11069 15079 0
15080 -11069 -15079 0
15080 11069 15079 0
-15081 11069 0
-15081 -15079 0
15081 -11069 15079 0
-15082 11076 15081 0
-15082 -11076 -15081 0
15082 -11076 15081 0
15082 11076 -15081 0
-15083 11076 0
-15083 15081 0
15083 -11076 -15081 0
-15084 11083 15083 0
-15084 -11083 -15083 0
15084 -11083 15083 0
15084 11083 -15083 0
-15085 11083 0
-15085 15083 0
15085 -11083 -15083 0
-15086 9312 9309 0
-15086 -9312 -9309 0
15086 -9312 9309 0
15086 9312 -9309 0
-15087 9312 0
-15087 9309 0
15087 -9312 -9309 0
-15088 9319 15087 0
-15088 -9319 -15087 0
15088 -9319 15087 0
15088 9319 -15087 0
-15089 9319 0
-15089 15087 0
15089 -9319 -15087 0
-15090 -9326 15089 0
-15090 9326 -15089 0
15090 9326 15089 0
15090 -9326 -15089 0
-15091 9326 0
-15091 15089 0
15091 -9326 -15089 0
-15092 -15091 0
-15092 -15089 0
15092 15091 15089 0
-15093 -9326 0
-15093 15092 0
15093 9326 -15092 0
-15094 -9333 -15093 0
-15094 9333 15093 0
15094 9333 -15093 0
15094 -9333 15093 0
-15095 9333 0
-15095 -15093 0
15095 -9333 15093 0
-15096 -15095 0
-15096 15093 0
15096 15095 -15093 0
-15097 -9333 0
-15097 15096 0
15097 9333 -15096 0
-15098 9340 -15097 0
-15098 -9340 15097 0
15098 -9340 -15097 0
15098 9340 15097 0
-15099 9340 0
-15099 -15097 0
15099 -9340 15097 0
-15100 9347 15099 0
-15100 -9347 -15099 0
15100 -9347 15099 0
15100 9347 -15099 0
-15101 9347 0
-15101 15099 0
15101 -9347 -15099 0
-15102 9354 15101 0
-15102 -9354 -15101 0
15102 -9354 15101 0
15102 9354 -15101 0
-15103 9354 0
-15103 15101 0
15103 -9354 -15101 0
-15104 -9361 15103 0
-15104 9361 -15103 0
15104 9361 15103 0
15104 -9361 -15103 0
-15105 9361 0
-15105 15103 0
15105 -9361 -15103 0
-15106 -15105 0
-15106 -15103 0
15106 15105 15103 0
-15107 -9361 0
-15107 15106 0
15107 9361 -15106 0
-15108 9368 -15107 0
-15108 -9368 15107 0
15108 -9368 -15107 0
15108 9368 15107 0
-15109 9368 0
-15109 -15107 0
15109 -9368 15107 0
-15110 -9375 15109 0
-15110 9375 -15109 0
15110 9375 15109 0
15110 -9375 -15109 0
-15111 9375 0
-15111 15109 0
15111 -9375 -15109 0
-15112 -15111 0
-15112 -15109 0
15112 15111 15109 0
-15113 -9375 0
-15113 15112 0
15113 9375 -15112 0
-15114 -9382 -15113 0
-15114 9382 15113 0
15114 9382 -15113 0
15114 -9382 15113 0
-15115 9382 0
-15115 -15113 0
15115 -9382 15113 0
-15116 -15115 0
-15116 15113 0
15116 15115 -15113 0
-15117 -9382 0
-15117 15116 0
15117 9382 -15116 0
-15118 9389 -15117 0
-15118 -9389 15117 0
15118 -9389 -15117 0
15118 9389 15117 0
-15119 9389 0
-15119 -15117 0
15119 -9389 15117 0
-15120 9396 15119 0
-15120 -9396 -15119 0
15120 -9396 15119 0
15120 9396 -15119 0
-15121 9396 0
-15121 15119 0
15121 -9396 -15119 0
-15122 -9403 15121 0
-15122 9403 -15121 0
15122 9403 15121 0
15122 -9403 -15121 0
-15123 9403 0
-15123 15121 0
15123 -9403 -15121 0
-15124 -15123 0
-15124 -15121 0
15124 15123 15121 0
-15125 -9403 0
-15125 15124 0
15125 9403 -15124 0
-15126 -9410 -15125 0
-15126 9410 15125 0
15126 9410 -15125 0
15126 -9410 15125 0
-15127 9410 0
-15127 -15125 0
15127 -9410 15125 0
-15128 -15127 0
-15128 15125 0
15128 15127 -15125 0
-15129 -9410 0
-15129 15128 0
15129 9410 -15128 0
-15130 9417 -15129 0
-15130 -9417 15129 0
15130 -9417 -15129 0
15130 9417 15129 0
-15131 9417 0
-15131 -15129 0
15131 -9417 15129 0
-15132 9424 15131 0
-15132 -9424 -15131 0
15132 -9424 15131 0
15132 9424 -15131 0
-15133 9424 0
-15133 15131 0
15133 -9424 -15131 0
-15134 9431 15133 0
-15134 -9431 -15133 0
15134 -9431 15133 0
15134 9431 -15133 0
-15135 9431 0
-15135 15133 0
15135 -9431 -15133 0
-15136 9438 15135 0
-15136 -9438 -15135 0
15136 -9438 15135 0
15136 9438 -15135 0
-15137 9438 0
-15137 15135 0
15137 -9438 -15135 0
-15138 9445 15137 0
-15138 -9445 -15137 0
15138 -9445 15137 0
15138 9445 -15137 0
-15139 9445 0
-15139 15137 0
15139 -9445 -15137 0
-15140 -9452 15139 0
-15140 9452 -15139 0
15140 9452 15139 0
15140 -9452 -15139 0
-15141 9452 0
-15141 15139 0
15141 -9452 -15139 0
-15142 -15141 0
-15142 -15139 0
15142 15141 15139 0
-15143 -9452 0
-15143 15142 0
15143 9452 -15142 0
-15144 -9459 -15143 0
-15144 9459 15143 0
15144 9459 -15143 0
15144 -9459 15143 0
-15145 9459 0
-15145 -15143 0
15145 -9459 15143 0
-15146 -15145 0
-15146 15143 0
15146 15145 -15143 0
-15147 -9459 0
-15147 15146 0
15147 9459 -15146 0
-15148 -9466 -15147 0
-15148 9466 15147 0
15148 9466 -15147 0
15148 -9466 15147 0
-15149 9466 0
-15149 -15147 0
15149 -9466 15147 0
-15150 -15149 0
-15150 15147 0
15150 15149 -15147 0
-15151 -9466 0
-15151 15150 0
15151 9466 -15150 0
-15152 -9473 -15151 0
-15152 9473 15151 0
15152 9473 -15151 0
15152 -9473 15151 0
-15153 9473 0
-15153 -15151 0
15153 -9473 15151 0
-15154 -15153 0
-15154 15151 0
15154 15153 -15151 0
-15155 -9473 0
-15155 15154 0
15155 9473 -15154 0
-15156 -9480 -15155 0
-15156 9480 15155 0
15156 9480 -15155 0
15156 -9480 15155 0
-15157 9480 0
-15157 -15155 0
15157 -9480 15155 0
-15158 -15157 0
-15158 15155 0
15158 15157 -15155 0
-15159 -9480 0
-15159 15158 0
15159 9480 -15158 0
-15160 9487 -15159 0
-15160 -9487 15159 0
15160 -9487 -15159 0
15160 9487 15159 0
-15161 9487 0
-15161 -15159 0
15161 -9487 15159 0
-15162 -9494 15161 0
-15162 9494 -15161 0
15162 9494 15161 0
15162 -9494 -15161 0
-15163 9494 0
-15163 15161 0
15163 -9494 -15161 0
-15164 -15163 0
-15164 -15161 0
15164 15163 15161 0
-15165 -9494 0
-15165 15164 0
15165 9494 -15164 0
-15166 -9501 -15165 0
-15166 9501 15165 0
15166 9501 -15165 0
15166 -9501 15165 0
-15167 9501 0
-15167 -15165 0
15167 -9501 15165 0
-15168 -15167 0
-15168 15165 0
15168 15167 -15165 0
-15169 -9501 0
-15169 15168 0
15169 9501 -15168 0
-15170 9508 -15169 0
-15170 -9508 15169 0
15170 -9508 -15169 0
15170 9508 15169 0
-15171 9508 0
-15171 -15169 0
15171 -9508 15169 0
-15172 -9515 15171 0
-15172 9515 -15171 0
15172 9515 15171 0
15172 -9515 -15171 0
-15173 9515 0
-15173 15171 0
15173 -9515 -15171 0
-15174 -15173 0
-15174 -15171 0
15174 15173 15171 0
-15175 -9515 0
-15175 15174 0
15175 9515 -15174 0
-15176 9522 -15175 0
-15176 -9522 15175 0
15176 -9522 -15175 0
15176 9522 15175 0
-15177 9522 0
-15177 -15175 0
15177 -9522 15175 0
14215 0
14434 0
-14438 0
14442 0
14444 0
-14446 0
-14450 0
-14454 0
14456 0
-14458 0
-14462 0
14466 0
14468 0
-14470 0
14474 0
-14478 0
14482 0
-14486 0
-14488 0
-14490 0
14494 0
-14496 0
14498 0
14500 0
-14502 0
14504 0
14508 0
14510 0
-14514 0
-14516 0
-14520 0
14524 0
12650 0
-14526 0
-14528 0
-14532 0
14534 0
14536 0
-14538 0
-14540 0
14544 0
14546 0
-14550 0
14554 0
-14558 0
-14560 0
-14564 0
14566 0
14570 0
14574 0
14578 0
-14582 0
14584 0
-14586 0
14590 0
14594 0
14596 0
14600 0
-14604 0
-14606 0
14610 0
14614 0
14618 0
14620 0
11089 0
11092 0
-14624 0
14626 0
-14628 0
14632 0
14636 0
-14640 0
14642 0
14646 0
-14650 0
14652 0
-14654 0
-14658 0
-14662 0
14666 0
14670 0
14672 0
-14676 0
-14680 0
-14684 0
-14686 0
14690 0
14694 0
14696 0
-14698 0
14700 0
14704 0
-14708 0
14712 0
-14716 0
-14718 0
-9528 0
-9531 0
14720 0
-14722 0
14726 0
-14730 0
14734 0
14736 0
-14738 0
-14742 0
14744 0
-14748 0
-14750 0
14754 0
-14758 0
-14762 0
-14766 0
14770 0
14774 0
-14778 0
14782 0
14784 0
14786 0
-14790 0
-14792 0
14796 0
14798 0
-14802 0
-14804 0
-14806 0
-14810 0
14812 0
13996 0
14816 0
14820 0
14824 0
-14828 0
14832 0
-14836 0
-14840 0
14842 0
-14844 0
-14848 0
-14850 0
14852 0
-14856 0
14858 0
-14862 0
-14864 0
14866 0
-14870 0
-14874 0
14878 0
14880 0
-14882 0
-14884 0
-14886 0
-14890 0
14892 0
14894 0
-14896 0
14900 0
-14902 0
-14906 0
12431 0
-12434 0
12441 0
-14908 0
-14912 0
-14914 0
-14916 0
14918 0
-14922 0
-14924 0
14926 0
-14928 0
14932 0
14934 0
14938 0
14942 0
14944 0
-14948 0
-14950 0
14954 0
14956 0
-14958 0
-14960 0
14962 0
14964 0
14968 0
14972 0
-14974 0
-14978 0
-14982 0
-14984 0
-14986 0
10870 0
-14990 0
-14994 0
14996 0
-15000 0
-15002 0
-15006 0
-15008 0
-15012 0
-15016 0
15018 0
-15020 0
15024 0
15028 0
15030 0
-15034 0
15038 0
15042 0
15046 0
-15048 0
15050 0
-15052 0
15054 0
15056 0
15060 0
-15064 0
-15068 0
-15072 0
-15076 0
-15080 0
15082 0
15084 0
9309 0
15086 0
-15088 0
15090 0
15094 0
15098 0
15100 0
15102 0
15104 0
-15108 0
-15110 0
15114 0
-15118 0
-15120 0
15122 0
15126 0
-15130 0
15132 0
15134 0
-15136 0
15138 0
-15140 0
15144 0
-15148 0
-15152 0
-15156 0
15160 0
15162 0
15166 0
-15170 0
15172 0
15176 0
